8525 
{'Au': 3955, 'No': 4570}
Au	 -45.67507890	 -66.86113753	 -55.86353223
Au	 -68.61001477	 -58.14390501	 -47.41933156
Au	 -50.27000760	 -67.66169801	 -49.74635521
Au	 -52.55003798	 -66.34202037	 -48.52394812
Au	 -58.36375276	 -69.22095598	 -48.03191828
Au	 -54.81887981	 -65.00312732	 -47.29281904
Au	 -59.52544281	 -66.80900900	 -49.12372202
Au	 -51.64921469	 -66.00217681	 -45.63559381
Au	 -53.92498602	 -64.59890391	 -44.49418097
Au	 -61.79495147	 -65.54675382	 -47.81528824
Au	 -64.07555799	 -64.29329065	 -46.52609054
Au	 -58.58277280	 -66.38790600	 -46.42775030
Au	 -60.86259091	 -65.06089041	 -45.20603337
Au	 -49.11709356	 -66.62217217	 -52.20084943
Au	 -47.98129786	 -65.58944990	 -54.67054770
Au	 -50.26617320	 -64.29171467	 -53.45450413
Au	 -46.90410527	 -65.45830722	 -51.66520648
Au	 -53.65074170	 -63.96338391	 -49.72960402
Au	 -52.51907934	 -62.95409358	 -52.20488790
Au	 -54.73390498	 -61.56652975	 -50.91799260
Au	 -51.39454347	 -65.30789580	 -50.97562155
Au	 -50.40670687	 -65.03513618	 -48.06966935
No	 -49.18667048	 -64.08352056	 -50.52719893
No	 -51.44510742	 -62.67675522	 -49.36452280
Au	 -48.12674640	 -66.42066781	 -49.21084980
Au	 -45.94679419	 -65.26145560	 -48.62613653
Au	 -48.22570444	 -63.81392349	 -47.57023131
Au	 -60.66332406	 -64.37137748	 -50.19456883
Au	 -59.54922887	 -63.21327438	 -52.59206942
Au	 -61.76466002	 -61.89529962	 -51.23497955
Au	 -58.42212707	 -65.66026254	 -51.53423741
Au	 -57.39757659	 -65.30926064	 -48.83153980
Au	 -53.67886568	 -61.23518328	 -48.17933608
Au	 -58.46414000	 -62.87823783	 -49.98073714
Au	 -52.67141010	 -63.62640254	 -46.91464153
Au	 -51.79973651	 -63.22433632	 -44.06967983
No	 -50.48646805	 -62.34089063	 -46.49662300
Au	 -52.73049586	 -60.84259651	 -45.40934573
Au	 -49.53192474	 -64.69697633	 -45.13420655
Au	 -47.37989098	 -63.47638412	 -44.58703572
Au	 -49.63890408	 -61.93896055	 -43.60339185
Au	 -65.19806411	 -61.83808064	 -47.59674009
Au	 -64.01806236	 -60.61470719	 -49.92783845
Au	 -66.30337958	 -59.36775618	 -48.66056878
Au	 -62.92010900	 -63.09429514	 -48.88053505
Au	 -61.92435689	 -62.62204136	 -46.35858936
No	 -60.70166517	 -61.50764962	 -48.72079975
No	 -62.96324528	 -60.16011383	 -47.49575093
No	 -59.65602349	 -63.96236836	 -47.58565399
Au	 -58.74213581	 -63.48686818	 -44.93724335
Au	 -57.47366639	 -62.47782144	 -47.32607407
No	 -59.72480641	 -61.05093768	 -46.16027424
Au	 -56.47391600	 -64.89438166	 -46.09182936
Au	 -55.65038463	 -64.41113314	 -43.32035925
Au	 -51.88604169	 -60.38251880	 -42.61151569
Au	 -56.57899231	 -62.00939329	 -44.63503823
Au	 -48.89914656	 -61.46473269	 -40.68835606
Au	 -51.14331943	 -59.84970783	 -39.79029363
Au	 -65.24858769	 -58.83766065	 -46.30263269
Au	 -64.20747360	 -61.29598597	 -45.15477641
Au	 -61.99161422	 -59.63859180	 -45.01993474
Au	 -64.27586475	 -58.24467888	 -43.90507005
Au	 -61.01678991	 -62.08292880	 -43.79717367
Au	 -58.83670080	 -60.52409322	 -43.56144951
Au	 -61.10484705	 -59.04813546	 -42.50720668
Au	 -55.78018043	 -61.46963215	 -41.91386652
Au	 -58.03845162	 -59.92496019	 -40.93135287
Au	 -57.00370891	 -46.54608944	 -67.73670165
Au	 -46.85652917	 -64.55520856	 -57.14646411
Au	 -45.73315062	 -63.50974891	 -59.61648262
Au	 -48.06398091	 -62.27054923	 -58.45257517
Au	 -44.49022387	 -63.53100012	 -56.59415434
Au	 -44.60291370	 -62.44696110	 -62.07156169
Au	 -45.83225861	 -60.16675629	 -63.38447594
Au	 -49.31127309	 -60.01770152	 -59.79246188
Au	 -48.21127747	 -58.97592775	 -62.26856245
Au	 -50.60852045	 -57.80261561	 -61.16993392
Au	 -46.95709339	 -61.23233131	 -60.93201179
No	 -45.62228747	 -61.24882879	 -57.97449108
Au	 -44.42686134	 -60.27085637	 -60.43376720
No	 -46.78625737	 -58.99030611	 -59.38004837
Au	 -43.28412835	 -62.55091972	 -59.04968523
Au	 -42.08674000	 -62.58843245	 -55.97693854
Au	 -43.13940072	 -60.30986574	 -57.42737161
Au	 -47.08087570	 -57.89747478	 -64.70632065
Au	 -45.92954743	 -56.79513376	 -67.11844314
Au	 -48.34147557	 -55.63251188	 -66.02759007
Au	 -43.21604203	 -59.26987836	 -62.87009160
Au	 -44.37671383	 -56.99283083	 -64.25538174
Au	 -51.93812603	 -55.60684684	 -62.56020581
Au	 -50.77908901	 -54.49369753	 -64.95769444
Au	 -53.25515041	 -53.39142635	 -63.91823540
Au	 -49.49115655	 -56.73488077	 -63.61708702
No	 -47.98512947	 -56.75564099	 -60.80884181
No	 -46.77771693	 -55.74967846	 -63.23747894
No	 -49.20569054	 -54.53155969	 -62.24288615
No	 -45.59285216	 -58.00542667	 -61.83226432
No	 -44.21751751	 -58.04862476	 -58.89637337
Au	 -42.93763110	 -57.12784388	 -61.32726967
No	 -45.32111068	 -55.80286938	 -60.38007914
Au	 -41.85977694	 -59.39706679	 -59.86654596
Au	 -40.62219735	 -59.45518998	 -56.80929916
Au	 -41.61315988	 -57.19512169	 -58.34045926
Au	 -49.60277893	 -53.36301575	 -67.33696314
Au	 -50.85529243	 -51.08241899	 -68.62710074
Au	 -45.54710079	 -54.71846248	 -65.63925897
Au	 -46.71929504	 -52.44074251	 -67.01369910
Au	 -54.53479564	 -51.13803132	 -65.22631638
Au	 -53.31048840	 -49.95897515	 -67.55740296
Au	 -55.78080157	 -48.85271975	 -66.49452548
Au	 -52.05522142	 -52.23692267	 -66.27266807
No	 -50.42162723	 -52.29589871	 -63.65561086
Au	 -49.15543412	 -51.22693294	 -66.01589668
No	 -51.61496776	 -50.03566200	 -65.03351155
No	 -47.96967236	 -53.49351644	 -64.63601671
No	 -46.44051509	 -53.56318237	 -61.86549198
Au	 -45.12880961	 -52.60127703	 -64.25041736
No	 -47.55911339	 -51.31595267	 -63.33566695
Au	 -44.03004693	 -54.86487226	 -62.79170514
Au	 -42.62348403	 -54.94532428	 -59.88111282
Au	 -41.25346013	 -54.07953816	 -62.27537603
Au	 -43.64606392	 -52.69904296	 -61.42172064
Au	 -38.98026439	 -56.43074635	 -57.71025125
Au	 -39.89854102	 -54.18290825	 -59.30872714
Au	 -52.78357357	 -47.75135812	 -66.37943863
Au	 -50.32728143	 -48.94517052	 -67.37256340
Au	 -48.66397064	 -49.05208432	 -64.78055563
Au	 -49.75106274	 -46.77013456	 -66.19994036
Au	 -46.22464153	 -50.33028773	 -65.69492972
Au	 -44.66978415	 -50.44741303	 -62.95081064
Au	 -45.68521161	 -48.18399806	 -64.46085250
Au	 -40.82675843	 -51.93703921	 -60.90627460
Au	 -41.75714075	 -49.68709290	 -62.49475301
Au	 -67.39760166	 -56.89132237	 -49.72587412
Au	 -66.15917083	 -55.61560152	 -52.01112234
Au	 -68.49038826	 -54.42089563	 -50.80233397
Au	 -67.29829786	 -53.90254450	 -48.60027930
Au	 -64.88088308	 -54.30617441	 -54.26450602
Au	 -63.55264258	 -52.95926714	 -56.48002030
Au	 -65.95026737	 -51.82983568	 -55.33712928
Au	 -69.59001324	 -51.96549880	 -51.89605148
Au	 -68.32967011	 -50.68312535	 -54.17671371
Au	 -67.23544816	 -53.13583660	 -53.08027875
No	 -65.98149884	 -52.70357141	 -50.88582241
No	 -64.63273235	 -51.47979696	 -53.14735883
Au	 -66.99442551	 -50.24253383	 -52.04805575
Au	 -68.32195775	 -51.44481751	 -49.76499145
Au	 -67.13589524	 -50.87693861	 -47.59505516
Au	 -65.74494230	 -49.75887374	 -49.87954588
Au	 -62.19210156	 -51.59967200	 -58.67604776
Au	 -60.84425180	 -50.27237921	 -60.89155683
Au	 -63.32059115	 -49.20205104	 -59.81987683
Au	 -67.05007276	 -49.39189329	 -56.44636282
Au	 -65.75853580	 -48.10130226	 -58.71158442
Au	 -68.17082008	 -46.97961203	 -57.57944356
Au	 -64.63942180	 -50.51194976	 -57.57850411
No	 -63.24912600	 -50.23333981	 -55.38442191
No	 -61.84414256	 -48.98217566	 -57.61004540
No	 -64.27422196	 -47.80373849	 -56.57366522
Au	 -68.02276282	 -47.80483071	 -53.23289448
Au	 -66.67742725	 -46.60208404	 -55.51206230
No	 -65.64367002	 -49.02626786	 -54.31601897
No	 -64.32848331	 -48.62298113	 -52.14601993
No	 -62.88671439	 -47.47327434	 -54.39595207
Au	 -65.27432869	 -46.18981460	 -53.40311206
Au	 -66.69042682	 -47.31673889	 -51.12944461
Au	 -65.44284925	 -46.78488761	 -48.98907665
Au	 -63.96049005	 -45.73787288	 -51.25639622
Au	 -59.53388543	 -48.99503926	 -63.14493197
Au	 -58.25722744	 -47.75755573	 -65.43017003
Au	 -60.72764959	 -46.66382581	 -64.35465809
Au	 -64.46635979	 -46.82265220	 -60.98123019
Au	 -63.18304460	 -45.56325693	 -63.26188630
Au	 -62.01364820	 -47.91781807	 -62.07672157
No	 -60.44431754	 -47.75265473	 -59.84639094
No	 -59.06763635	 -46.55802998	 -62.10669237
Au	 -61.52848837	 -45.39160268	 -61.09814521
Au	 -65.32261187	 -45.40109300	 -57.78797289
Au	 -63.96632503	 -44.20978211	 -60.06665620
No	 -62.89803474	 -46.58824642	 -58.83101332
No	 -61.42965182	 -46.32269607	 -56.63846266
No	 -59.97421516	 -45.18789158	 -58.88716024
Au	 -62.40787785	 -43.93629244	 -57.93532571
Au	 -63.84399385	 -45.05990184	 -55.66947998
Au	 -62.45905403	 -44.68250389	 -53.51202094
Au	 -60.94604637	 -43.62822277	 -55.76240334
Au	 -63.34429597	 -42.28572375	 -54.86510595
Au	 -63.52240799	 -42.82794684	 -50.47538318
Au	 -61.96079308	 -41.86542249	 -52.73060802
Au	 -57.71610656	 -45.39532419	 -64.39069893
Au	 -60.17328506	 -44.21821430	 -63.37998528
Au	 -58.53339902	 -44.07855619	 -61.15143420
Au	 -57.11108351	 -42.99468676	 -63.43309207
Au	 -60.97540429	 -42.82722271	 -60.20751403
Au	 -59.43292013	 -42.58616674	 -58.01640532
Au	 -57.92921139	 -41.56346512	 -60.28076132
Au	 -60.39005728	 -40.90502051	 -54.98184996
Au	 -58.81832660	 -39.95453433	 -57.23515242
Au	 -51.43331521	 -61.97838241	 -54.72599669
Au	 -50.37767972	 -61.01326942	 -57.27085386
Au	 -52.64719267	 -59.70921221	 -56.04334378
Au	 -49.16113578	 -63.28517487	 -55.95343800
No	 -47.98921183	 -63.14355584	 -53.00616586
No	 -46.80593634	 -62.20358334	 -55.49454409
No	 -49.09908980	 -60.85130081	 -54.37110805
Au	 -45.69424395	 -64.49778156	 -54.12947314
Au	 -44.65375143	 -64.37520316	 -51.07434615
Au	 -43.36925676	 -63.48645738	 -53.52748243
No	 -45.67028327	 -62.07561687	 -52.49734852
Au	 -58.48050137	 -62.09956911	 -55.03655654
Au	 -54.76815107	 -58.24648915	 -54.66342059
Au	 -59.45376205	 -59.49730858	 -55.94386856
Au	 -53.64361520	 -60.60029137	 -53.43415425
Au	 -52.47689937	 -60.31167277	 -50.65278549
No	 -51.34416017	 -59.44562763	 -53.19737967
Au	 -53.48923277	 -57.92686666	 -51.92165704
No	 -50.25514541	 -61.75464755	 -51.85207221
No	 -49.20161554	 -61.47943429	 -48.95393635
No	 -47.94790305	 -60.63773122	 -51.44235233
No	 -50.18419386	 -59.15151007	 -50.34431008
No	 -46.93971553	 -62.94248405	 -50.02671789
Au	 -46.00982227	 -62.67606612	 -47.01947677
Au	 -44.65630580	 -61.88246738	 -49.46777228
No	 -46.92120524	 -60.36701606	 -48.48942070
Au	 -62.81999211	 -59.37350402	 -52.24180956
Au	 -61.57517189	 -58.08646864	 -54.51161082
Au	 -63.84508263	 -56.82812948	 -53.23798489
Au	 -60.60921103	 -60.69630410	 -53.58942405
No	 -59.48557646	 -60.39985362	 -51.08971230
Au	 -58.28892940	 -59.31146295	 -53.47835118
No	 -60.43709319	 -57.85095224	 -52.14128709
Au	 -57.30409762	 -61.82505994	 -52.40921946
Au	 -56.22871338	 -61.49150441	 -49.73990923
Au	 -52.35856645	 -57.59079556	 -49.18484216
Au	 -57.17770669	 -59.02366485	 -50.92442429
Au	 -51.43260910	 -59.97618449	 -47.85071288
Au	 -50.50190074	 -59.58175575	 -45.02532314
No	 -49.15370937	 -58.81160525	 -47.47799621
Au	 -51.34729494	 -57.20635423	 -46.43002815
No	 -48.26680017	 -61.14399468	 -46.03251596
Au	 -47.44594413	 -60.74082242	 -43.08999584
No	 -46.01468376	 -60.03243174	 -45.51552446
No	 -48.24268663	 -58.41359589	 -44.59535293
Au	 -65.09259333	 -58.11518683	 -50.96547119
No	 -63.97906712	 -57.67732421	 -48.62117514
No	 -62.68470253	 -56.49312327	 -50.91717554
No	 -64.98024514	 -55.18586163	 -49.74632945
No	 -61.71045361	 -59.01573209	 -49.82844913
No	 -60.67829128	 -58.58528880	 -47.36143374
No	 -59.35829180	 -57.52532722	 -49.69636697
No	 -61.59961768	 -56.08966091	 -48.54273481
No	 -58.44119811	 -60.02729533	 -48.53200008
No	 -57.48348894	 -59.58216616	 -45.92886526
Au	 -56.14774926	 -58.65755913	 -48.31451429
No	 -58.35093345	 -57.11690650	 -47.19234923
Au	 -55.25379831	 -61.09429732	 -47.03378139
Au	 -54.37852272	 -60.62899904	 -44.29610526
Au	 -50.44520286	 -56.76013957	 -43.65329261
Au	 -55.20755688	 -58.21800088	 -45.66280721
Au	 -49.67958009	 -59.12014431	 -42.17797976
Au	 -48.96201430	 -58.58501981	 -39.31196855
No	 -47.44434364	 -57.94829056	 -41.69659747
Au	 -49.64721977	 -56.24421332	 -40.85625502
Au	 -66.27652378	 -56.36999696	 -47.44848060
Au	 -65.23613940	 -55.78976467	 -45.13079519
No	 -63.88181309	 -54.69771689	 -47.43722137
Au	 -66.18723228	 -53.33098128	 -46.35858987
No	 -62.94541081	 -57.17464569	 -46.23102603
Au	 -61.99287680	 -56.60434742	 -43.80091062
No	 -60.59130370	 -55.61443446	 -46.12011984
Au	 -62.86320796	 -54.14612530	 -45.08762128
No	 -59.72789025	 -58.08252098	 -44.84977795
Au	 -58.86197911	 -57.50669028	 -42.30156822
No	 -57.42319645	 -56.63003221	 -44.64213589
No	 -59.66214957	 -55.06583990	 -43.65637056
No	 -56.61569624	 -59.06425831	 -43.28934129
Au	 -55.83897055	 -58.47169332	 -40.62083347
Au	 -54.35994157	 -57.70456243	 -42.97830790
No	 -56.57953571	 -56.06593871	 -42.05579391
Au	 -53.60177908	 -60.09134602	 -41.53225193
Au	 -52.92218419	 -59.47726086	 -38.74768197
Au	 -48.94997035	 -55.65275448	 -38.04260134
Au	 -53.60547442	 -57.11501130	 -40.26818810
Au	 -54.01963247	 -57.58844195	 -57.51336207
Au	 -53.05276566	 -56.67462777	 -60.11573090
Au	 -55.65500840	 -55.70043371	 -59.20937006
Au	 -51.66545278	 -58.80307174	 -58.65291198
No	 -50.26218786	 -58.60693486	 -55.78670712
No	 -49.15235564	 -57.71635708	 -58.33292696
No	 -51.53818076	 -56.46184435	 -57.30521573
No	 -47.95216931	 -59.93817066	 -56.89079218
No	 -46.71366298	 -59.79922706	 -53.94562067
No	 -45.47553933	 -58.94008909	 -56.43588270
No	 -47.80511185	 -57.56363438	 -55.43773707
No	 -44.40732847	 -61.20150516	 -54.96874621
Au	 -43.31328230	 -61.08708219	 -51.92308735
Au	 -41.97126515	 -60.28004687	 -54.37332013
No	 -44.28257042	 -58.82348950	 -53.44629539
Au	 -60.17175292	 -56.64685003	 -56.63296056
Au	 -58.50545901	 -54.98150148	 -58.52122735
Au	 -61.10802351	 -54.04428749	 -57.57756467
Au	 -57.60031538	 -57.60031538	 -57.60031538
Au	 -57.21061866	 -58.34085924	 -55.98689912
Au	 -54.04392365	 -55.32563244	 -56.39531823
Au	 -57.36821047	 -55.01528426	 -56.26813094
Au	 -52.50393565	 -57.20482005	 -54.61274295
Au	 -51.18640330	 -56.84290742	 -51.75430444
No	 -50.11535788	 -56.16751739	 -54.42000688
Au	 -52.30811151	 -54.65173060	 -53.28340655
No	 -48.98919739	 -58.36367373	 -52.89037753
No	 -47.85060231	 -58.07508021	 -49.97726178
No	 -46.57672367	 -57.34881061	 -52.50151872
No	 -48.82661872	 -55.82725859	 -51.51112135
No	 -45.59823788	 -59.59951763	 -50.96724314
No	 -44.60534618	 -59.33566160	 -47.96317576
No	 -43.20954610	 -58.63862560	 -50.42114207
No	 -45.47329702	 -57.07449096	 -49.53896067
Au	 -62.52631800	 -55.47651222	 -55.44873329
No	 -61.33698558	 -55.25854075	 -53.16514383
No	 -59.87621778	 -53.92174289	 -55.31329849
No	 -62.26433742	 -52.71046775	 -54.24005516
No	 -59.09288128	 -56.61624958	 -54.38587049
No	 -58.01863443	 -56.44577547	 -52.01197494
Au	 -56.55933083	 -55.24731708	 -54.21010344
No	 -58.75635684	 -53.77442725	 -53.02633377
Au	 -55.98351075	 -58.08862717	 -53.38798909
Au	 -54.85721199	 -57.77746150	 -50.74720353
Au	 -50.92752775	 -54.14682637	 -50.36895669
Au	 -55.59701986	 -55.18567754	 -51.87749178
Au	 -50.04061856	 -56.47921581	 -48.92347645
Au	 -49.03281323	 -56.07966943	 -46.09412497
No	 -47.68874982	 -55.45684094	 -48.60682671
Au	 -49.80345947	 -53.72602489	 -47.57352210
No	 -46.84146640	 -57.73471188	 -47.05093689
No	 -45.95454022	 -57.33370722	 -44.11198875
No	 -44.49512260	 -56.73892197	 -46.55919203
No	 -46.69176651	 -55.04663420	 -45.70686330
No	 -63.64931469	 -53.97084479	 -52.01520838
No	 -62.50046690	 -53.58074564	 -49.72027675
No	 -61.07081579	 -52.42061016	 -51.96209075
No	 -63.40459655	 -51.08640847	 -50.91748385
No	 -60.22057196	 -54.97251699	 -50.82366240
No	 -59.17161934	 -54.60675331	 -48.42218304
No	 -57.70508528	 -53.55340757	 -50.68000850
No	 -59.96128635	 -52.07429486	 -49.64086579
No	 -56.97397666	 -56.15129202	 -49.53492051
No	 -55.99101014	 -55.75997648	 -46.98940575
Au	 -54.57824534	 -54.90934517	 -49.35640302
No	 -56.70372420	 -53.23226920	 -48.25858912
Au	 -53.83110255	 -57.40280331	 -48.06972115
Au	 -52.90428405	 -56.96026339	 -45.36082958
Au	 -48.82562603	 -53.27993804	 -44.79389009
Au	 -53.61159078	 -54.52227089	 -46.75718417
Au	 -48.14510021	 -55.62444725	 -43.25520901
Au	 -47.36803337	 -55.10190586	 -40.40429041
No	 -45.82150974	 -54.58188569	 -42.80516538
Au	 -47.96459857	 -52.77704956	 -42.00727920
No	 -64.81106980	 -52.22132442	 -48.65002595
Au	 -63.72199394	 -51.68260827	 -46.37544594
No	 -62.26161235	 -50.64115839	 -48.64837395
Au	 -64.57905477	 -49.22590387	 -47.67390922
No	 -61.43067011	 -53.12731469	 -47.38051655
No	 -60.43869431	 -52.60487100	 -44.99925115
No	 -58.92802235	 -51.65875894	 -47.27347005
No	 -61.20009665	 -50.13615935	 -46.34143023
No	 -58.19323766	 -54.15923043	 -45.96741674
No	 -57.29042417	 -53.63095390	 -43.46888574
No	 -55.76005347	 -52.81274832	 -45.77243420
No	 -57.96853287	 -51.16679825	 -44.86193229
No	 -55.08552640	 -55.28407933	 -44.39613780
No	 -54.26435917	 -54.72749674	 -41.76791446
Au	 -52.72414789	 -54.04843321	 -44.11249158
No	 -54.88570879	 -52.30239946	 -43.23733093
Au	 -52.07558135	 -56.44563246	 -42.62591321
Au	 -51.34354503	 -55.85489115	 -39.87044084
Au	 -47.20955795	 -52.20438769	 -39.20993940
Au	 -51.92382013	 -53.49308017	 -41.43671466
Au	 -57.06490297	 -53.57902981	 -60.64256722
Au	 -55.77693286	 -52.33515580	 -62.91235700
Au	 -58.32229946	 -51.30912339	 -61.91713150
Au	 -54.45507940	 -54.54593003	 -61.56380273
No	 -52.92143695	 -54.40115912	 -58.90191175
No	 -51.68122877	 -53.35825679	 -61.28862340
No	 -54.22781247	 -52.25429552	 -60.39181082
No	 -50.41082029	 -55.53765545	 -59.81639858
No	 -48.97094988	 -55.38858731	 -56.99275596
No	 -47.72960737	 -54.50137320	 -59.45564375
No	 -50.19143548	 -53.25030533	 -58.57921470
No	 -46.58388372	 -56.70855332	 -57.93455379
No	 -45.29154327	 -56.59133885	 -55.00380436
No	 -43.97267797	 -55.78692178	 -57.46141792
No	 -46.35043165	 -54.39617880	 -56.59970953
No	 -42.95687031	 -58.02326442	 -55.90655176
No	 -41.81291723	 -57.92633205	 -52.87160807
Au	 -40.40430490	 -57.19027727	 -55.30215274
No	 -42.73444670	 -55.69808296	 -54.48933220
Au	 -59.67485541	 -52.62694034	 -59.70639209
No	 -58.30857674	 -52.50788985	 -57.37552559
No	 -56.81893242	 -51.20124605	 -59.52240271
No	 -59.36674327	 -50.12040898	 -58.60123878
No	 -55.61448340	 -53.44466071	 -58.14910589
Au	 -54.26535004	 -53.25898926	 -55.60566070
No	 -52.76421150	 -52.10614459	 -57.80001041
No	 -55.43298669	 -51.06329975	 -57.09334704
No	 -51.42916781	 -54.13787415	 -56.11958237
Au	 -49.96088920	 -53.72748773	 -53.19830956
No	 -48.77523656	 -53.05059590	 -55.78254186
Au	 -51.35839223	 -51.85814952	 -55.11352041
No	 -47.62621624	 -55.15941329	 -54.10105696
No	 -46.39427342	 -54.86106125	 -51.16574517
No	 -45.07129056	 -54.21248333	 -53.68311580
No	 -47.42786170	 -52.74630016	 -52.89632898
No	 -44.11353441	 -56.40400137	 -52.02884637
No	 -43.05438393	 -56.14709632	 -49.02228046
No	 -41.60921701	 -55.53410032	 -51.47344379
No	 -43.89982588	 -53.95194998	 -50.71995744
No	 -60.82121622	 -51.40951137	 -56.42089808
No	 -59.56666664	 -51.19883594	 -54.14220427
No	 -58.00855544	 -49.94717949	 -56.28330956
No	 -60.47416812	 -48.73411061	 -55.36509695
No	 -57.10434238	 -52.40831938	 -55.06071391
No	 -56.07972012	 -52.34812779	 -52.78896560
No	 -54.19209237	 -50.91894311	 -54.66240235
No	 -56.78034881	 -49.76082473	 -53.95395213
Au	 -53.50117433	 -53.50117433	 -53.50117433
Au	 -53.28368239	 -54.17660758	 -51.84333704
Au	 -49.90437423	 -51.39828474	 -52.22746536
Au	 -53.20214892	 -50.87372181	 -52.34100494
Au	 -48.60666854	 -53.24714611	 -50.23293400
Au	 -47.44860402	 -52.77888334	 -47.32137780
No	 -46.17110203	 -52.35012160	 -49.94690851
Au	 -48.32482692	 -50.62854094	 -49.05513079
No	 -45.29080903	 -54.50566511	 -48.21202451
No	 -44.31921517	 -54.09563882	 -45.25334032
No	 -42.84515232	 -53.61944472	 -47.72770596
No	 -45.04629184	 -51.89827756	 -46.98567925
No	 -61.95791816	 -49.92089309	 -53.15419791
No	 -60.76128469	 -49.56650770	 -50.88902113
No	 -59.21108035	 -48.45512784	 -53.09097182
No	 -61.59488662	 -47.10511859	 -52.18247712
No	 -58.42050240	 -50.95731774	 -51.83899336
No	 -57.36386403	 -50.66260644	 -49.49944969
No	 -55.68655030	 -49.56507306	 -51.62488580
No	 -58.05111513	 -48.13877970	 -50.79021549
No	 -55.14325921	 -52.23555385	 -50.48143829
No	 -54.21000866	 -51.97497438	 -48.05665180
Au	 -52.54023179	 -51.01843471	 -50.22333485
No	 -54.70399937	 -49.33617267	 -49.28219582
Au	 -52.20678902	 -53.82918076	 -49.18940724
Au	 -51.22897851	 -53.41400407	 -46.50414444
Au	 -47.09796121	 -50.01808652	 -46.09251309
Au	 -51.72311164	 -50.86200853	 -47.84031902
Au	 -46.45973548	 -52.29998611	 -44.44883923
Au	 -45.60579879	 -51.77688712	 -41.58917172
No	 -44.06943525	 -51.40730801	 -44.04092420
Au	 -46.12471998	 -49.48331569	 -43.26022080
No	 -63.10206697	 -48.17569765	 -49.93904889
No	 -61.96129069	 -47.67752988	 -47.69732208
No	 -60.39596020	 -46.69310739	 -49.93607056
Au	 -62.73410485	 -45.24084859	 -49.07531165
No	 -59.65265261	 -49.15983498	 -48.58813026
No	 -58.62560078	 -48.69043611	 -46.25070240
No	 -56.98517843	 -47.77311567	 -48.46047261
No	 -59.28567923	 -46.22969373	 -47.65836591
No	 -56.37892580	 -50.29173749	 -47.11133806
No	 -55.45960724	 -49.83327184	 -44.67292661
No	 -53.78855312	 -49.02565845	 -46.88953978
No	 -56.00182828	 -47.34312279	 -46.09674593
No	 -53.30441022	 -51.58220399	 -45.53882497
No	 -52.45807714	 -51.08461289	 -42.96295234
Au	 -50.84723756	 -50.48277596	 -45.27923001
No	 -52.92083524	 -48.60734360	 -44.43165369
Au	 -50.34900816	 -52.92692023	 -43.79294863
Au	 -49.56536235	 -52.36396553	 -41.06129914
Au	 -45.29444165	 -48.91530623	 -40.45495629
Au	 -50.02077542	 -49.98482436	 -42.65069607
Au	 -57.03430594	 -50.06255963	 -64.18963443
No	 -55.43208350	 -50.00752677	 -61.76863972
No	 -54.09584670	 -48.86705055	 -64.06278763
No	 -56.58601761	 -47.71270068	 -63.09209683
No	 -52.91117592	 -51.13470642	 -62.70273417
No	 -51.38216326	 -51.07281272	 -60.11178938
No	 -50.01973303	 -50.05911448	 -62.44289001
No	 -52.51135929	 -48.83351120	 -61.56986746
No	 -48.88525685	 -52.29321782	 -60.96778314
No	 -47.44202997	 -52.21909061	 -58.20930809
No	 -46.06452272	 -51.34204898	 -60.58915928
No	 -48.52180192	 -50.02107379	 -59.78718645
No	 -45.01434835	 -53.56506703	 -59.02895895
No	 -43.69087118	 -53.49296223	 -56.13102886
No	 -42.27037093	 -52.72774455	 -58.53200885
No	 -44.66927065	 -51.29737930	 -57.77873643
No	 -41.32782773	 -54.95455491	 -56.91341051
No	 -40.14394112	 -54.88817363	 -53.89565088
Au	 -38.65678699	 -54.21244779	 -56.28875987
No	 -41.00132555	 -52.68159162	 -55.58639205
No	 -57.95348046	 -48.88956887	 -60.82483416
No	 -56.48173494	 -48.75012444	 -58.46137526
No	 -55.01770100	 -47.62747746	 -60.70008360
No	 -57.51089581	 -46.41762328	 -59.80974339
No	 -53.93140017	 -49.90595704	 -59.29264280
No	 -52.53221316	 -49.75296835	 -56.76656849
No	 -51.02557691	 -48.74529145	 -59.01882729
No	 -53.55418357	 -47.49886045	 -58.26076033
No	 -49.94009708	 -50.93961166	 -57.45035343
No	 -48.56900556	 -50.71410750	 -54.70664475
No	 -47.11600298	 -49.91136067	 -57.06599532
No	 -49.63451436	 -48.59378746	 -56.41086699
No	 -46.08737258	 -52.06301465	 -55.37973710
No	 -44.81945266	 -51.81664360	 -52.48144689
No	 -43.37091986	 -51.17406987	 -54.90688460
No	 -45.79398439	 -49.71663468	 -54.27558644
No	 -42.47134555	 -53.34237720	 -53.17851809
No	 -41.35913009	 -53.11142226	 -50.18138415
No	 -39.83922624	 -52.55577959	 -52.59126184
No	 -42.16836871	 -50.96546438	 -51.97773689
No	 -58.98137691	 -47.55718594	 -57.57517934
No	 -57.62908046	 -47.33182998	 -55.27216088
No	 -56.06065188	 -46.24120412	 -57.47158184
No	 -58.52233708	 -44.94988112	 -56.63555083
No	 -55.12637212	 -48.58007362	 -56.06699209
No	 -53.90303986	 -48.39175223	 -53.66245009
No	 -52.19905264	 -47.32596131	 -55.78281723
No	 -54.72183918	 -46.02972185	 -55.10208000
No	 -51.23419912	 -49.54382982	 -54.19547106
Au	 -50.03675507	 -49.27397253	 -51.58452239
No	 -48.32858309	 -48.36521166	 -53.74182176
No	 -50.96099532	 -47.11352385	 -53.28036432
No	 -47.23874281	 -50.36000281	 -51.85312871
Au	 -45.93125147	 -49.84868220	 -48.87200282
No	 -44.54459312	 -49.42015031	 -51.40888090
Au	 -47.07945745	 -48.02731642	 -50.98853829
No	 -43.64519078	 -51.48005223	 -49.52669349
No	 -42.58137120	 -51.06464743	 -46.54031120
No	 -41.06399901	 -50.66842309	 -48.99971758
No	 -43.36236815	 -49.00927839	 -48.46409430
No	 -60.06232239	 -46.02327424	 -54.40952904
No	 -58.79595190	 -45.68664043	 -52.14954540
No	 -57.17505512	 -44.67605745	 -54.35050105
No	 -59.58129111	 -43.28230134	 -53.55328322
No	 -56.39172001	 -47.07801158	 -52.94714408
No	 -55.27031532	 -46.79495333	 -50.60768820
No	 -53.50215864	 -45.78780224	 -52.71433361
No	 -55.93411918	 -44.36519629	 -52.03931020
No	 -52.84137281	 -48.21380365	 -51.28344922
No	 -51.95850562	 -48.06674429	 -48.95681360
No	 -49.86707839	 -46.88554261	 -50.78606683
No	 -52.41175890	 -45.52395669	 -50.32466008
Au	 -49.42726730	 -49.42726730	 -49.42726730
Au	 -49.35447130	 -49.99894931	 -47.71545641
Au	 -45.78068653	 -47.46817472	 -48.04651307
Au	 -49.02283295	 -46.74793262	 -48.41136010
Au	 -44.73544319	 -49.25766274	 -45.85889273
Au	 -43.73242628	 -48.67003009	 -42.91165879
No	 -42.26821394	 -48.49706194	 -45.46810627
Au	 -44.35415034	 -46.58923971	 -44.83035860
No	 -61.16689220	 -44.26445425	 -51.31986040
No	 -59.96553502	 -43.80058367	 -49.09661567
No	 -58.31323247	 -42.89494272	 -51.31301560
Au	 -60.66749012	 -41.40213827	 -50.56287696
No	 -57.62826056	 -45.30773745	 -49.86226115
No	 -56.55414118	 -44.87885720	 -47.54906513
No	 -54.79938883	 -44.01494991	 -49.70809128
No	 -57.14017920	 -42.46171365	 -49.04583948
No	 -54.25632340	 -46.47280074	 -48.25293937
No	 -53.33021412	 -46.08968598	 -45.87127006
No	 -51.45456628	 -45.24240098	 -47.94479190
No	 -53.76652863	 -43.61930102	 -47.35953067
No	 -51.16218160	 -47.85965191	 -46.60366783
No	 -50.36652451	 -47.49717831	 -44.14318201
Au	 -48.50518087	 -46.79257216	 -46.24949832
No	 -50.60680506	 -44.92000005	 -45.56081275
Au	 -48.42427034	 -49.54371162	 -45.02264506
Au	 -47.59019073	 -49.01275240	 -42.30943388
Au	 -43.27635120	 -45.86089904	 -41.83656058
Au	 -47.82948993	 -46.52936109	 -43.83183816
Au	 -55.24968361	 -46.57039284	 -65.38817356
No	 -53.59745029	 -46.55292481	 -62.97962490
Au	 -52.20243868	 -45.50523727	 -65.28237613
Au	 -54.65864844	 -44.24894985	 -64.36234962
No	 -51.12368888	 -47.79418631	 -63.87779363
No	 -49.56493805	 -47.78424977	 -61.31520552
Au	 -48.12218878	 -46.84122872	 -63.62869901
Au	 -50.57493754	 -45.51508796	 -62.80327130
No	 -47.10350677	 -49.10253592	 -62.12401947
No	 -45.64362349	 -49.08913635	 -59.40562696
Au	 -44.16465823	 -48.26029710	 -61.73855841
No	 -46.59601027	 -46.85551347	 -60.99786757
No	 -43.22036369	 -50.49963685	 -60.14445497
No	 -41.87475237	 -50.48018136	 -57.27950572
Au	 -40.35604235	 -49.76242947	 -59.62728219
No	 -42.74782437	 -48.27029755	 -58.95786109
Au	 -39.50309691	 -51.98813692	 -57.96064049
Au	 -38.28901128	 -51.96248068	 -54.96367917
Au	 -36.71802982	 -51.34470137	 -57.31089313
Au	 -39.06213997	 -49.76420146	 -56.70573609
No	 -56.07186346	 -45.31820737	 -62.07426035
No	 -54.53051132	 -45.20050471	 -59.70809062
Au	 -53.03460257	 -44.19951357	 -61.97608705
Au	 -55.48907901	 -42.88500001	 -61.13730447
No	 -52.04717631	 -46.48868670	 -60.51588699
No	 -50.59874779	 -46.37282455	 -58.00192766
No	 -49.04939810	 -45.47274045	 -60.26879633
No	 -51.51298478	 -44.10359319	 -59.53948714
No	 -48.10502637	 -47.71439745	 -58.69444270
No	 -46.73963293	 -47.57585146	 -56.01653097
No	 -45.17032029	 -46.80610514	 -58.31056210
No	 -47.62453885	 -45.37239907	 -57.68305002
No	 -44.28087145	 -49.00357841	 -56.62705796
No	 -43.01052916	 -48.83637572	 -53.78877379
No	 -41.43224528	 -48.20689622	 -56.12183948
No	 -43.84149758	 -46.68507449	 -55.56874010
No	 -40.63131147	 -50.38242584	 -54.35988701
No	 -39.48904164	 -50.20051301	 -51.39055762
No	 -37.87405708	 -49.68647442	 -53.73484283
No	 -40.21487122	 -48.06258908	 -53.23317609
No	 -56.99493164	 -43.90233462	 -58.87617158
No	 -55.56006549	 -43.68741884	 -56.56112888
No	 -53.96894995	 -42.73368153	 -58.79497722
Au	 -56.40489504	 -41.35181795	 -58.02677326
No	 -53.09417411	 -45.03975939	 -57.29919999
No	 -51.76648830	 -44.83553239	 -54.85646396
No	 -50.09451020	 -43.95747985	 -57.05852201
No	 -52.55241580	 -42.53820915	 -56.41288752
No	 -49.25177030	 -46.20064013	 -55.44283957
No	 -48.00557012	 -45.96760153	 -52.84382834
No	 -46.29796146	 -45.20759512	 -55.04938907
No	 -48.78046290	 -43.75848229	 -54.54010916
No	 -45.46047752	 -47.35619545	 -53.27863919
No	 -44.25099351	 -47.03473300	 -50.46928131
No	 -42.60374111	 -46.48257973	 -52.77228813
No	 -45.06505092	 -44.97008844	 -52.36927945
No	 -41.82737180	 -48.57732457	 -50.89067795
No	 -40.72887240	 -48.21838534	 -47.93553540
No	 -39.09259698	 -47.82985205	 -50.29467529
No	 -41.44807976	 -46.18560822	 -49.91776753
No	 -57.98946499	 -42.30755645	 -55.78552306
No	 -56.64610417	 -41.98889339	 -53.52106299
No	 -54.98125768	 -41.09886209	 -55.73439721
Au	 -57.38093517	 -39.63764213	 -55.02616869
No	 -54.23168004	 -43.43298085	 -54.21433130
No	 -53.01347435	 -43.13977512	 -51.84507186
No	 -51.24210995	 -42.29750261	 -53.99907528
No	 -53.65984137	 -40.80267256	 -53.41050509
No	 -50.55459417	 -44.59152261	 -52.39257106
No	 -49.47360078	 -44.32041968	 -49.92847173
No	 -47.57381500	 -43.50606981	 -51.99319637
No	 -50.04239469	 -42.01285587	 -51.56364047
No	 -46.85919613	 -45.66935347	 -50.21020040
Au	 -45.81142215	 -45.30172719	 -47.54735066
No	 -43.91560187	 -44.64646927	 -49.63879537
No	 -46.48265385	 -43.20536290	 -49.43211674
No	 -43.08046366	 -46.57536569	 -47.56129498
Au	 -41.93011325	 -45.94953895	 -44.53753429
No	 -40.36273518	 -45.77770836	 -46.99843078
Au	 -42.82070592	 -44.20484995	 -46.83500629
Au	 -59.02686556	 -40.51658893	 -52.79517119
Au	 -57.75698416	 -40.08367731	 -50.57816740
Au	 -56.04005100	 -39.27753252	 -52.78433896
Au	 -58.39502625	 -37.73161963	 -52.13372979
No	 -55.40339258	 -41.62778816	 -51.22919494
No	 -54.26068195	 -41.22127434	 -48.91543143
No	 -52.44228992	 -40.46208205	 -51.06249165
No	 -54.79557932	 -38.87127701	 -50.51526934
No	 -51.90920614	 -42.80960482	 -49.46331472
No	 -50.91936845	 -42.44213450	 -47.07670391
No	 -48.96043061	 -41.68926591	 -49.11984797
No	 -51.32980996	 -40.07624734	 -48.69781837
No	 -48.55269912	 -44.05127407	 -47.49990248
No	 -47.80864504	 -43.80523192	 -45.13343655
No	 -45.53349340	 -42.88074084	 -46.88970359
No	 -48.00587336	 -41.33566080	 -46.68409151
Au	 -45.35342078	 -45.35342078	 -45.35342078
Au	 -45.42112735	 -45.80912372	 -43.60387595
Au	 -41.67342703	 -43.53345558	 -43.85374172
Au	 -44.83152252	 -42.63850934	 -44.47734381
Au	 -42.36985704	 -63.37177667	 -50.42336494
Au	 -43.76206470	 -61.61928563	 -46.41151864
Au	 -45.19643527	 -62.33842521	 -43.98865353
Au	 -42.98494199	 -61.28096019	 -43.33373414
Au	 -45.22397425	 -59.62734573	 -42.52378925
Au	 -46.73516560	 -60.26351937	 -40.12967266
Au	 -44.54505828	 -59.14568486	 -39.51781768
Au	 -46.75380280	 -57.40859289	 -38.78411078
Au	 -46.16717500	 -56.78873442	 -35.86157590
Au	 -48.35065461	 -54.98097406	 -35.21694222
Au	 -40.92316182	 -60.17781990	 -51.27964662
Au	 -42.33992551	 -60.90183580	 -48.84498735
Au	 -41.48590191	 -60.64158906	 -45.74105977
Au	 -39.99490188	 -59.99952987	 -48.15401482
No	 -42.25679114	 -58.38278928	 -47.36891823
Au	 -39.18537643	 -59.74133356	 -45.00353866
No	 -43.73242736	 -59.00283663	 -44.93890348
Au	 -42.97600403	 -58.59564097	 -41.89897016
Au	 -41.42289217	 -58.05231084	 -44.29659244
No	 -43.63862880	 -56.33708480	 -43.56717839
Au	 -40.70524062	 -57.64286088	 -41.21001747
No	 -45.18328401	 -56.86378528	 -41.16149153
Au	 -44.52232756	 -56.31791228	 -38.20177255
No	 -42.89887420	 -55.86276577	 -40.56624999
No	 -45.06737487	 -54.05074847	 -39.89876211
Au	 -42.33233951	 -58.10869487	 -38.84772963
Au	 -40.10056921	 -57.14985422	 -38.11446289
Au	 -42.27087723	 -55.30983941	 -37.55964260
Au	 -46.69580755	 -54.50425137	 -37.54289525
Au	 -46.12417973	 -53.82562432	 -34.67444861
No	 -44.42198385	 -53.44450613	 -36.98799169
Au	 -46.55482652	 -51.55447059	 -36.40364099
Au	 -43.96717474	 -55.69017750	 -35.23625539
Au	 -41.75000825	 -54.67274743	 -34.55105514
Au	 -43.87985957	 -52.75655379	 -34.07534310
Au	 -39.50401766	 -59.44008161	 -53.70588403
Au	 -38.50548424	 -59.34786237	 -50.56401438
Au	 -39.31204025	 -57.10956704	 -52.22028078
No	 -40.78707635	 -57.75517503	 -49.80057846
Au	 -39.87967378	 -57.50701451	 -46.70201356
Au	 -38.33700006	 -56.94971611	 -49.10316598
No	 -40.59966572	 -55.29365909	 -48.42428050
Au	 -37.47915032	 -56.70764921	 -45.95907880
No	 -42.11583414	 -55.81980556	 -45.99460896
No	 -41.29664669	 -55.41929589	 -42.95349095
No	 -39.70724030	 -54.97540341	 -45.35192007
No	 -41.91260864	 -53.21815752	 -44.72123250
Au	 -39.08977409	 -57.17865230	 -43.58357227
Au	 -38.41533729	 -56.76645270	 -40.45201074
Au	 -36.73758279	 -56.38024754	 -42.79586624
No	 -38.93155508	 -54.57718065	 -42.26501293
Au	 -36.11049475	 -55.96422555	 -39.62077835
No	 -43.47392526	 -53.62511185	 -42.29332805
No	 -42.74709477	 -53.08574997	 -39.33264145
No	 -41.10179919	 -52.74693066	 -41.70975675
No	 -43.22996541	 -50.86822740	 -41.11232120
No	 -40.59360970	 -54.94128892	 -39.90451885
Au	 -40.00261828	 -54.38092384	 -36.85232304
Au	 -38.27052471	 -54.09588739	 -39.17063336
No	 -40.40852450	 -52.20131853	 -38.69829897
Au	 -37.72089927	 -53.52776355	 -36.07470616
Au	 -44.86835193	 -51.19022825	 -38.73142629
Au	 -44.23736631	 -50.52884082	 -35.87327250
No	 -42.51317972	 -50.26682324	 -38.19380786
Au	 -44.57714464	 -48.28299221	 -37.65404048
No	 -42.13159399	 -52.46978533	 -36.37243150
Au	 -41.62146274	 -51.77070252	 -33.41509714
No	 -39.82724339	 -51.57566230	 -35.69023427
No	 -41.90791554	 -49.59176093	 -35.28245898
Au	 -39.51932271	 -53.73336524	 -33.80132607
Au	 -37.27879219	 -52.86879663	 -32.98254750
Au	 -39.35238648	 -50.86438724	 -32.68883552
Au	 -37.82516238	 -56.44232360	 -54.62115371
Au	 -36.78700870	 -56.37416232	 -51.49076547
Au	 -37.52832386	 -54.16349500	 -53.22217198
No	 -39.07306939	 -54.74279229	 -50.83607481
No	 -38.11646198	 -54.51587008	 -47.74377529
Au	 -36.51341210	 -54.03209706	 -50.11647575
No	 -38.78535505	 -52.34696576	 -49.55479105
Au	 -35.86576879	 -56.22256948	 -48.32689503
Au	 -35.06094981	 -55.98417907	 -45.13748211
Au	 -35.61227909	 -53.81499219	 -46.97986678
No	 -40.35886560	 -52.80057728	 -47.15218926
No	 -39.47431218	 -52.41095064	 -44.10374789
No	 -37.84175150	 -52.05337177	 -46.48688786
No	 -40.06465339	 -50.28506279	 -45.98726712
No	 -37.27479204	 -54.20527743	 -44.62801037
Au	 -36.54766709	 -53.80879486	 -41.49748990
Au	 -34.82482033	 -53.50943258	 -43.82087923
No	 -37.01033820	 -51.67422104	 -43.39829607
Au	 -34.15028253	 -53.11290736	 -40.64793844
No	 -41.64285271	 -50.58321018	 -43.54768577
No	 -40.83233622	 -50.03882643	 -40.56228166
No	 -39.17864376	 -49.82082232	 -42.95808692
No	 -41.30249795	 -47.92040822	 -42.47259248
No	 -38.70649635	 -51.94231689	 -41.04668542
No	 -38.05351966	 -51.39244057	 -37.98872331
No	 -36.29183883	 -51.20874277	 -40.29923217
No	 -38.41057238	 -49.27953393	 -39.92714234
Au	 -35.93346608	 -53.32380457	 -38.35997801
Au	 -35.42949513	 -52.74726193	 -35.22229368
Au	 -33.58706524	 -52.62288860	 -37.46899273
No	 -35.68518751	 -50.65539205	 -37.19841909
Au	 -33.13270338	 -52.03669841	 -34.29134687
Au	 -42.89476546	 -48.06386114	 -40.01518422
Au	 -42.18773731	 -47.40612500	 -37.14324531
No	 -40.48049510	 -47.29667083	 -39.50575154
Au	 -42.44803372	 -45.20078931	 -38.98468344
No	 -40.14366185	 -49.42623829	 -37.58771502
No	 -39.56842317	 -48.73767822	 -34.62463479
No	 -37.75939409	 -48.66068193	 -36.90366058
No	 -39.79110551	 -46.61753829	 -36.56712021
No	 -37.51155096	 -50.75763271	 -34.93548381
Au	 -37.07589108	 -50.03361600	 -31.89160808
Au	 -35.18766075	 -50.01167825	 -34.10295646
No	 -37.22031880	 -47.96043427	 -33.89263893
Au	 -34.79540327	 -49.27445299	 -31.01876271
Au	 -34.89483645	 -53.52441506	 -52.46726047
Au	 -35.56038756	 -51.33492688	 -54.26011197
No	 -37.18419647	 -51.85519674	 -51.92164993
No	 -36.18878101	 -51.66232765	 -48.84190697
Au	 -34.51385570	 -51.24103761	 -51.16835134
No	 -36.79068728	 -49.52384698	 -50.72002496
Au	 -33.93770890	 -53.40264794	 -49.31353285
Au	 -33.09431760	 -53.19144610	 -46.13142279
Au	 -33.57783265	 -51.05882833	 -48.04257985
No	 -38.44847665	 -49.93034505	 -48.37866913
No	 -37.51221543	 -49.57049253	 -45.33447854
No	 -35.81161048	 -49.27194059	 -47.66796660
No	 -38.06362583	 -47.50239975	 -47.31079440
No	 -35.30326651	 -51.38096931	 -45.73295067
No	 -34.52816205	 -51.00911779	 -42.60407750
Au	 -32.75184725	 -50.78484555	 -44.89054212
No	 -34.93737224	 -48.92788962	 -44.58710000
Au	 -32.36389642	 -52.88765282	 -42.92893406
Au	 -31.74523639	 -52.48847429	 -39.71415031
Au	 -32.03539876	 -50.41637138	 -41.72061793
No	 -39.72116434	 -47.76001574	 -44.93600641
No	 -38.82017322	 -47.21417985	 -41.91722676
No	 -37.12959638	 -47.07751681	 -44.29027649
No	 -39.34154108	 -45.24652507	 -44.01292469
No	 -36.68412893	 -49.12197890	 -42.27077432
No	 -35.96723710	 -48.58652516	 -39.20049845
No	 -34.16926834	 -48.49045434	 -41.48753844
No	 -36.29656402	 -46.55784448	 -41.24782479
No	 -33.86341984	 -50.54522557	 -39.46468442
Au	 -33.30795909	 -49.98768551	 -36.32355724
Au	 -31.42766899	 -49.95124298	 -38.54147017
No	 -33.50849262	 -47.95945550	 -38.38015719
Au	 -30.92721618	 -49.38756661	 -35.36159554
Au	 -40.88767868	 -45.23526330	 -41.49430667
Au	 -40.03335625	 -44.51672920	 -38.52927971
No	 -38.40450744	 -44.60553101	 -40.98859369
Au	 -40.39474069	 -42.53334134	 -40.61091663
No	 -38.03996410	 -46.59436669	 -38.90466786
No	 -37.38259308	 -45.90437577	 -35.91172546
No	 -35.57206495	 -45.94945740	 -38.20128065
No	 -37.59106749	 -43.89239917	 -37.97728199
No	 -35.36188543	 -47.96454879	 -36.13431443
No	 -34.86555390	 -47.25445491	 -33.07992473
No	 -32.95507820	 -47.33475921	 -35.27522636
No	 -34.96000480	 -45.25687954	 -35.16561432
Au	 -32.85950795	 -49.33450753	 -33.18848317
Au	 -32.51475674	 -48.58328048	 -30.06626351
Au	 -30.53178353	 -48.72345262	 -32.18896043
No	 -32.50731767	 -46.61547293	 -32.18145805
Au	 -30.23828327	 -47.95687312	 -29.03084227
Au	 -65.15625494	 -52.70122181	 -44.08102460
Au	 -61.92444396	 -53.52726744	 -42.70241963
Au	 -61.12248383	 -55.96395863	 -41.33704352
Au	 -58.81411264	 -54.44250819	 -41.15876993
Au	 -61.06569779	 -52.83804017	 -40.28712572
Au	 -58.08190289	 -56.85616358	 -39.72407591
Au	 -55.82198512	 -55.42393148	 -39.44157693
Au	 -58.04830595	 -53.74279039	 -38.63434284
Au	 -52.94360872	 -56.44645057	 -37.53886981
Au	 -55.15106243	 -54.70226164	 -36.80669062
Au	 -63.49463400	 -48.63765017	 -45.43408749
Au	 -62.71278549	 -51.08196404	 -44.06550182
Au	 -61.78253097	 -50.41495468	 -41.72446361
No	 -60.21761981	 -49.56504026	 -43.99934127
Au	 -62.48983455	 -47.98872548	 -43.16349339
No	 -59.52480605	 -52.00985953	 -42.58166694
Au	 -58.68969959	 -51.33980120	 -40.13388404
No	 -57.08372771	 -50.59538926	 -42.41199103
Au	 -59.31294477	 -48.92307562	 -41.62618415
No	 -56.46700737	 -53.02259492	 -40.93583689
Au	 -55.72515176	 -52.33378554	 -38.37655030
No	 -54.08831938	 -51.70589454	 -40.66640063
No	 -56.27544089	 -49.94325356	 -39.93091559
No	 -53.53016580	 -54.09041970	 -39.11396033
Au	 -52.88350599	 -53.37139794	 -36.44184342
Au	 -51.21281855	 -52.85620902	 -38.73903433
No	 -53.37177662	 -51.02485417	 -38.06988753
Au	 -61.56315847	 -47.27447445	 -40.86611843
Au	 -58.48552729	 -48.20678592	 -39.22706782
Au	 -57.93383820	 -50.59258494	 -37.66231284
Au	 -55.54507701	 -49.20938977	 -37.42617399
Au	 -57.73499404	 -47.41343595	 -36.80768369
Au	 -55.06563540	 -51.56329876	 -35.79845821
Au	 -52.73754573	 -50.25900843	 -35.45618937
Au	 -54.89319740	 -48.39255321	 -34.90493857
Au	 -64.27820233	 -46.20376187	 -46.81505250
Au	 -63.19449325	 -45.56794473	 -44.61070104
Au	 -61.59274533	 -44.69294523	 -46.86292137
No	 -60.90294167	 -47.12163928	 -45.42308922
Au	 -59.92427155	 -46.50187025	 -43.11915635
No	 -58.25919404	 -45.70672350	 -45.35047715
Au	 -60.53367036	 -44.08826349	 -44.62218401
No	 -57.67585579	 -48.15006645	 -43.87782910
No	 -56.80160831	 -47.53336611	 -41.47309205
No	 -55.09270333	 -46.83637911	 -43.69641891
No	 -57.31222553	 -45.11666461	 -43.01404609
No	 -54.60845320	 -49.28545080	 -42.19123083
No	 -53.82991389	 -48.64959714	 -39.67600279
No	 -52.10806343	 -48.08316072	 -41.91926184
No	 -54.25471800	 -46.24600035	 -41.26179505
No	 -51.68625951	 -50.49479286	 -40.34994115
No	 -50.99522441	 -49.81704855	 -37.71274741
Au	 -49.27026350	 -49.39251487	 -39.98754431
No	 -51.36134366	 -47.46095715	 -39.36838837
Au	 -59.55417974	 -43.42118220	 -42.35625973
Au	 -59.02322506	 -45.81310631	 -40.78916998
Au	 -58.19833175	 -45.05126945	 -38.43759807
No	 -56.44176338	 -44.45350241	 -40.65198555
Au	 -58.65186521	 -42.68667826	 -40.06875995
No	 -56.00256453	 -46.83712279	 -39.04189520
Au	 -55.27886994	 -46.05923110	 -36.59053380
No	 -53.48822000	 -45.56930016	 -38.79883784
Au	 -55.64600778	 -43.71287896	 -38.26856780
No	 -53.12727053	 -47.92675518	 -37.13666347
Au	 -52.50213848	 -47.11697382	 -34.58162530
No	 -50.68776659	 -46.74578200	 -36.79231596
No	 -52.79449801	 -44.80537418	 -36.31498785
Au	 -57.82467712	 -41.88047418	 -37.76385005
Au	 -54.92386735	 -42.89170256	 -35.86906112
Au	 -54.63044633	 -45.19798581	 -34.12555385
Au	 -52.17441913	 -43.95363388	 -33.81783775
Au	 -54.27443409	 -41.98765075	 -33.45927883
Au	 -62.29419324	 -42.28511331	 -48.32255377
Au	 -61.14977675	 -41.69097010	 -46.14131666
Au	 -59.46279255	 -40.89127788	 -48.36593873
No	 -58.85195897	 -43.28491365	 -46.84519090
No	 -57.82245107	 -42.71092747	 -44.56801412
No	 -56.05877860	 -41.97683698	 -46.75477257
Au	 -58.34433033	 -40.32779172	 -46.14339304
No	 -55.56640796	 -44.39005284	 -45.20940705
No	 -54.65802411	 -43.83127420	 -42.84269098
No	 -52.82583506	 -43.16675869	 -44.99142295
No	 -55.06418926	 -41.43317068	 -44.44162893
No	 -52.47347212	 -45.62303729	 -43.45074194
No	 -51.67939006	 -45.06172682	 -40.98993881
No	 -49.82355934	 -44.50882502	 -43.13661698
No	 -51.96522748	 -42.64275301	 -42.59896650
No	 -49.59541680	 -46.99515912	 -41.60011326
No	 -48.87997920	 -46.38120684	 -39.00970634
Au	 -47.09157711	 -46.03609771	 -41.24681871
No	 -49.08474415	 -43.98299063	 -40.65734774
Au	 -60.08676873	 -41.04035570	 -43.93514227
Au	 -59.10261742	 -40.32822096	 -41.70755064
Au	 -57.30910991	 -39.70626210	 -43.89848992
No	 -56.87321739	 -42.07216459	 -42.26753818
Au	 -56.00093725	 -41.36285264	 -39.94675826
No	 -54.15097052	 -40.82297061	 -42.10770355
Au	 -56.35382531	 -39.02118152	 -41.63436102
No	 -53.82411823	 -43.19464960	 -40.45023352
No	 -53.06230928	 -42.47519208	 -38.03581510
No	 -51.17571694	 -42.03526058	 -40.17977383
No	 -53.31425837	 -40.13911159	 -39.75481627
No	 -50.94994838	 -44.40431079	 -38.49612567
No	 -50.28905928	 -43.65247723	 -35.97922731
No	 -48.39700765	 -43.34468442	 -38.13404392
No	 -50.45362979	 -41.33777096	 -37.73636265
Au	 -55.47521724	 -38.26733034	 -39.35432409
Au	 -55.20299683	 -40.57826666	 -37.60948786
Au	 -54.47738258	 -39.71473404	 -35.26033264
No	 -52.55047395	 -39.37598498	 -37.38604242
Au	 -54.67032876	 -37.44009626	 -37.06212840
No	 -52.37175469	 -41.67008004	 -35.60499780
Au	 -51.75206733	 -40.77762603	 -33.16419148
No	 -49.79876239	 -40.54798353	 -35.27486208
Au	 -51.85726929	 -38.52964690	 -35.00578835
Au	 -53.93657511	 -36.53562398	 -34.76205225
Au	 -51.23302399	 -37.59743651	 -32.61942053
Au	 -58.88183876	 -37.96883910	 -47.74031014
Au	 -57.12229514	 -37.25741904	 -49.94235941
No	 -56.57895565	 -39.60219863	 -48.33530257
No	 -55.49024618	 -39.06736838	 -46.07036981
No	 -53.64658935	 -38.41566427	 -48.22418717
Au	 -55.93860324	 -36.73258794	 -47.72656417
No	 -53.21513244	 -40.76470688	 -46.58366984
No	 -52.26105944	 -40.25082008	 -44.23543399
No	 -50.32172491	 -39.64324536	 -46.32270975
No	 -52.59083829	 -37.90666644	 -45.91547760
No	 -50.03485224	 -42.02802600	 -44.68443527
No	 -49.23547985	 -41.54594625	 -42.27499407
No	 -47.18218227	 -40.95677376	 -44.26805313
No	 -49.41315025	 -39.15753234	 -43.93992773
No	 -47.14843704	 -43.49225450	 -42.75005980
No	 -46.48525526	 -43.01736826	 -40.26951132
Au	 -44.45363952	 -42.57156967	 -42.28729216
No	 -46.46501010	 -40.53012215	 -41.85773561
Au	 -57.75675113	 -37.36172532	 -45.54863387
Au	 -56.71347384	 -36.69640824	 -43.33743142
Au	 -54.84180670	 -36.15291903	 -45.49053343
No	 -54.48726664	 -38.47361416	 -43.78643271
No	 -53.56573531	 -37.81483894	 -41.48606840
No	 -51.62441556	 -37.33893970	 -43.59228288
Au	 -53.82898563	 -35.51377046	 -43.23800900
No	 -51.39068040	 -39.67011946	 -41.87031800
No	 -50.59635717	 -39.01299527	 -39.48788685
No	 -48.59379666	 -38.60812296	 -41.54734709
No	 -50.74191237	 -36.70579379	 -41.25653271
No	 -48.50205674	 -40.97377732	 -39.83666729
No	 -47.82725232	 -40.30076131	 -37.36829207
No	 -45.80869200	 -40.00837496	 -39.41718438
No	 -47.85096474	 -37.98094128	 -39.14029098
Au	 -55.74906797	 -35.96812724	 -41.11032149
Au	 -54.86043762	 -35.17224698	 -38.87095441
Au	 -52.89659652	 -34.81014947	 -40.97236595
No	 -52.72129200	 -37.08500829	 -39.17186987
Au	 -51.95005975	 -36.27877965	 -36.84695875
No	 -49.93731548	 -35.99994165	 -38.90963757
Au	 -52.04078616	 -34.03698540	 -38.69684629
No	 -49.87263356	 -38.27199947	 -37.08961832
No	 -49.21657165	 -37.44256529	 -34.67942953
No	 -47.17505276	 -37.26441510	 -36.71653349
No	 -49.20519433	 -35.21471157	 -36.55353033
Au	 -51.25775536	 -33.18950375	 -36.41486256
Au	 -51.24888414	 -35.39186389	 -34.51525332
Au	 -50.61522912	 -34.42103506	 -32.18143509
No	 -48.54142077	 -34.34494547	 -34.19138511
Au	 -50.54401951	 -32.26354467	 -34.13023924
Au	 -49.89648195	 -31.25571412	 -31.84730527
Au	 -50.70645435	 -55.18421944	 -37.09995322
Au	 -50.16232086	 -54.43000586	 -34.32005030
Au	 -45.99642665	 -50.82195657	 -33.59219295
Au	 -50.59111684	 -52.13603747	 -36.02676951
Au	 -43.43651643	 -51.98163391	 -31.16458497
Au	 -45.53096463	 -50.00255728	 -30.78029899
Au	 -50.05757809	 -51.33014139	 -33.30645962
Au	 -52.18557729	 -49.40706218	 -32.83262521
Au	 -48.87625580	 -51.72137913	 -38.31474209
Au	 -48.27963742	 -50.99561198	 -35.55887762
Au	 -43.96142649	 -47.57388049	 -34.85382805
Au	 -48.60302485	 -48.71153751	 -37.30430261
Au	 -43.70644800	 -49.78542632	 -33.01632985
Au	 -43.27076897	 -48.95464146	 -30.16409222
No	 -41.40622528	 -48.83484232	 -32.37866407
Au	 -43.44102579	 -46.78099158	 -32.05617072
Au	 -41.21161763	 -50.98312285	 -30.46411714
Au	 -38.97874369	 -50.06249226	 -29.69782487
Au	 -41.00206074	 -47.98999649	 -29.48494925
No	 -50.38705628	 -49.05201752	 -35.06072203
Au	 -49.86174475	 -48.19872350	 -32.40152908
Au	 -48.02068931	 -47.94236181	 -34.61026079
No	 -50.09067703	 -45.93968740	 -34.20140390
Au	 -47.77319473	 -50.18333525	 -32.79934704
Au	 -47.35435877	 -49.28144839	 -30.04181986
Au	 -43.01138928	 -45.89950682	 -29.26493007
Au	 -47.52265640	 -47.08370081	 -31.91281662
Au	 -40.69037090	 -47.05251750	 -26.60509692
Au	 -42.66855946	 -44.92567955	 -26.48483189
Au	 -51.95474810	 -46.21947651	 -32.01841777
Au	 -49.57099313	 -45.04287122	 -31.60412917
Au	 -51.62801293	 -43.01328134	 -31.31464491
Au	 -47.10722557	 -46.13364572	 -29.21855780
Au	 -49.12812377	 -44.05453310	 -29.00785782
Au	 -46.85038238	 -48.40236785	 -39.58137679
Au	 -46.20273133	 -47.70906916	 -36.84407653
Au	 -41.75819322	 -44.50047034	 -36.17129060
Au	 -46.39918394	 -45.41704989	 -38.60531201
Au	 -41.59237223	 -46.67796523	 -34.28491902
Au	 -41.09808638	 -45.86872933	 -31.43791392
No	 -39.21912099	 -45.86937013	 -33.65056970
Au	 -41.17632124	 -43.72936590	 -33.37374018
No	 -39.09893234	 -47.96593120	 -31.67419728
Au	 -38.72867162	 -47.10503948	 -28.73880129
No	 -36.78724216	 -47.17372504	 -30.89742276
No	 -38.75285439	 -45.04137980	 -30.75315126
Au	 -36.74161163	 -49.21613991	 -28.86151247
Au	 -34.50394695	 -48.44031573	 -27.95112364
Au	 -36.45404370	 -46.29556700	 -27.92124854
No	 -48.23493281	 -45.66830016	 -36.39301056
No	 -47.66599770	 -44.86119631	 -33.76307635
Au	 -45.77831234	 -44.69700569	 -35.94025464
No	 -47.77093298	 -42.60209403	 -35.58291217
Au	 -45.64486441	 -46.92959082	 -34.10317180
Au	 -45.17415444	 -46.06089834	 -31.36432424
Au	 -40.69045970	 -42.87550277	 -30.58842257
Au	 -45.23572810	 -43.88214060	 -33.26624626
Au	 -40.69792663	 -44.97165498	 -28.60387255
Au	 -40.38651239	 -43.98195396	 -25.78628631
No	 -38.38382222	 -44.12592409	 -27.87523537
Au	 -40.29379414	 -41.93244348	 -27.81720048
Au	 -38.45200472	 -46.15019452	 -25.82190839
Au	 -36.21497087	 -45.32155167	 -24.96778827
Au	 -38.10544069	 -43.11750185	 -25.01931393
No	 -49.69947296	 -42.80768769	 -33.44877854
Au	 -49.18227731	 -41.87044917	 -30.91326112
No	 -47.21308947	 -41.76068845	 -33.01733663
No	 -49.21187454	 -39.66541178	 -32.80282372
No	 -47.17470962	 -43.96102166	 -31.12931456
Au	 -46.76051598	 -42.96731383	 -28.49941753
Au	 -44.77250688	 -42.97343790	 -30.59261712
No	 -46.72629916	 -40.82299125	 -30.44772792
Au	 -44.78772600	 -45.10019559	 -28.63320542
Au	 -44.48246170	 -44.04493159	 -25.91548372
Au	 -39.98122955	 -40.89592956	 -25.06391707
Au	 -44.38750441	 -41.97014489	 -27.92677452
Au	 -37.91213154	 -42.01199262	 -22.18911115
Au	 -39.74828159	 -39.76279041	 -22.33324890
Au	 -51.20264832	 -39.79657170	 -30.72001596
Au	 -48.69331772	 -38.68992007	 -30.32790297
Au	 -50.67631743	 -36.57748382	 -30.23281243
Au	 -48.73718120	 -40.84047426	 -28.38023691
Au	 -46.31096153	 -39.78970550	 -27.88257649
Au	 -48.24261633	 -37.62119415	 -27.85737870
Au	 -44.07849007	 -40.87090435	 -25.27528468
Au	 -45.96597594	 -38.66056038	 -25.32922836
Au	 -44.63226794	 -45.23480307	 -40.88880601
Au	 -43.93537004	 -44.57773325	 -38.16452373
Au	 -39.45949829	 -41.67624800	 -37.60331452
Au	 -43.91385303	 -42.19090672	 -39.85117943
Au	 -39.33930964	 -43.77280907	 -35.62694211
Au	 -38.77039846	 -42.97102973	 -32.76092943
No	 -36.91582930	 -43.12533315	 -35.00700502
Au	 -38.76839456	 -40.88099239	 -34.74936952
No	 -36.84135127	 -45.13959498	 -32.94191891
No	 -36.40731071	 -44.29285576	 -29.99581972
No	 -34.45873378	 -44.48027549	 -32.14997733
No	 -36.36721575	 -42.29671660	 -32.07708166
No	 -34.47383198	 -46.45318205	 -30.04290344
Au	 -34.18146680	 -45.55707171	 -27.02782666
Au	 -32.16189118	 -45.79975772	 -29.10589656
No	 -34.06291583	 -43.61645954	 -29.15926663
Au	 -31.91438166	 -44.88511163	 -26.05437568
No	 -45.84239301	 -42.39650037	 -37.71704580
No	 -45.25048108	 -41.65755193	 -35.12810937
Au	 -43.30724239	 -41.57390346	 -37.25859768
No	 -45.19243202	 -39.36601838	 -36.93188212
Au	 -43.32799925	 -43.83471005	 -35.43666771
Au	 -42.80746963	 -43.00276312	 -32.71089426
Au	 -38.21012382	 -40.03962648	 -31.94545387
Au	 -42.74112334	 -40.82505023	 -34.62062227
Au	 -38.30715947	 -42.09306887	 -29.92027813
Au	 -37.93848777	 -41.12882525	 -27.10266661
No	 -35.92955730	 -41.39350578	 -29.18124774
Au	 -37.75368314	 -39.12209699	 -29.16889720
No	 -36.07226409	 -43.35752873	 -27.07451801
Au	 -35.82917552	 -42.32824625	 -24.18034062
No	 -33.76592704	 -42.66098928	 -26.19672365
No	 -35.59068236	 -40.40549097	 -26.31646212
Au	 -33.98299293	 -44.56249142	 -24.03902966
Au	 -31.75978439	 -43.86877775	 -23.03207418
Au	 -33.56113940	 -41.60949446	 -23.26547537
No	 -47.21249037	 -39.52581974	 -34.87732472
No	 -46.66116083	 -38.65104940	 -32.37380359
No	 -44.62230845	 -38.60555023	 -34.41312731
No	 -46.56181296	 -36.45245714	 -34.27874330
No	 -44.72373065	 -40.81392932	 -32.52383357
No	 -44.26734124	 -39.87088079	 -29.91729833
Au	 -42.24098523	 -39.96960083	 -31.97023661
No	 -44.10839502	 -37.73554172	 -31.87725244
Au	 -42.37084969	 -42.07916295	 -29.99286437
Au	 -42.01496894	 -41.06142747	 -27.28823061
Au	 -37.38659345	 -38.11698544	 -26.41605615
Au	 -41.81306670	 -39.01425373	 -29.32204454
Au	 -37.65690752	 -40.07210684	 -24.30968980
Au	 -37.45652489	 -38.91871244	 -21.54476533
No	 -35.34161179	 -39.32561374	 -23.48300614
Au	 -37.10152487	 -37.01842931	 -23.68873391
Au	 -35.67189704	 -41.20080079	 -21.31665979
Au	 -33.44230268	 -40.45818719	 -20.36907095
Au	 -35.17526847	 -38.14897144	 -20.68326655
No	 -48.62679844	 -36.52230487	 -32.26297921
Au	 -48.10241708	 -35.50998778	 -29.84672997
No	 -46.01050795	 -35.54319624	 -31.83315381
Au	 -47.94312007	 -33.38715485	 -31.82767962
No	 -46.17550568	 -37.67836794	 -29.86731557
Au	 -45.75611371	 -36.60877604	 -27.36634785
No	 -43.65676349	 -36.76191920	 -29.33768186
No	 -45.52139167	 -34.53660234	 -29.38736602
No	 -43.88233089	 -38.83005765	 -27.31790730
Au	 -43.56763949	 -37.69154494	 -24.73331291
Au	 -41.45792311	 -37.96054101	 -26.68534778
No	 -43.26974341	 -35.68771168	 -26.80481324
Au	 -41.73642487	 -39.94732808	 -24.60262407
Au	 -41.53159048	 -38.73489517	 -21.94164137
Au	 -36.89288127	 -35.82276052	 -20.99068438
Au	 -41.17390361	 -36.80827653	 -24.06749369
Au	 -35.08559158	 -36.87205563	 -17.92083811
Au	 -36.75569500	 -34.52741167	 -18.32646423
Au	 -47.40816754	 -32.33914743	 -29.46781605
Au	 -47.64233524	 -34.40483803	 -27.43731272
Au	 -45.09432833	 -33.43302709	 -26.94903534
Au	 -46.93465840	 -31.19953968	 -27.11766560
Au	 -45.40220489	 -35.44250805	 -24.87842944
Au	 -42.94725048	 -34.51415853	 -24.28708452
Au	 -44.72837005	 -32.23267079	 -24.52539834
Au	 -40.95828766	 -35.55668389	 -21.47495755
Au	 -42.68771311	 -33.24154668	 -21.79175490
Au	 -51.56213947	 -43.22440505	 -64.26520548
Au	 -47.52415755	 -44.59733969	 -62.55812308
Au	 -45.09553348	 -46.00516587	 -63.30956601
Au	 -43.60768191	 -46.04302006	 -60.61115862
Au	 -44.45023530	 -43.79714830	 -62.23900407
Au	 -41.20646237	 -47.52859775	 -61.28004884
Au	 -39.83676629	 -47.55975957	 -58.43673196
Au	 -40.60353771	 -45.34283255	 -60.14894190
Au	 -36.23602680	 -49.14671872	 -56.05257673
Au	 -36.91411591	 -46.95371285	 -57.83640791
Au	 -52.40352554	 -41.81173896	 -61.05211518
Au	 -49.96329646	 -43.20181929	 -61.80838425
No	 -48.46678552	 -43.12730773	 -59.30115675
Au	 -46.86453436	 -42.32385913	 -61.56690859
Au	 -49.28437257	 -40.85867939	 -60.89214596
No	 -46.02983168	 -44.57716495	 -59.95392218
No	 -44.63650954	 -44.49409651	 -57.29903730
Au	 -42.99300413	 -43.79856653	 -59.56579585
Au	 -45.39886250	 -42.27032451	 -58.98935979
No	 -42.22251764	 -46.01395352	 -57.85884100
No	 -40.93712643	 -45.91092667	 -55.05558370
Au	 -39.26393116	 -45.33265120	 -57.33218138
No	 -41.63797878	 -43.73305580	 -56.84360673
No	 -38.57163329	 -47.51558739	 -55.54248483
No	 -37.40876512	 -47.38967499	 -52.60124934
Au	 -35.70244636	 -46.92548708	 -54.88307056
No	 -38.02684585	 -45.24610622	 -54.46828095
Au	 -54.83523754	 -40.41932205	 -60.28217504
Au	 -53.33169297	 -40.23431830	 -57.96262814
Au	 -51.70116122	 -39.39513734	 -60.20781377
No	 -50.90527139	 -41.68344867	 -58.64086112
No	 -49.50988160	 -41.50502844	 -56.18944661
Au	 -47.81241985	 -40.75205746	 -58.41097589
Au	 -50.22160304	 -39.23439941	 -57.82063104
No	 -47.07214025	 -42.99620306	 -56.74865669
No	 -45.77861532	 -42.80400867	 -54.15612601
No	 -44.03470928	 -42.15477906	 -56.36669654
No	 -46.44251639	 -40.58942040	 -55.88937833
No	 -43.34125837	 -44.34133986	 -54.59651828
No	 -42.13912816	 -44.11049090	 -51.84764630
No	 -40.38231005	 -43.59410554	 -54.07582194
No	 -42.77015816	 -41.97180333	 -53.70327645
No	 -39.74741666	 -45.72599330	 -52.20334786
No	 -38.64802746	 -45.45003117	 -49.30287004
No	 -36.88916356	 -45.07648200	 -51.56058542
No	 -39.22174299	 -43.37417507	 -51.26464411
Au	 -55.73920308	 -38.77336913	 -57.26281882
Au	 -54.32358656	 -38.48380989	 -54.99334573
Au	 -52.61714151	 -37.70946260	 -57.21208372
No	 -51.92962573	 -40.00348260	 -55.60557950
No	 -50.63063605	 -39.72501763	 -53.21820952
No	 -48.84362964	 -39.02276527	 -55.39646378
Au	 -51.22548771	 -37.44388061	 -54.87936794
No	 -48.21887144	 -41.27436512	 -53.70514692
No	 -47.03528028	 -40.99138472	 -51.19706965
No	 -45.17475596	 -40.36742699	 -53.33357910
No	 -47.56836365	 -38.75806644	 -52.94233237
No	 -44.58518860	 -42.54640876	 -51.52890265
No	 -43.49056383	 -42.21927808	 -48.87240808
No	 -41.60218192	 -41.71532792	 -51.00268581
No	 -44.00980763	 -40.08377680	 -50.75071992
No	 -41.02122445	 -43.78951251	 -49.04982520
No	 -39.97038982	 -43.35806296	 -46.19180504
No	 -38.14985384	 -43.06381727	 -48.41018786
No	 -40.52554594	 -41.37753174	 -48.26659114
Au	 -55.35405761	 -36.54841599	 -52.13970416
Au	 -53.58535980	 -35.84948640	 -54.33841714
No	 -53.00656972	 -38.14804175	 -52.69318303
No	 -51.78866150	 -37.76392195	 -50.36872710
No	 -49.93374094	 -37.12834024	 -52.51768580
Au	 -52.27047404	 -35.47667272	 -52.06284924
No	 -49.43703656	 -39.39845270	 -50.80875293
No	 -48.35198224	 -39.02492618	 -48.38666290
No	 -46.39785498	 -38.43959730	 -50.46648556
No	 -48.74288095	 -36.76128505	 -50.13410302
No	 -45.96567419	 -40.66016907	 -48.67809458
No	 -45.02463763	 -40.29380596	 -46.16929859
No	 -42.95003860	 -39.73835069	 -48.14994189
No	 -45.33590467	 -38.06904577	 -47.97919059
No	 -42.49317395	 -41.81869127	 -46.19213478
Au	 -41.59118490	 -41.34093171	 -43.49363340
No	 -39.52944082	 -40.94543559	 -45.49124011
No	 -42.00295007	 -39.33669647	 -45.54573695
Au	 -46.13871037	 -40.02480459	 -60.65348503
Au	 -42.31505337	 -41.53012070	 -58.59969625
Au	 -39.94325484	 -43.13329048	 -59.09897004
Au	 -38.63217211	 -43.08437424	 -56.31056423
Au	 -39.22061601	 -40.90351200	 -58.12750965
Au	 -36.29797193	 -44.75778066	 -56.72460638
Au	 -35.11313476	 -44.68521262	 -53.80016043
Au	 -35.62278005	 -42.54350019	 -55.69428192
Au	 -47.08286946	 -38.35212274	 -57.59763748
Au	 -44.69803451	 -39.93866387	 -58.10205162
No	 -43.35895505	 -39.79109032	 -55.51045463
Au	 -41.56885748	 -39.24131542	 -57.71037919
Au	 -43.92331998	 -37.58667235	 -57.29045559
No	 -40.98780009	 -41.43007909	 -55.90828964
No	 -39.76010896	 -41.25774660	 -53.17703778
Au	 -37.93603607	 -40.81807827	 -55.36850216
Au	 -40.26626264	 -39.10803862	 -55.04949555
No	 -37.42226152	 -42.95883763	 -53.47946302
No	 -36.30996817	 -42.75004919	 -50.60886944
Au	 -34.46350644	 -42.42965107	 -52.80085622
No	 -36.75184120	 -40.65637347	 -52.57167664
Au	 -49.45991901	 -36.76287690	 -57.07918874
Au	 -48.09480422	 -36.51817805	 -54.68090714
Au	 -46.27545047	 -35.93321430	 -56.86069757
No	 -45.73250321	 -38.15747906	 -55.10484891
No	 -44.48374458	 -37.90383854	 -52.58202353
Au	 -42.60494025	 -37.40732353	 -54.72843942
Au	 -44.94004735	 -35.70669265	 -54.39514349
No	 -42.12037766	 -39.57780617	 -52.88406617
No	 -40.98093488	 -39.29472818	 -50.22833694
No	 -39.06345450	 -38.90368812	 -52.35429227
No	 -41.38698206	 -37.16315015	 -52.13643291
No	 -38.62841805	 -41.00674228	 -50.40920619
No	 -37.58715970	 -40.66909038	 -47.60626528
No	 -35.66455064	 -40.41231645	 -49.74062044
No	 -37.95789298	 -38.62327590	 -49.62931907
Au	 -50.43883098	 -34.86685171	 -54.23495835
Au	 -49.15121325	 -34.51588217	 -51.89889676
Au	 -47.26221656	 -33.99845376	 -54.04326752
No	 -46.83003577	 -36.21902553	 -52.25487654
No	 -45.66664058	 -35.86400688	 -49.80846575
No	 -43.70472888	 -35.42070180	 -51.90267802
Au	 -46.00399412	 -33.66566742	 -51.64432472
No	 -43.33750902	 -37.58948581	 -50.03663866
No	 -42.29625107	 -37.21476298	 -47.47797059
No	 -40.26892901	 -36.85123270	 -49.52085034
No	 -42.57003167	 -35.07347876	 -49.39050203
No	 -39.93898959	 -38.93797682	 -47.54878359
No	 -38.99263917	 -38.50388493	 -44.85097590
No	 -36.94593682	 -38.26118459	 -46.87832424
No	 -39.25084974	 -36.46971312	 -46.88899149
Au	 -40.75019150	 -36.93633425	 -56.89572425
Au	 -37.17035899	 -38.53709698	 -54.50266434
Au	 -34.88383506	 -40.31450489	 -54.74242541
Au	 -33.74862708	 -40.16218915	 -51.88154435
Au	 -34.07655860	 -38.07445751	 -53.86587156
Au	 -41.76962698	 -35.00876322	 -54.01948948
Au	 -39.46869581	 -36.77076509	 -54.26453910
No	 -38.28679428	 -36.53502194	 -51.60393378
Au	 -36.33058525	 -36.24519301	 -53.71002382
Au	 -38.59148293	 -34.42287758	 -53.55133741
No	 -36.00960923	 -38.34132022	 -51.74048937
No	 -34.94568660	 -38.06470438	 -48.94975237
Au	 -32.96348595	 -37.88607854	 -51.03830202
Au	 -35.19028216	 -36.01681128	 -50.98195336
Au	 -44.06349954	 -33.24362034	 -53.76011477
Au	 -42.83717711	 -32.92562113	 -51.29634117
Au	 -40.85074955	 -32.60123410	 -53.38262869
No	 -40.56720389	 -34.73341345	 -51.45946384
No	 -39.46391724	 -34.39098768	 -48.87995174
Au	 -37.42624150	 -34.15616728	 -50.92354441
Au	 -39.65941311	 -32.29501632	 -50.85270406
No	 -37.20277833	 -36.22526987	 -48.91945180
No	 -36.21467536	 -35.83788995	 -46.21668469
No	 -34.14676652	 -35.70915573	 -48.23076263
No	 -36.35856526	 -33.81665445	 -48.27659541
Au	 -35.41291750	 -33.94665480	 -52.98792771
Au	 -32.10336940	 -35.60473942	 -50.26726151
Au	 -36.47919430	 -31.77249881	 -50.31143658
Au	 -34.28963057	 -33.68677392	 -50.29284551
No	 -33.26269397	 -33.34885272	 -47.57945332
Au	 -31.16417928	 -33.32200141	 -49.56487139
Au	 -33.30448944	 -31.35589490	 -49.67056357
Au	 -30.14258418	 -31.04219541	 -48.92797041
Au	 -35.10473030	 -49.08433842	 -53.02805560
Au	 -34.08065169	 -48.93528795	 -49.96448150
Au	 -32.32895600	 -48.57387554	 -52.23604279
Au	 -34.59600778	 -46.81373290	 -51.88758684
Au	 -30.95984770	 -50.53627460	 -47.15563970
Au	 -31.36549358	 -48.43354939	 -49.12163344
No	 -36.34584559	 -47.17579195	 -49.61723678
No	 -35.38118147	 -46.86849703	 -46.59568376
No	 -33.59274057	 -46.61294041	 -48.85494335
No	 -35.84718155	 -44.81667390	 -48.61203093
No	 -33.16277347	 -48.69514867	 -46.86837100
No	 -32.35050266	 -48.36046020	 -43.74730277
Au	 -30.50964360	 -48.19981476	 -45.97903629
No	 -32.69084631	 -46.31815985	 -45.79080305
Au	 -30.19503790	 -50.26509225	 -43.95900953
Au	 -29.53931742	 -49.89587701	 -40.74724206
Au	 -29.76009353	 -47.86898437	 -42.81541294
No	 -37.63308380	 -45.07319799	 -46.35434253
No	 -36.69936281	 -44.58782866	 -43.36085168
No	 -34.89713297	 -44.45956885	 -45.62567251
No	 -37.15705836	 -42.65040390	 -45.50924325
No	 -34.51458662	 -46.46415138	 -43.54400284
No	 -33.74791532	 -45.96185107	 -40.47267010
No	 -31.88919944	 -45.92550115	 -42.70206709
No	 -34.03653330	 -43.99931561	 -42.60622107
No	 -31.64361637	 -47.92886404	 -40.60995608
No	 -31.04190939	 -47.39895055	 -37.46574742
Au	 -29.11566234	 -47.43816296	 -39.63865961
No	 -31.18762763	 -45.43263683	 -39.59734740
Au	 -28.99121504	 -49.42606475	 -37.52845351
Au	 -28.54883772	 -48.85348566	 -34.31078761
Au	 -28.57514884	 -46.90523193	 -36.45725730
No	 -38.95532805	 -42.78030240	 -43.24674387
Au	 -37.95651321	 -42.02782513	 -40.19809814
No	 -36.23095438	 -42.11783700	 -42.55533294
Au	 -38.58438789	 -40.38756134	 -42.65386294
No	 -35.85221426	 -43.99483810	 -40.33538412
No	 -35.10672690	 -43.30681882	 -37.30328412
No	 -33.26628937	 -43.43368895	 -39.56266136
No	 -35.36466462	 -41.45410702	 -39.54746920
No	 -33.08429392	 -45.36322392	 -37.39461431
No	 -32.52603806	 -44.67065552	 -34.32281713
No	 -30.58670900	 -44.83892357	 -36.48687856
No	 -32.59169110	 -42.76591889	 -36.50987330
No	 -30.54464603	 -46.76980594	 -34.32412787
Au	 -30.15009597	 -46.04048081	 -31.19387507
Au	 -28.13705500	 -46.26866391	 -33.27991323
No	 -30.08694316	 -44.14483104	 -33.38158111
Au	 -27.79928999	 -45.52722737	 -30.11511097
Au	 -31.78129480	 -46.33144485	 -51.08783259
Au	 -32.19975470	 -44.22383633	 -53.04589563
No	 -34.03059312	 -44.52772706	 -50.83663533
No	 -33.04738713	 -44.27934942	 -47.83820289
Au	 -31.17519428	 -44.07497492	 -50.02608480
No	 -33.40419050	 -42.23023809	 -49.87205443
Au	 -30.83893789	 -46.13883529	 -48.00460115
Au	 -30.00002729	 -45.85064291	 -44.89500094
Au	 -28.09011360	 -45.75076146	 -47.06324926
Au	 -30.25250294	 -43.83357765	 -46.97649694
Au	 -27.17351214	 -47.45273494	 -41.79076491
Au	 -27.31531324	 -45.46410413	 -43.90650904
No	 -35.29056736	 -42.45048089	 -47.70095957
No	 -34.35806854	 -42.05143122	 -44.75667891
No	 -32.44107244	 -41.93899000	 -46.91141854
No	 -34.66928889	 -40.07880924	 -46.87771403
No	 -32.16053399	 -43.93429923	 -44.80929110
No	 -31.36765981	 -43.48761128	 -41.75534119
No	 -29.42895296	 -43.49461707	 -43.90230430
No	 -31.56981000	 -41.54925736	 -43.92206902
No	 -29.26285029	 -45.46296379	 -41.76572906
No	 -28.62611442	 -44.97289240	 -38.62450882
Au	 -26.64322768	 -45.07585099	 -40.73466597
No	 -28.70207182	 -43.05365229	 -40.80933509
Au	 -26.59296584	 -47.01792925	 -38.57349459
Au	 -26.11548498	 -46.47769765	 -35.35450385
Au	 -26.07185880	 -44.58288767	 -37.55499437
No	 -36.62683839	 -40.23318529	 -44.76578848
No	 -35.72971717	 -39.67909103	 -41.87669962
No	 -33.75902410	 -39.64685171	 -43.98323316
No	 -36.02174971	 -37.81006240	 -44.10310671
No	 -33.50595516	 -41.54347752	 -41.77644165
No	 -32.73031626	 -40.91939231	 -38.76358458
No	 -30.78598910	 -41.05439427	 -40.90724096
No	 -32.92357274	 -39.10425176	 -41.05413101
No	 -30.66787576	 -42.93616589	 -38.68394920
No	 -30.06231586	 -42.27964346	 -35.60572718
No	 -28.07005033	 -42.50733803	 -37.70462931
No	 -30.08645335	 -40.44904157	 -37.87182506
No	 -28.08890042	 -44.37867056	 -35.48011551
No	 -27.65032377	 -43.67953291	 -32.34200066
Au	 -25.59934629	 -43.98292912	 -34.37545950
No	 -27.53202584	 -41.85393939	 -34.59689663
Au	 -25.73892859	 -45.83011757	 -32.14193715
Au	 -25.46076006	 -45.07368718	 -28.94391375
Au	 -25.22382497	 -43.27450385	 -31.20455925
Au	 -31.50952050	 -42.00153715	 -52.03455132
Au	 -30.50693532	 -41.80876604	 -49.04805645
Au	 -30.75418989	 -39.77005715	 -51.10156513
Au	 -27.46725593	 -43.47547253	 -46.02309379
Au	 -27.62198731	 -41.48065364	 -48.13209571
No	 -32.71173939	 -39.92443320	 -48.98963958
No	 -31.76899176	 -39.59506735	 -46.07007769
Au	 -29.77238718	 -39.53664529	 -48.15023127
No	 -31.94766920	 -37.61298028	 -48.18449183
No	 -29.60301262	 -41.52246235	 -46.03473054
No	 -28.79414807	 -41.13713787	 -42.99890351
Au	 -26.77988366	 -41.19558723	 -45.06603312
No	 -28.88664523	 -39.20944883	 -45.17563895
Au	 -26.70805769	 -43.13750597	 -42.90206067
Au	 -26.04716768	 -42.69615865	 -39.76759480
Au	 -24.00350467	 -42.85971182	 -41.80615784
Au	 -26.03493228	 -40.81004612	 -41.98284911
Au	 -23.53219058	 -44.26139540	 -36.38867602
Au	 -23.40949660	 -42.41276803	 -38.62891179
No	 -33.97441660	 -37.70133385	 -46.13386606
No	 -33.08963323	 -37.24371051	 -43.29442162
No	 -31.02501459	 -37.24956201	 -45.30816093
No	 -33.19689401	 -35.31771958	 -45.46112435
No	 -30.91504342	 -39.16703372	 -43.12518067
No	 -30.14329169	 -38.63210292	 -40.15603407
No	 -28.09258261	 -38.78269210	 -42.18145627
No	 -30.19004702	 -36.78921707	 -42.41179807
No	 -28.07671137	 -40.64751614	 -39.94514682
No	 -27.44766971	 -40.04916194	 -36.87903062
No	 -25.38376061	 -40.31953735	 -38.88782636
No	 -27.38523895	 -38.25023107	 -39.17091637
No	 -25.48220379	 -42.14809452	 -36.62649483
No	 -25.01120482	 -41.49101374	 -33.48654707
Au	 -22.91196708	 -41.85724956	 -35.44977801
No	 -24.82324834	 -39.72017968	 -35.78688119
Au	 -23.12555638	 -43.65079806	 -33.17328524
Au	 -22.81466191	 -42.92867916	 -29.96959542
Au	 -22.50826628	 -41.19066273	 -32.27606183
Au	 -29.92950602	 -37.53310782	 -50.24340152
Au	 -28.96708614	 -37.26205255	 -47.32847190
Au	 -29.03135010	 -35.29441154	 -49.45637603
Au	 -26.84996193	 -39.24338623	 -47.21751081
Au	 -26.02474971	 -38.91543739	 -44.18882072
Au	 -26.00762011	 -37.00623686	 -46.37720520
Au	 -23.29684965	 -40.56356405	 -40.87065854
Au	 -23.18704102	 -38.70752099	 -43.10542464
No	 -31.10647835	 -35.29855271	 -47.45163776
No	 -30.20242004	 -34.90393428	 -44.61903903
Au	 -28.08650267	 -34.98827745	 -46.57833640
Au	 -30.18335943	 -32.98433763	 -46.78659974
No	 -28.09883356	 -36.89772697	 -44.39450163
No	 -27.31996585	 -36.43447109	 -41.44494986
Au	 -25.19821379	 -36.63885784	 -43.38744212
No	 -27.23451257	 -34.58997505	 -43.68590368
No	 -25.29324678	 -38.48641674	 -41.14579198
No	 -24.65122945	 -37.95137108	 -38.09283892
Au	 -22.52046718	 -38.27237820	 -40.01390863
No	 -24.47968658	 -36.17055546	 -40.38674098
Au	 -22.71274582	 -40.06692487	 -37.73320363
Au	 -22.22050966	 -39.46031891	 -34.59534256
Au	 -20.06923341	 -39.88592619	 -36.47946473
Au	 -21.94503267	 -37.72998954	 -36.91805531
Au	 -20.03043599	 -40.95119917	 -30.96587684
Au	 -19.64589400	 -39.26673891	 -33.30379351
Au	 -27.12641085	 -32.71876256	 -45.89544691
Au	 -25.09118951	 -34.77293185	 -45.60714400
Au	 -24.29631696	 -34.36927730	 -42.65726632
Au	 -24.09704524	 -32.54718985	 -44.90315257
Au	 -22.32654317	 -36.46687070	 -42.28269511
Au	 -21.67161366	 -35.99045465	 -39.23218951
Au	 -21.39140241	 -34.23565281	 -41.52925695
Au	 -19.27122487	 -37.58117904	 -35.64391833
Au	 -18.89936266	 -35.88816793	 -37.97770606
Au	 -54.10692080	 -36.10122061	 -49.89573426
Au	 -52.95164007	 -35.60190337	 -47.63053543
Au	 -51.05086890	 -35.05262791	 -49.76367567
Au	 -53.33386962	 -33.32323196	 -49.36852409
No	 -50.66987149	 -37.32944638	 -48.02630780
No	 -49.64901367	 -36.84206759	 -45.67155647
No	 -47.65400656	 -36.34194151	 -47.73616555
No	 -49.92590629	 -34.57481407	 -47.44665531
No	 -47.37871441	 -38.60666171	 -45.96199956
No	 -46.51722564	 -38.14380241	 -43.54242881
No	 -44.38914937	 -37.65182340	 -45.49382172
No	 -46.66779864	 -35.86989048	 -45.33143655
No	 -44.24094459	 -39.92178133	 -43.70639976
No	 -43.63103112	 -39.56587534	 -41.31565705
No	 -41.19452056	 -38.90362215	 -42.97104512
No	 -43.56677669	 -37.19730897	 -43.02679001
Au	 -54.10806539	 -33.23724218	 -45.01093044
Au	 -52.17141116	 -32.78467793	 -47.13123450
No	 -51.88621447	 -35.04678159	 -45.34871080
No	 -50.90756651	 -34.43150046	 -43.05416740
No	 -48.89412033	 -34.04043846	 -45.11713200
Au	 -51.09577930	 -32.18853515	 -44.87869091
No	 -48.72270861	 -36.29759565	 -43.30845490
No	 -47.88471769	 -35.68925036	 -40.93859547
No	 -45.78306795	 -35.34367260	 -42.92618948
No	 -47.95273680	 -33.44592102	 -42.77957451
No	 -45.75787440	 -37.62756285	 -41.12712626
No	 -45.07986670	 -37.03719033	 -38.70461313
No	 -42.87181846	 -36.71077672	 -40.58966398
No	 -44.99440990	 -34.75825485	 -40.52319556
Au	 -53.08382507	 -32.55711094	 -42.79142431
Au	 -52.13840425	 -31.81262537	 -40.56153389
Au	 -50.10429859	 -31.53102568	 -42.61518489
No	 -50.01156097	 -33.75093786	 -40.75006468
No	 -49.19336830	 -32.99946000	 -38.43906435
No	 -47.09731061	 -32.78639249	 -40.43718505
Au	 -49.19351983	 -30.80795742	 -40.34453783
No	 -47.12668516	 -35.00803446	 -38.56164824
No	 -46.44039321	 -34.24482501	 -36.17727108
No	 -44.29098043	 -34.10319727	 -38.12033900
No	 -46.32189075	 -32.05565549	 -38.09194264
Au	 -51.26833453	 -30.99946809	 -38.32496408
Au	 -50.46999752	 -30.11345839	 -36.08543310
Au	 -48.35937229	 -30.01480333	 -38.07018631
No	 -48.44808400	 -32.17150138	 -36.12383478
Au	 -47.77129782	 -31.26219053	 -33.80755981
No	 -45.61991694	 -31.24692150	 -35.74530625
Au	 -47.59747995	 -29.14696923	 -35.79541868
Au	 -46.90352963	 -28.20016379	 -33.52367825
Au	 -50.22655278	 -32.33474958	 -49.24612540
Au	 -48.28182009	 -31.89497240	 -51.36172085
No	 -47.96062681	 -34.11071542	 -49.54170225
No	 -46.86703774	 -33.64961088	 -47.16991193
No	 -44.84374844	 -33.27498303	 -49.22628551
Au	 -47.08936265	 -31.45441542	 -49.03146793
No	 -44.60637748	 -35.45305644	 -47.35005826
No	 -43.65187522	 -34.98773942	 -44.88920668
No	 -41.53743647	 -34.66474124	 -46.86701013
No	 -43.78191171	 -32.82525904	 -46.79634827
No	 -41.36597852	 -36.78418169	 -44.91902762
No	 -40.56077198	 -36.31126733	 -42.38095287
No	 -38.33452433	 -36.01893267	 -44.25012418
No	 -40.61020117	 -34.19661555	 -44.34257431
Au	 -49.09465269	 -31.81799964	 -46.95647335
Au	 -48.05208620	 -31.24221267	 -44.65502999
Au	 -45.98985634	 -30.95533725	 -46.68722889
Au	 -48.17307963	 -29.06467647	 -46.55311958
No	 -45.86992816	 -33.13099272	 -44.78995479
No	 -44.96759697	 -32.55277210	 -42.40751866
No	 -42.81905678	 -32.31615805	 -44.36214879
No	 -44.98213840	 -30.39563289	 -44.33485438
No	 -42.80588275	 -34.47073675	 -42.43600617
No	 -42.06792475	 -33.90270074	 -39.99808137
No	 -39.79446136	 -33.67496598	 -41.83061714
No	 -41.95536277	 -31.74772277	 -41.93129013
Au	 -49.20975871	 -28.64130111	 -42.27042819
Au	 -47.11901998	 -28.45211714	 -44.28143646
No	 -47.09632929	 -30.60415179	 -42.34647578
No	 -46.22378456	 -29.89993155	 -40.03476826
No	 -44.06423066	 -29.77296759	 -41.97974255
Au	 -46.14854997	 -27.77578688	 -42.00391850
No	 -44.15615242	 -31.91125154	 -40.02660520
No	 -43.42883213	 -31.20017340	 -37.64880799
No	 -41.18915768	 -31.11899076	 -39.51003158
No	 -43.23285421	 -29.08424583	 -39.62638229
Au	 -48.28282868	 -27.88032551	 -40.03445613
Au	 -47.43076165	 -27.04966377	 -37.79738808
Au	 -45.25848697	 -27.03237522	 -39.72489697
No	 -45.42979689	 -29.12491859	 -37.72309804
No	 -44.70901668	 -28.27398017	 -35.41414580
No	 -42.48305947	 -28.32510823	 -37.27797044
Au	 -44.44487957	 -26.21817621	 -37.44820931
Au	 -46.64958601	 -26.14547866	 -35.56295203
Au	 -45.93518908	 -25.16407922	 -33.33487071
Au	 -43.70315911	 -25.32916348	 -35.17728934
Au	 -45.08952375	 -31.10552951	 -51.11083777
Au	 -43.92944025	 -30.68100825	 -48.72079369
Au	 -41.88035238	 -30.42586032	 -50.76297514
No	 -41.70889442	 -32.54530078	 -48.81499264
No	 -40.67912133	 -32.10167831	 -46.32356356
No	 -38.56547041	 -31.92155465	 -48.30633363
Au	 -40.75466667	 -30.01343793	 -48.31113165
No	 -38.46009897	 -33.98021743	 -46.28856709
No	 -37.55763839	 -33.50190686	 -43.69468940
No	 -35.38734648	 -33.40189002	 -45.61702556
No	 -37.56889020	 -31.47953846	 -45.75083381
Au	 -45.02062347	 -28.26570947	 -46.28634481
Au	 -42.92298271	 -28.08944977	 -48.29133086
No	 -42.86370016	 -30.19506730	 -46.31952703
No	 -41.89174693	 -29.64640974	 -43.91365388
No	 -39.72389322	 -29.53598680	 -45.85038695
Au	 -41.85134999	 -27.57017220	 -45.91897380
No	 -39.74908284	 -31.59513581	 -43.83052353
No	 -38.92090575	 -31.02770293	 -41.34546264
No	 -36.67060544	 -30.96915211	 -43.19468028
No	 -38.78793821	 -28.99282148	 -43.38800934
Au	 -44.00170530	 -27.66948129	 -43.96318908
Au	 -43.06856145	 -27.00811384	 -41.63790358
Au	 -40.86926507	 -26.98589790	 -43.54250950
Au	 -42.92615191	 -24.95820095	 -43.67177281
No	 -41.01255968	 -29.03392571	 -41.50964028
No	 -40.22395134	 -28.35601889	 -39.11316749
No	 -37.94687409	 -28.38407760	 -40.93166193
No	 -39.97506576	 -26.33499177	 -41.16781814
Au	 -44.19714208	 -24.18746977	 -39.50212616
Au	 -41.97726586	 -24.26290709	 -41.37765064
No	 -42.21817181	 -26.27885184	 -39.31518321
No	 -41.44644929	 -25.47831301	 -36.99897206
No	 -39.16629075	 -25.61561060	 -38.80028945
Au	 -41.10774851	 -23.49851323	 -39.08724361
Au	 -43.36277218	 -23.33883075	 -37.26125738
Au	 -42.59839245	 -22.41605951	 -35.02861154
Au	 -40.31394076	 -22.66220865	 -36.80485976
Au	 -38.66241229	 -29.85458360	 -50.31548875
Au	 -37.57351451	 -29.45059259	 -47.80028232
Au	 -35.44384421	 -29.38989325	 -49.76612488
No	 -35.42292528	 -31.40309635	 -47.69930955
No	 -34.46213788	 -30.95942721	 -45.07854157
Au	 -32.29004249	 -30.98827764	 -46.99288306
Au	 -34.39469003	 -28.99106047	 -47.18663299
Au	 -39.70712722	 -27.48545151	 -47.87856230
Au	 -38.67252344	 -26.97615404	 -45.44781471
Au	 -36.48780067	 -26.98537845	 -47.36125872
No	 -36.57920306	 -28.97726528	 -45.27796950
No	 -35.67941386	 -28.43409347	 -42.75610587
No	 -33.43908146	 -28.51810437	 -44.60142287
Au	 -35.49210479	 -26.48188110	 -44.87050037
Au	 -39.75032807	 -24.34118085	 -43.24641883
Au	 -37.52481230	 -24.42951850	 -45.11468254
No	 -37.72848925	 -26.39907027	 -43.01598497
No	 -36.87397216	 -25.75338292	 -40.58970547
No	 -34.58716061	 -25.90712220	 -42.38123417
Au	 -36.57089441	 -23.82152445	 -42.71332713
Au	 -38.84072850	 -23.65654160	 -40.90235557
Au	 -38.01235156	 -22.90154978	 -38.56592753
Au	 -35.70208959	 -23.14295337	 -40.31787951
Au	 -37.60765596	 -21.00415728	 -40.70956243
Au	 -39.08186391	 -19.88043039	 -36.68969371
Au	 -36.75940712	 -20.21843106	 -38.40523540
Au	 -31.22668327	 -28.63283275	 -46.46886366
Au	 -33.27314861	 -26.58717452	 -46.73741152
Au	 -32.31859454	 -26.08557227	 -44.18547260
Au	 -30.07129831	 -26.28838431	 -46.00542971
Au	 -34.30789972	 -24.00090584	 -44.52758547
Au	 -33.39515685	 -23.39666455	 -42.06992079
Au	 -31.10094636	 -23.66905732	 -43.82968415
Au	 -34.43052739	 -20.55924733	 -40.11340304
Au	 -32.10376383	 -20.90996357	 -41.82053594
Au	 -41.26508935	 -41.26508935	 -41.26508935
Au	 -41.48184407	 -41.60852177	 -39.50901118
Au	 -37.58295737	 -39.59233796	 -39.65057899
Au	 -40.62962711	 -38.54584061	 -40.53715796
Au	 -37.06050165	 -41.17925155	 -37.14274546
Au	 -36.34666684	 -40.31991630	 -34.17803203
No	 -34.57730789	 -40.67320108	 -36.51337317
Au	 -36.44511643	 -38.46056718	 -36.39856505
No	 -34.47621705	 -42.53802006	 -34.29001155
No	 -33.96215035	 -41.69298749	 -31.30880647
No	 -32.01953573	 -42.00277080	 -33.46574647
No	 -33.90742746	 -39.81362407	 -33.50494712
No	 -32.07285536	 -43.88524860	 -31.26789469
No	 -31.72165055	 -43.00608363	 -28.23744936
No	 -29.68771452	 -43.35090621	 -30.29169304
No	 -31.55308081	 -41.14950123	 -30.44516661
Au	 -29.85537956	 -45.20965224	 -28.08271685
Au	 -29.65661706	 -44.27557714	 -24.99735654
Au	 -27.55898465	 -44.67971039	 -26.97075153
No	 -29.38672083	 -42.45694544	 -27.22583238
No	 -43.10122137	 -39.13696631	 -38.91781367
No	 -42.56374520	 -38.54055032	 -36.43308931
Au	 -40.38527478	 -38.35720688	 -38.33526969
No	 -42.27940666	 -36.17042393	 -38.16828726
Au	 -40.82721326	 -40.90533065	 -36.78858311
Au	 -40.25923768	 -40.11339431	 -34.07024502
Au	 -35.64414373	 -37.46545989	 -33.39470721
Au	 -39.97417372	 -37.84988928	 -35.89712619
Au	 -35.78685051	 -39.42948283	 -31.28797747
Au	 -35.34554290	 -38.47604996	 -28.44601476
No	 -33.36903519	 -38.89445547	 -30.54992681
Au	 -35.08083314	 -36.52693620	 -30.55623712
No	 -33.55732017	 -40.76777988	 -28.36301512
No	 -33.25232375	 -39.75585249	 -25.45305995
No	 -31.19012432	 -40.20698490	 -27.45712738
No	 -32.95013846	 -37.90878639	 -27.64733916
No	 -31.46748084	 -42.03075690	 -25.23692973
Au	 -31.30458709	 -40.95625636	 -22.27077171
Au	 -29.18009509	 -41.46179222	 -24.19090815
No	 -30.92483573	 -39.17270702	 -24.50634925
No	 -44.46334777	 -36.35107617	 -36.26332740
No	 -43.90037516	 -35.55888647	 -33.80229406
No	 -41.74316095	 -35.52957167	 -35.72676872
No	 -43.65948901	 -33.36496263	 -35.71299536
No	 -42.04128437	 -37.79271550	 -33.88718931
No	 -41.56398836	 -36.92169419	 -31.31570982
Au	 -39.49056926	 -37.10097973	 -33.31344454
No	 -41.24158083	 -34.76314290	 -33.25085879
Au	 -39.77492897	 -39.23004813	 -31.35964992
Au	 -39.37106267	 -38.25287718	 -28.66243717
Au	 -34.64362386	 -35.53754430	 -27.77928600
Au	 -39.04135527	 -36.21523009	 -30.69546048
Au	 -35.00282716	 -37.44185535	 -25.64107396
Au	 -34.74711799	 -36.31737718	 -22.87073447
No	 -32.63465639	 -36.84418709	 -24.79071734
Au	 -34.30105706	 -34.46778055	 -25.04108971
No	 -33.03847953	 -38.65118714	 -22.57989414
Au	 -32.90827932	 -37.44903131	 -19.74570177
No	 -30.75012158	 -38.04287160	 -21.59589678
No	 -32.40997903	 -35.69104632	 -21.97686010
No	 -45.81982145	 -33.39264290	 -33.78703700
No	 -45.26149676	 -32.44738360	 -31.39493610
No	 -43.08974356	 -32.53247700	 -33.29903079
No	 -44.98541756	 -30.35401321	 -33.39925546
No	 -43.39183065	 -34.65995398	 -31.32910020
No	 -42.94060416	 -33.65682257	 -28.85383709
No	 -40.78018158	 -33.87399715	 -30.75205727
No	 -42.57694332	 -31.60012026	 -30.88119981
No	 -41.14558386	 -35.94135594	 -28.73980373
No	 -40.79078278	 -34.85747237	 -26.17251522
Au	 -38.65153867	 -35.21839308	 -28.07614092
No	 -40.36854726	 -32.87112770	 -28.24676423
Au	 -39.04418554	 -37.17972201	 -25.98421947
Au	 -38.79062328	 -36.00868390	 -23.33056984
Au	 -34.04017378	 -33.30680914	 -22.33790211
Au	 -38.32686764	 -34.11772101	 -25.47002632
Au	 -34.57045987	 -35.09702074	 -20.13647355
Au	 -34.46649149	 -33.77719645	 -17.44156473
No	 -32.26667807	 -34.44291295	 -19.20589065
Au	 -33.85317280	 -32.04936826	 -19.67139704
Au	 -47.15933942	 -30.26771293	 -31.49419899
Au	 -46.60917737	 -29.18532507	 -29.18844682
No	 -44.41374117	 -29.37226197	 -31.05699821
Au	 -46.27353660	 -27.17071562	 -31.25880121
No	 -44.76354074	 -31.40713068	 -29.00666110
Au	 -44.32457598	 -30.27114405	 -26.62866481
No	 -42.11984140	 -30.56648912	 -28.46577748
Au	 -43.90151433	 -28.29867035	 -28.72301985
No	 -42.54845865	 -32.55189925	 -26.38608128
Au	 -42.21551833	 -31.34670776	 -23.93426151
No	 -40.01228201	 -31.76095004	 -25.74838251
No	 -41.71821525	 -29.43204283	 -26.06035196
No	 -40.50012294	 -33.67224930	 -23.62317360
Au	 -40.27207765	 -32.38634589	 -21.09932381
Au	 -38.06741765	 -32.91532304	 -22.88632121
No	 -39.71325934	 -30.54702629	 -23.26723270
Au	 -38.60648871	 -34.73812958	 -20.70700873
Au	 -38.48769046	 -33.36669537	 -18.11899118
Au	 -33.73400371	 -30.69240301	 -17.04516945
Au	 -37.87107471	 -31.61160479	 -20.33224433
No	 -38.13972014	 -37.98900598	 -42.14052388
Au	 -37.37781342	 -37.39012182	 -39.42306476
No	 -35.17393854	 -37.25740798	 -41.30001999
No	 -37.52688877	 -35.50491176	 -41.61883296
No	 -34.86392050	 -38.97128257	 -38.91242125
Au	 -34.00914673	 -38.08158926	 -35.85695050
No	 -32.14991807	 -38.43532046	 -38.08413580
Au	 -34.37247393	 -36.57219728	 -38.44639095
No	 -32.03573129	 -40.18061636	 -35.73133884
No	 -31.43648436	 -39.34043392	 -32.70516155
No	 -29.47139837	 -39.73152373	 -34.82496759
No	 -31.43047498	 -37.62846087	 -35.07255499
No	 -29.55339634	 -41.52032930	 -32.53365650
No	 -29.14277317	 -40.66131738	 -29.48067016
No	 -27.08789387	 -41.09345969	 -31.49640756
No	 -28.94537988	 -38.90571649	 -31.78163692
No	 -27.30900247	 -42.87524324	 -29.21958413
Au	 -27.06260359	 -41.96554705	 -26.12155121
Au	 -24.94315919	 -42.45676267	 -28.05096028
No	 -26.73750297	 -40.22706113	 -28.41404121
No	 -39.90902024	 -35.82596424	 -39.89939119
No	 -39.42690260	 -35.35068302	 -37.50022789
No	 -36.85341022	 -34.95292578	 -39.02810183
No	 -39.09896745	 -33.10965047	 -39.34750775
Au	 -37.19384274	 -37.19384274	 -37.19384274
Au	 -37.53488900	 -37.39866879	 -35.43106924
Au	 -33.50942990	 -35.64311229	 -35.43858215
Au	 -36.41868816	 -34.47010616	 -36.58908136
Au	 -33.25078205	 -37.08935022	 -32.80761638
Au	 -32.66747659	 -36.08106947	 -29.86131911
No	 -30.78348554	 -36.69825300	 -32.04739361
Au	 -32.50367402	 -34.37084896	 -32.19497567
No	 -30.94519743	 -38.41389720	 -29.71040403
No	 -30.56280739	 -37.40632137	 -26.76006555
No	 -28.51450213	 -37.97912236	 -28.75967851
No	 -30.24665838	 -35.68408948	 -29.06050080
No	 -28.82956721	 -39.70442940	 -26.45725204
No	 -28.61016144	 -38.64944755	 -23.47082455
No	 -26.47963876	 -39.25600696	 -25.35991805
No	 -28.18143122	 -36.95776215	 -25.77380529
No	 -41.42786736	 -33.27542821	 -37.57451794
No	 -40.86433914	 -32.56878521	 -35.15379581
No	 -38.52636854	 -32.50650110	 -36.90463952
No	 -40.51455236	 -30.42547070	 -37.10108725
No	 -39.02014769	 -34.79724107	 -35.10386258
No	 -38.60004033	 -34.07169331	 -32.63090119
Au	 -36.29996341	 -34.15118067	 -34.39185727
No	 -38.05133310	 -31.84441410	 -34.48762066
Au	 -37.00570047	 -36.55842627	 -32.72225027
Au	 -36.55678061	 -35.62454884	 -30.02679757
Au	 -31.82701009	 -33.23018699	 -29.21236374
Au	 -36.00872446	 -33.50958461	 -31.96813012
Au	 -32.23083324	 -35.03718704	 -27.00154054
Au	 -31.90502499	 -33.92638092	 -24.20145171
No	 -29.83348728	 -34.60594055	 -26.13923964
Au	 -31.38047890	 -32.14205914	 -26.40671843
No	 -30.28166729	 -36.31445276	 -23.85724512
No	 -30.09195230	 -35.13238755	 -21.00214634
No	 -27.94347222	 -35.84324164	 -22.83277273
No	 -29.53163103	 -33.45760834	 -23.28227464
No	 -42.77673784	 -30.41107632	 -35.27380369
No	 -42.19110107	 -29.53536439	 -32.90127383
No	 -39.92018598	 -29.65730084	 -34.70227989
No	 -41.80838514	 -27.48988531	 -34.93646843
No	 -40.35685229	 -31.76172132	 -32.72442774
No	 -39.89687147	 -30.84437550	 -30.28555873
No	 -37.62680761	 -31.07740872	 -32.06053501
No	 -39.39221183	 -28.80152076	 -32.30896441
No	 -38.18863586	 -33.19035615	 -30.10744717
No	 -37.81561715	 -32.18183180	 -27.56919343
Au	 -35.63829673	 -32.62224677	 -29.40970003
No	 -37.23060234	 -30.18090452	 -29.60932567
Au	 -36.18462431	 -34.59494466	 -27.35030806
Au	 -35.88550882	 -33.46778436	 -24.69833384
Au	 -31.05231355	 -30.99950757	 -23.67388304
Au	 -35.29516132	 -31.59421639	 -26.82791813
Au	 -31.66972712	 -32.73146762	 -21.44981173
Au	 -31.51292060	 -31.44352564	 -18.74403339
No	 -29.32465251	 -32.22728671	 -20.48287160
Au	 -30.81064356	 -29.77359822	 -20.99093555
No	 -44.05602385	 -27.34205672	 -33.11058960
Au	 -43.46590449	 -26.32478321	 -30.81561046
No	 -41.20175630	 -26.57232229	 -32.60331609
Au	 -43.02845771	 -24.36125300	 -32.91540714
No	 -41.66536478	 -28.56656699	 -30.53281958
No	 -41.19554903	 -27.50107810	 -28.17243934
No	 -38.91987734	 -27.84759559	 -29.91902842
No	 -40.65669241	 -25.56677101	 -30.28047281
No	 -39.48475793	 -29.81653244	 -27.84484447
No	 -39.12293004	 -28.68121591	 -25.41236787
No	 -36.86768335	 -29.15816968	 -27.14563296
No	 -38.49785673	 -26.79041060	 -27.53524606
No	 -37.49425782	 -31.06048259	 -25.03725312
No	 -37.22882123	 -29.83262935	 -22.52456978
Au	 -35.00387894	 -30.45177195	 -24.25567179
No	 -36.54717094	 -28.01865281	 -24.68586544
Au	 -35.65550220	 -32.24150547	 -22.07636935
Au	 -35.49047213	 -30.91481629	 -19.48983860
Au	 -30.64207722	 -28.45409856	 -18.35395926
Au	 -34.76975003	 -29.20274369	 -21.70737124
No	 -35.32025370	 -35.36948727	 -43.50125904
No	 -34.51702806	 -34.81689847	 -40.77882347
No	 -32.33643181	 -34.83738464	 -42.67687920
No	 -34.51207537	 -32.91050440	 -42.95222457
No	 -32.28126047	 -36.68070718	 -40.42909451
No	 -31.53100041	 -35.99283956	 -37.52691785
No	 -29.43514871	 -36.22343904	 -39.49577123
No	 -31.55896738	 -34.26131268	 -39.87988876
No	 -29.44659525	 -37.98132482	 -37.16320426
No	 -28.82037136	 -37.20796729	 -34.15020450
No	 -26.75957543	 -37.60593734	 -36.14736156
No	 -28.74955816	 -35.54051832	 -36.55712902
No	 -26.90545756	 -39.33952862	 -33.80825466
No	 -26.45052201	 -38.51893236	 -30.74348212
No	 -24.35093303	 -39.00922218	 -32.68711247
No	 -26.21178813	 -36.84499554	 -33.11578631
No	 -24.63259196	 -40.72380576	 -30.35653877
No	 -24.34484481	 -39.84639145	 -27.24587109
Au	 -22.19589368	 -40.41137711	 -29.11571412
No	 -23.96529787	 -38.18556954	 -29.59724444
No	 -36.76200783	 -32.96103895	 -41.11139106
No	 -36.08681116	 -32.37161060	 -38.55982042
No	 -33.73397006	 -32.34334233	 -40.29151879
No	 -35.87335576	 -30.39299932	 -40.64828595
No	 -33.80226557	 -34.17719882	 -38.05503561
Au	 -33.17299224	 -33.44770877	 -35.33554899
No	 -30.85255145	 -33.57752168	 -37.06654337
No	 -33.05942932	 -31.70693617	 -37.64951800
No	 -30.80640504	 -35.14494980	 -34.56151949
Au	 -30.08638211	 -34.10918556	 -31.51736882
No	 -28.11966099	 -34.72522525	 -33.58973809
Au	 -30.18663039	 -32.75548047	 -34.21420130
No	 -28.26845206	 -36.31405896	 -31.13042547
No	 -27.80435912	 -35.31363058	 -28.12934013
No	 -25.74139083	 -35.96633262	 -30.08541623
No	 -27.53717621	 -33.76643749	 -30.59312713
No	 -26.08461256	 -37.59036095	 -27.69765864
No	 -25.80877830	 -36.55765165	 -24.68358076
No	 -23.66559935	 -37.24991400	 -26.52749778
No	 -25.35224553	 -34.97451897	 -27.07121879
No	 -38.19687696	 -30.40254896	 -38.87844975
No	 -37.57609154	 -29.72085970	 -36.43700562
No	 -35.18280484	 -29.75742963	 -38.12506002
No	 -37.20040852	 -27.71029171	 -38.48892544
No	 -35.56008854	 -31.76404182	 -36.07549531
No	 -35.19782876	 -31.16136217	 -33.68387258
No	 -32.51343936	 -31.02706155	 -35.05918692
No	 -34.60730214	 -29.07280258	 -35.64127096
Au	 -33.11592182	 -33.11592182	 -33.11592182
Au	 -33.57862533	 -33.18120542	 -31.37004627
Au	 -29.45278572	 -31.68417006	 -31.21941855
Au	 -32.20035986	 -30.41127464	 -32.63149117
Au	 -29.45517222	 -32.96570459	 -28.49212185
Au	 -28.99081056	 -31.80219081	 -25.58211379
No	 -27.01949452	 -32.67939894	 -27.59548869
Au	 -28.56870794	 -30.26432967	 -28.00171105
No	 -27.44008310	 -34.22257001	 -25.17209554
No	 -27.17610051	 -33.04697566	 -22.27136814
No	 -25.04981807	 -33.87783138	 -24.09090356
No	 -26.60355568	 -31.50443473	 -24.64850825
No	 -39.52155142	 -27.60951546	 -36.72819229
No	 -38.89811061	 -26.78871084	 -34.35624206
No	 -36.54642264	 -26.97102537	 -36.06598200
No	 -38.43918951	 -24.82517424	 -36.44436858
No	 -37.04796968	 -28.97503651	 -34.02005732
No	 -36.59060857	 -28.14559481	 -31.61596679
No	 -34.14916360	 -28.34551800	 -33.20807757
No	 -35.97858434	 -26.16235307	 -33.66542291
No	 -34.90525120	 -30.47633851	 -31.30491164
No	 -34.59271264	 -29.61566679	 -28.85950541
Au	 -32.19779344	 -29.95508397	 -30.45537394
No	 -33.78265720	 -27.55518140	 -30.81077926
Au	 -33.16452893	 -32.19743915	 -28.68965894
Au	 -32.82331394	 -31.11631557	 -26.03374751
Au	 -28.00484213	 -28.97238686	 -25.05758183
Au	 -32.01609902	 -29.17325964	 -28.06233052
Au	 -28.66474732	 -30.59983679	 -22.77022671
Au	 -28.44089435	 -29.32789962	 -20.02931365
No	 -26.30241991	 -30.26240967	 -21.77908789
Au	 -27.66262074	 -27.73018380	 -22.30170193
No	 -40.74825153	 -24.60238518	 -34.69242680
No	 -40.11774318	 -23.64646824	 -32.39818122
No	 -37.78834427	 -23.95986208	 -34.10318179
Au	 -39.59142234	 -21.75080389	 -34.53428885
No	 -38.34422560	 -25.88571160	 -31.99693066
No	 -37.85061308	 -24.89248250	 -29.64989372
No	 -35.48506035	 -25.27501698	 -31.28493938
No	 -37.20682172	 -23.01456099	 -31.77860616
No	 -36.18292241	 -27.21208452	 -29.21324442
No	 -35.81580942	 -26.16516042	 -26.81108586
No	 -33.46010701	 -26.65654754	 -28.41334679
No	 -35.05148974	 -24.29666437	 -28.91979289
No	 -34.28163498	 -28.59595623	 -26.37409798
No	 -34.00125495	 -27.44621283	 -23.88442460
Au	 -31.74760762	 -28.14269726	 -25.54518865
No	 -33.15865790	 -25.62558627	 -26.00183835
Au	 -32.55100222	 -29.93634174	 -23.40778306
Au	 -32.34341915	 -28.65629664	 -20.81716123
Au	 -27.43012237	 -26.43124829	 -19.62958350
Au	 -31.49840188	 -26.96877556	 -23.01536840
No	 -32.32980612	 -32.92954694	 -44.85339694
No	 -31.48841392	 -32.42574705	 -42.12033902
No	 -29.29509785	 -32.56016491	 -43.99667212
No	 -31.36911138	 -30.54081077	 -44.30714297
No	 -29.38643172	 -34.41547984	 -41.77295495
No	 -28.65177573	 -33.82621219	 -38.91502744
No	 -26.47069926	 -34.09442906	 -40.78285921
No	 -28.49567283	 -32.04550149	 -41.19981363
No	 -26.62455085	 -35.86574328	 -38.48221368
No	 -26.00539894	 -35.18383172	 -35.50744801
No	 -23.84706305	 -35.59609466	 -37.37882327
No	 -25.78901640	 -33.49556664	 -37.87172912
No	 -24.09444720	 -37.30557572	 -35.03460141
No	 -23.61923820	 -36.54517285	 -31.97670122
No	 -21.45675142	 -37.07644174	 -33.82318117
No	 -23.29479385	 -34.90988073	 -34.36696180
No	 -21.81712385	 -38.74102405	 -31.46389524
No	 -21.49999757	 -37.90738949	 -28.34662857
Au	 -19.31153601	 -38.53329352	 -30.13941512
No	 -21.05188969	 -36.30845714	 -30.73521238
No	 -33.59660413	 -30.44071337	 -42.45681599
No	 -32.82767472	 -29.84826114	 -39.84354878
No	 -30.54002321	 -30.01155859	 -41.61993025
No	 -32.57644459	 -27.97020782	 -42.01786006
No	 -30.73571896	 -31.83458509	 -39.38594595
No	 -30.06868428	 -31.15344095	 -36.65587478
No	 -27.78028987	 -31.43576925	 -38.39988653
No	 -29.80171905	 -29.39967995	 -38.93865535
No	 -27.98782340	 -33.12552356	 -36.04296521
No	 -27.37574137	 -32.29442163	 -33.14584482
No	 -25.18128979	 -32.78541563	 -34.95290355
No	 -27.14199276	 -30.72468151	 -35.59874455
No	 -25.45476857	 -34.38030590	 -32.52129986
No	 -24.96742990	 -33.44898052	 -29.52738272
No	 -22.81724575	 -34.10634664	 -31.35453194
No	 -24.63620849	 -31.95278930	 -32.02345772
No	 -23.22339465	 -35.66823550	 -28.92686069
No	 -22.90671863	 -34.67575914	 -25.89570872
No	 -20.72737036	 -35.42392125	 -27.66122606
No	 -22.40999962	 -33.18126579	 -28.34655457
No	 -34.87486469	 -27.82194406	 -40.24318343
No	 -34.16721106	 -27.14334299	 -37.74876728
No	 -31.80719286	 -27.34805944	 -39.44443554
No	 -33.77237644	 -25.26090790	 -39.90073468
No	 -32.16031611	 -29.18756050	 -37.25181123
No	 -31.60768835	 -28.47310798	 -34.70269586
No	 -29.15488719	 -28.70655984	 -36.27263416
No	 -31.13357892	 -26.65477332	 -36.89153880
No	 -29.48404164	 -30.37994815	 -33.93576021
Au	 -28.97829926	 -29.51199914	 -31.23120159
No	 -26.56831066	 -29.90081044	 -32.79274541
No	 -28.60542385	 -27.93927562	 -33.63643402
No	 -26.78252317	 -31.29816352	 -30.19743764
Au	 -26.18628099	 -30.10929449	 -27.18261102
No	 -24.13958482	 -30.98296172	 -29.07732779
Au	 -26.02819860	 -28.93415046	 -29.95921310
No	 -24.54649981	 -32.39252681	 -26.53915987
No	 -24.20478949	 -31.22576744	 -23.58202291
No	 -22.07192534	 -32.13421284	 -25.35225151
No	 -23.68246260	 -29.86534127	 -26.11418697
No	 -36.10747905	 -25.03847993	 -38.17541669
No	 -35.42637203	 -24.25328531	 -35.77873039
No	 -33.04735616	 -24.54387792	 -37.43662954
No	 -34.91626767	 -22.39267116	 -37.93418684
No	 -33.55831376	 -26.40197290	 -35.28283901
No	 -33.04688200	 -25.59957074	 -32.85275412
No	 -30.56082959	 -25.89721079	 -34.37250411
No	 -32.41137213	 -23.75708842	 -34.99641512
No	 -31.19752399	 -27.73581050	 -32.23154118
No	 -30.94568987	 -26.99929747	 -29.86332617
No	 -28.17787076	 -27.12412974	 -31.06293734
No	 -30.09693465	 -25.08624916	 -31.90344187
Au	 -29.02804072	 -29.02804072	 -29.02804072
Au	 -29.61153231	 -28.95786719	 -27.32572752
Au	 -25.41275551	 -27.71402390	 -26.99484492
Au	 -27.97638852	 -26.36910398	 -28.66288318
Au	 -25.67014857	 -28.80888058	 -24.19921951
Au	 -25.31166236	 -27.48578150	 -21.34292131
No	 -23.28141708	 -28.61589843	 -23.16231663
Au	 -24.63843191	 -26.14136171	 -23.82020503
No	 -37.26171421	 -22.07396161	 -36.24178103
No	 -36.58427595	 -21.17092550	 -33.93378292
No	 -34.21051939	 -21.56935369	 -35.56756770
Au	 -35.98537472	 -19.35919533	 -36.11418531
No	 -34.82584143	 -23.39517353	 -33.40349420
No	 -34.29819393	 -22.45901673	 -31.05110285
No	 -31.86190009	 -22.90064555	 -32.58613438
No	 -33.58066154	 -20.67096047	 -33.22236032
No	 -32.62194190	 -24.72915710	 -30.45721451
No	 -32.26111196	 -23.77191937	 -28.08438884
No	 -29.74393059	 -24.22885883	 -29.49521974
No	 -31.39221203	 -21.97120663	 -30.20819165
No	 -30.75698877	 -26.17728368	 -27.51747890
No	 -30.54087798	 -25.17718035	 -25.11507651
Au	 -28.07906307	 -25.77038594	 -26.52405234
No	 -29.47575294	 -23.30535608	 -27.13275884
Au	 -29.30074306	 -27.82589406	 -24.69023989
Au	 -29.05453938	 -26.59405496	 -22.09003268
Au	 -24.17444737	 -24.69429789	 -20.93131556
Au	 -27.99522995	 -24.84413172	 -24.17757752
Au	 -29.17456227	 -30.67429529	 -46.18564244
No	 -28.29844568	 -30.22146141	 -43.43634291
Au	 -26.08320521	 -30.45734091	 -45.27575596
Au	 -28.07740849	 -28.37311720	 -45.64567223
No	 -26.28869094	 -32.28886757	 -43.04436031
No	 -25.53859981	 -31.76399840	 -40.18804514
Au	 -23.31504376	 -32.10995874	 -41.99336401
Au	 -25.25707187	 -29.99758036	 -42.46489458
No	 -23.59020941	 -33.86560972	 -39.70049303
No	 -22.96751276	 -33.25682035	 -36.74030368
Au	 -20.74716877	 -33.72157230	 -38.52102267
No	 -22.62028649	 -31.57420242	 -39.08115240
No	 -21.10418183	 -35.40659743	 -36.17992625
No	 -20.61943747	 -34.71092279	 -33.13032918
Au	 -18.39920338	 -35.29094836	 -34.88185227
No	 -20.18741244	 -33.10060067	 -35.51421991
Au	 -18.85196834	 -36.91452975	 -32.51162624
Au	 -18.51691673	 -36.13262167	 -29.39188274
Au	 -16.28550490	 -36.81563561	 -31.09873381
Au	 -17.98294934	 -34.58096377	 -31.79441441
No	 -30.31295719	 -28.15720356	 -43.82042043
No	 -29.48991981	 -27.60109509	 -41.17434175
Au	 -27.20953231	 -27.89230546	 -42.93461542
Au	 -29.16066944	 -25.78517225	 -43.39179180
No	 -27.51136855	 -29.68088189	 -40.68574955
No	 -26.81022910	 -29.04999537	 -37.93952553
No	 -24.51809044	 -29.44513091	 -39.65396354
No	 -26.42998008	 -27.32561579	 -40.22671925
No	 -24.87081809	 -31.13930172	 -37.32999670
No	 -24.27807029	 -30.40835807	 -34.47183700
No	 -22.00753958	 -30.93540943	 -36.17028852
No	 -23.86199582	 -28.79657309	 -36.84766903
No	 -22.42173560	 -32.53692349	 -33.77909873
No	 -21.94513385	 -31.69876390	 -30.81803093
No	 -19.70659905	 -32.36808176	 -32.51255017
No	 -21.47022103	 -30.18807662	 -33.26326452
No	 -20.21254486	 -33.89929867	 -30.08803080
No	 -19.87925089	 -32.96848490	 -27.05862648
No	 -17.64603990	 -33.75491866	 -28.72066576
No	 -19.29862674	 -31.51900720	 -29.51925244
No	 -31.45406961	 -25.50855838	 -41.63705985
No	 -30.67900565	 -24.85613273	 -39.09972483
No	 -28.33862880	 -25.20193846	 -40.78329144
Au	 -30.23107286	 -23.06418149	 -41.31448191
No	 -28.75681388	 -26.96425726	 -38.53831235
No	 -28.11448477	 -26.24853242	 -35.92171745
No	 -25.73654697	 -26.67166238	 -37.52855270
No	 -27.60409181	 -24.53839432	 -38.18727634
No	 -26.19169705	 -28.32649658	 -35.20330637
No	 -25.65222164	 -27.50834130	 -32.48268706
No	 -23.28346870	 -28.04790307	 -34.04982388
No	 -25.12766101	 -25.93016587	 -34.84747747
No	 -23.74920982	 -29.56111354	 -31.61123881
No	 -23.26490009	 -28.57910202	 -28.73725571
No	 -20.99963661	 -29.32480000	 -30.36042236
No	 -22.77504863	 -27.19341670	 -31.26220349
No	 -21.52939771	 -30.73447128	 -27.85775534
No	 -21.16868305	 -29.63845187	 -24.90190822
No	 -18.95730559	 -30.54840823	 -26.53766051
No	 -20.58396130	 -28.33494953	 -27.45879468
No	 -32.56817084	 -22.71920559	 -39.62141807
No	 -31.82542615	 -21.96822131	 -37.18866309
No	 -29.44674632	 -22.38278689	 -38.81123377
Au	 -31.26298338	 -20.20436313	 -39.40364948
No	 -29.99364610	 -24.12967813	 -36.58191795
No	 -29.39921167	 -23.33224242	 -34.09311724
No	 -26.95698707	 -23.79576398	 -35.61218678
No	 -28.74691154	 -21.62520065	 -36.32715682
No	 -27.56742892	 -25.45994686	 -33.33756206
No	 -27.12840109	 -24.61351861	 -30.80682248
No	 -24.60351941	 -25.10308158	 -32.19273019
No	 -26.39911766	 -22.97769859	 -33.06832478
No	 -25.18804003	 -26.59375084	 -29.78320913
Au	 -24.79518615	 -25.58121593	 -27.11034792
No	 -22.32378417	 -26.22226841	 -28.48106393
No	 -24.16955678	 -24.19805810	 -29.57876862
No	 -22.79159710	 -27.42803816	 -25.82373907
Au	 -22.30662243	 -26.08093916	 -22.85587489
No	 -20.20846566	 -27.20434126	 -24.55231741
Au	 -21.89817816	 -25.10500433	 -25.68362968
Au	 -33.62522027	 -19.77836634	 -37.76128906
Au	 -32.89564842	 -18.92287347	 -35.42655698
Au	 -30.50190515	 -19.42357018	 -37.00269715
Au	 -32.23305349	 -17.20099703	 -37.65257515
No	 -31.16499407	 -21.14362310	 -34.77800851
No	 -30.58382665	 -20.24487658	 -32.39493450
No	 -28.13074146	 -20.79259130	 -33.86978086
No	 -29.81796827	 -18.56697650	 -34.62343090
No	 -28.89717839	 -22.46804024	 -31.64315704
No	 -28.48591809	 -21.53937039	 -29.23916837
No	 -25.93531404	 -22.09159133	 -30.56888911
No	 -27.59711471	 -19.88655401	 -31.44645696
No	 -26.82487102	 -23.74064674	 -28.36460792
No	 -26.67265374	 -22.86553380	 -26.03537597
No	 -23.84991233	 -23.24194470	 -27.03833081
No	 -25.57325204	 -21.14884707	 -28.12977657
Au	 -24.95367053	 -24.95367053	 -24.95367053
Au	 -25.63222418	 -24.73046286	 -23.29768998
Au	 -21.38886277	 -23.73132613	 -22.76668542
Au	 -23.74859079	 -22.34314437	 -24.68189051
Au	 -27.41247604	 -43.72476933	 -23.85400328
Au	 -29.06290900	 -40.36361774	 -21.19259224
Au	 -31.22701522	 -39.77959307	 -19.34315572
Au	 -29.02967291	 -39.16033232	 -18.23588109
Au	 -30.65889631	 -36.81374713	 -18.72871581
Au	 -32.85511109	 -36.14580193	 -16.95369460
Au	 -30.64446289	 -35.48218656	 -15.90816137
Au	 -32.19723141	 -33.09550409	 -16.48002098
Au	 -32.19514639	 -31.64594219	 -13.80264674
Au	 -33.67726511	 -29.23396884	 -14.46358694
Au	 -24.75465662	 -41.52917303	 -24.92304868
Au	 -26.90769022	 -40.94981971	 -23.05548873
Au	 -26.83986539	 -39.82701241	 -20.02792293
Au	 -24.65488735	 -40.49123171	 -21.82857751
No	 -26.31145827	 -38.18081036	 -22.34248003
Au	 -24.63966794	 -39.34230508	 -18.77452564
No	 -28.47913455	 -37.49464799	 -20.52663493
Au	 -28.43027490	 -36.23768459	 -17.62890567
Au	 -26.22860338	 -37.00101953	 -19.36842255
No	 -27.79435773	 -34.63373331	 -19.94105097
Au	 -26.22569151	 -35.71549706	 -16.44318040
No	 -29.98455770	 -33.85473663	 -18.19551648
Au	 -29.95155471	 -32.47738000	 -15.43932768
No	 -27.72658068	 -33.32610233	 -17.10145695
No	 -29.19955500	 -30.90597707	 -17.73760338
Au	 -28.45719421	 -34.87622946	 -14.78159034
Au	 -26.29680576	 -34.32283586	 -13.57149470
Au	 -27.73265355	 -31.91726978	 -14.31668591
Au	 -31.42621924	 -30.05757720	 -16.08540772
Au	 -31.40284577	 -28.57066134	 -13.47699554
No	 -29.14651306	 -29.48785053	 -15.04636808
Au	 -30.53839187	 -27.03636574	 -15.76443049
Au	 -29.98592067	 -30.99737470	 -12.73656225
Au	 -27.80548908	 -30.40474171	 -11.58983002
Au	 -29.15761352	 -27.96925747	 -12.41113548
Au	 -22.59674006	 -42.09379857	 -26.78569467
Au	 -22.46865929	 -41.14535818	 -23.62959352
Au	 -21.97236480	 -39.51860806	 -25.97716521
No	 -24.14598470	 -38.85924751	 -24.16384762
Au	 -24.03313052	 -37.76284288	 -21.11897844
Au	 -21.83495664	 -38.51221878	 -22.86895673
No	 -23.45108623	 -36.20414514	 -23.48862395
Au	 -21.78043032	 -37.39240381	 -19.79929420
No	 -25.62161181	 -35.42336990	 -21.71151694
No	 -25.51903431	 -34.18801723	 -18.78863200
No	 -23.32000277	 -35.05026902	 -20.49054198
No	 -24.83624709	 -32.68307712	 -21.15892445
Au	 -24.00234561	 -36.55727366	 -18.11862938
Au	 -24.04877509	 -35.24220288	 -15.16907277
Au	 -21.80485389	 -36.15939076	 -16.77570192
No	 -23.26902609	 -33.78953466	 -17.54143790
Au	 -21.90358447	 -34.81327289	 -13.80489129
No	 -27.00438695	 -31.78428957	 -19.42993865
No	 -26.91475349	 -30.42925793	 -16.64772477
No	 -24.70841023	 -31.39260488	 -18.28372149
No	 -26.10346869	 -28.94783160	 -18.98546372
No	 -25.49520567	 -32.85056326	 -15.91989854
Au	 -25.54352118	 -31.40933907	 -13.10925492
Au	 -23.29336916	 -32.42220843	 -14.64771787
No	 -24.65966628	 -30.00528208	 -15.46944364
Au	 -23.38725766	 -30.94785399	 -11.81450732
Au	 -28.29856984	 -27.96978630	 -17.34790033
Au	 -28.22537311	 -26.51718912	 -14.72316740
No	 -25.98996822	 -27.54951980	 -16.26057279
Au	 -27.27511429	 -25.04722861	 -17.01808443
No	 -26.89772865	 -28.97713076	 -13.92520141
Au	 -26.94502002	 -27.42443005	 -11.26406232
No	 -24.68215564	 -28.51864168	 -12.71859263
No	 -25.94859139	 -26.05909488	 -13.60069918
Au	 -25.65721818	 -29.86268699	 -10.36035884
Au	 -23.54441051	 -29.36575364	 -9.04622216
Au	 -24.76804946	 -26.93026298	 -10.03354680
Au	 -19.78519438	 -40.15483342	 -27.77486188
Au	 -19.62715628	 -39.24222378	 -24.60880642
Au	 -19.06289991	 -37.68375713	 -26.99358380
No	 -21.26693746	 -36.95899146	 -25.25225757
No	 -21.11583864	 -35.89647048	 -22.19004823
Au	 -18.89689205	 -36.71719008	 -23.87415278
No	 -20.48106677	 -34.42241747	 -24.60987762
Au	 -19.55297991	 -38.21284503	 -21.47565836
Au	 -19.55899477	 -37.06662963	 -18.38323659
Au	 -18.81046104	 -35.63352588	 -20.78940115
No	 -22.67034456	 -33.57147030	 -22.89606728
No	 -22.51477508	 -32.35997518	 -19.94051045
No	 -20.31164786	 -33.30536050	 -21.59125277
No	 -21.80624028	 -30.97049308	 -22.38649994
No	 -21.04418284	 -34.72104266	 -19.16910433
Au	 -21.04860205	 -33.43391984	 -16.19767996
Au	 -18.80035409	 -34.43336538	 -17.74766267
No	 -20.21782143	 -32.07539321	 -18.61589066
Au	 -18.86284763	 -33.11764926	 -14.75688144
No	 -23.95372900	 -29.96544818	 -20.68082147
No	 -23.79340848	 -28.61845468	 -17.84783114
No	 -21.61783442	 -29.69918511	 -19.46678348
No	 -22.97269452	 -27.27592400	 -20.27313013
No	 -22.43813950	 -31.04459845	 -17.03901071
No	 -22.43596304	 -29.62656964	 -14.19840086
No	 -20.19735451	 -30.73528173	 -15.69342754
No	 -21.50838955	 -28.32789503	 -16.60721407
Au	 -21.12472355	 -32.03593232	 -13.28284279
Au	 -21.26729958	 -30.52746365	 -10.43053750
Au	 -18.99357251	 -31.68734898	 -11.82427508
No	 -20.24651113	 -29.28702072	 -12.83171681
Au	 -19.18749333	 -30.14329252	 -8.95621280
Au	 -25.08220780	 -26.12190885	 -18.59594417
Au	 -24.94549498	 -24.68709159	 -15.93077105
No	 -22.76901155	 -25.86717001	 -17.47298592
Au	 -23.92276578	 -23.29546939	 -18.24152131
No	 -23.71549374	 -27.18292416	 -15.08544727
No	 -23.70949424	 -25.65425379	 -12.39323816
No	 -21.47442663	 -26.85971702	 -13.81584295
No	 -22.65754702	 -24.38483587	 -14.75963112
No	 -22.50205167	 -28.10555679	 -11.42330901
Au	 -22.62947194	 -26.48057096	 -8.71732226
Au	 -20.36014285	 -27.73159923	 -10.03680338
No	 -21.50899839	 -25.29421250	 -11.09643111
Au	 -20.53215112	 -26.06928295	 -7.31343491
Au	 -16.66106140	 -37.51257120	 -25.53912939
Au	 -16.02058284	 -36.01439510	 -27.94669847
No	 -18.26245964	 -35.23338503	 -26.29144848
No	 -18.08542354	 -34.21585332	 -23.21798878
Au	 -15.83597766	 -35.09457936	 -24.81893763
No	 -17.38416997	 -32.81017530	 -25.66646395
Au	 -16.56268087	 -36.52277618	 -22.39468264
Au	 -16.54186351	 -35.41344716	 -19.28812581
Au	 -15.72786977	 -34.05504812	 -21.72257295
No	 -19.61674792	 -31.91721312	 -24.04977980
No	 -19.42424297	 -30.74719316	 -21.07200035
No	 -17.19369390	 -31.74528984	 -22.63878394
No	 -18.67764127	 -29.45268464	 -23.57274407
No	 -17.98305324	 -33.08032016	 -20.18006308
No	 -17.95271803	 -31.82817018	 -17.18671915
Au	 -15.69262679	 -32.89558008	 -18.66527805
No	 -17.07192709	 -30.56055494	 -19.64612982
Au	 -16.59475152	 -34.18479732	 -16.22718446
Au	 -16.71719815	 -32.83750750	 -13.21940533
Au	 -15.72668993	 -31.61684915	 -15.65509899
No	 -20.86543270	 -28.41406616	 -21.96393762
No	 -20.63180795	 -27.07696432	 -19.06905757
No	 -18.45790573	 -28.23209596	 -20.63363799
No	 -19.86354739	 -25.92296370	 -21.64072976
No	 -19.30231472	 -29.46291734	 -18.13790008
No	 -19.25098659	 -28.06977681	 -15.25974731
No	 -17.01700984	 -29.25813245	 -16.69836884
No	 -18.30072882	 -26.89271349	 -17.73504099
No	 -17.99142386	 -30.46137612	 -14.24677986
Au	 -18.09538312	 -28.98190298	 -11.36816575
Au	 -15.82634077	 -30.22021000	 -12.70008137
No	 -17.02717445	 -27.84143496	 -13.80574590
Au	 -15.98743893	 -28.70735912	 -9.80783029
Au	 -21.89205555	 -24.61985774	 -19.93158536
Au	 -21.62505652	 -23.13481057	 -17.14574808
No	 -19.56501241	 -24.50756761	 -18.75230212
Au	 -20.71100121	 -22.00250257	 -19.65174487
No	 -20.47875617	 -25.64476164	 -16.24173084
No	 -20.40606003	 -24.12512514	 -13.49375913
No	 -18.21049442	 -25.44443515	 -14.89412343
No	 -19.34849748	 -23.00043054	 -15.93807064
No	 -19.26799540	 -26.57186153	 -12.44714172
No	 -19.34854110	 -24.97112862	 -9.70651381
No	 -17.09978083	 -26.31399641	 -10.97753653
No	 -18.18850372	 -23.89566830	 -12.12457663
Au	 -18.25985623	 -27.39131955	 -8.55757288
Au	 -18.47927245	 -25.69072961	 -5.82054868
Au	 -16.20524838	 -27.08001563	 -6.98518257
No	 -17.23075191	 -24.67855768	 -8.22118907
Au	 -16.47441296	 -25.33974085	 -4.23809484
Au	 -45.70392194	 -26.05572527	 -29.00510414
Au	 -43.44613905	 -27.13154643	 -26.40269554
Au	 -43.94305014	 -29.03915953	 -24.26752632
Au	 -41.37147619	 -28.19764868	 -23.67251589
Au	 -43.04526084	 -25.87002116	 -24.10183167
Au	 -41.94055302	 -30.04203029	 -21.50580907
Au	 -39.47095209	 -29.23115657	 -20.81163488
Au	 -41.07824286	 -26.86404597	 -21.30940035
Au	 -37.73467469	 -30.20639277	 -17.81411165
Au	 -39.28336209	 -27.81420681	 -18.38869579
Au	 -42.41598052	 -23.31066871	 -30.66597244
Au	 -42.93450347	 -25.21885268	 -28.53314520
Au	 -42.45832727	 -24.02203371	 -26.26783828
No	 -40.16805137	 -24.46908508	 -27.97111490
Au	 -41.86127652	 -22.17425751	 -28.43276940
No	 -40.77930134	 -26.33748444	 -25.82579675
Au	 -40.41479894	 -25.07556353	 -23.49927236
No	 -38.12442420	 -25.62906291	 -25.16387089
Au	 -39.73199525	 -23.27678764	 -25.67967166
No	 -38.81270690	 -27.44134939	 -22.99763290
Au	 -38.55378843	 -26.09900257	 -20.60894660
No	 -36.27423739	 -26.76928416	 -22.24334300
No	 -37.79891603	 -24.36452789	 -22.81241613
No	 -37.01940843	 -28.50105509	 -20.04033231
Au	 -36.86407295	 -27.06701261	 -17.59191179
Au	 -34.59241662	 -27.84983885	 -19.19205643
No	 -36.05034228	 -25.41418009	 -19.82824596
Au	 -41.36032014	 -20.94964173	 -26.22003947
Au	 -39.34548962	 -21.98871274	 -23.41142866
Au	 -40.10006860	 -23.71558612	 -21.19933127
Au	 -37.52033067	 -22.99821034	 -20.48834975
Au	 -39.00577040	 -20.60452740	 -21.17206588
Au	 -38.34453869	 -24.65552475	 -18.25357894
Au	 -35.87456202	 -23.95571885	 -17.44871266
Au	 -37.28689749	 -21.53140634	 -18.19863536
Au	 -41.89956064	 -21.41582980	 -32.80787626
Au	 -41.26170404	 -20.33496953	 -30.60271544
Au	 -38.93516223	 -20.76080203	 -32.27889767
No	 -39.54902371	 -22.60603917	 -30.11885729
Au	 -39.03671149	 -21.47726850	 -27.85756816
No	 -36.68707110	 -21.98357850	 -29.47199509
Au	 -38.33983772	 -19.68865646	 -30.04187368
No	 -37.41021358	 -23.80309464	 -27.31669313
No	 -37.01857509	 -22.61447050	 -25.00127087
No	 -34.66659625	 -23.21733352	 -26.56782157
No	 -36.22214148	 -20.86182373	 -27.18522102
No	 -35.48913820	 -25.00509423	 -24.41715241
No	 -35.20488996	 -23.73541644	 -22.04145741
No	 -32.88274742	 -24.46601627	 -23.58797230
No	 -34.32456362	 -22.03244700	 -24.23175278
No	 -33.76443022	 -26.18131528	 -21.41149802
No	 -33.57502022	 -24.80815257	 -18.96809757
Au	 -31.29263800	 -25.67831913	 -20.50561555
No	 -32.64106372	 -23.18776903	 -21.18810644
Au	 -37.80021064	 -18.53113199	 -27.82652904
Au	 -38.57620373	 -20.25738337	 -25.61816425
Au	 -38.16358388	 -18.94468782	 -23.40517756
No	 -35.80643880	 -19.64569886	 -24.92136369
Au	 -37.31140326	 -17.28561732	 -25.63653285
No	 -36.67290826	 -21.32572552	 -22.70919875
Au	 -36.37098567	 -19.93717560	 -20.44672356
No	 -34.02322372	 -20.74162865	 -21.91775563
Au	 -35.43570063	 -18.33327064	 -22.68473327
No	 -34.96398060	 -22.35958768	 -19.69337090
Au	 -34.76573140	 -20.88023966	 -17.38101655
No	 -32.43838841	 -21.79830882	 -18.81541732
No	 -33.76151242	 -19.34639032	 -19.63320730
Au	 -36.86898460	 -15.95027716	 -23.47598958
Au	 -35.10649849	 -16.92391815	 -20.48046438
Au	 -36.11045762	 -18.44964280	 -18.22013557
Au	 -33.53806056	 -17.84868953	 -17.38539068
Au	 -34.81570387	 -15.41785932	 -18.31405048
Au	 -38.33415008	 -18.93840178	 -34.45555845
Au	 -37.65069800	 -17.91873599	 -32.23887952
Au	 -35.28145976	 -18.42416518	 -33.84063423
No	 -35.97444597	 -20.18887636	 -31.64499118
No	 -35.42594348	 -19.12377167	 -29.37792750
No	 -33.02085027	 -19.69423193	 -30.90155595
Au	 -34.64281240	 -17.41069153	 -31.58826115
No	 -33.83356492	 -21.43751430	 -28.72103864
No	 -33.42219845	 -20.32321841	 -26.41282243
No	 -30.99005258	 -20.96013597	 -27.86007815
No	 -32.52372447	 -18.63463272	 -28.60688169
No	 -31.94275093	 -22.70804240	 -25.72270802
No	 -31.65722406	 -21.52873325	 -23.37134838
No	 -29.24416183	 -22.27125935	 -24.77983016
No	 -30.64059488	 -19.85571182	 -25.53689030
No	 -30.31814683	 -24.01595037	 -22.68284198
No	 -30.11761198	 -22.72303247	 -20.25649793
Au	 -27.81616368	 -23.66733405	 -21.71724580
No	 -29.02566891	 -21.10313561	 -22.42252801
Au	 -37.02663319	 -16.81864229	 -30.04324122
Au	 -36.45696299	 -15.63549002	 -27.87218600
Au	 -34.06398048	 -16.31582903	 -29.36030243
No	 -34.93242866	 -17.97164891	 -27.13509260
Au	 -34.48809389	 -16.72923656	 -24.91946770
No	 -32.08130222	 -17.48705426	 -26.33953821
Au	 -33.53922924	 -15.13658910	 -27.15979951
No	 -33.05657322	 -19.11076826	 -24.12790987
No	 -32.73180571	 -17.79763833	 -21.87012243
No	 -30.33208234	 -18.64857254	 -23.23634646
No	 -31.68620663	 -16.24698419	 -24.10124541
No	 -31.40394134	 -20.23477975	 -21.03791375
No	 -31.18448665	 -18.83023960	 -18.73228757
No	 -28.82421046	 -19.80519025	 -20.07258528
No	 -30.05824885	 -17.33470321	 -20.96106134
Au	 -33.06292104	 -13.87029635	 -24.98990428
Au	 -34.08793147	 -15.39431580	 -22.73475407
Au	 -33.72764617	 -13.96574277	 -20.58531032
No	 -31.33243603	 -14.91139266	 -21.89492266
Au	 -32.62979638	 -12.51489789	 -22.85410916
No	 -32.44471234	 -16.38349166	 -19.64487853
Au	 -32.19270686	 -14.86919662	 -17.45823136
No	 -29.81652606	 -15.91427416	 -18.71705779
Au	 -31.01534877	 -13.47890633	 -19.72469944
Au	 -32.23506512	 -11.06911476	 -20.75632147
Au	 -30.73116957	 -11.94946155	 -17.59549990
Au	 -33.87685248	 -15.72303521	 -33.81735032
Au	 -31.47965088	 -16.31826802	 -35.35040469
No	 -32.23790478	 -17.99105990	 -33.11374218
No	 -31.64703743	 -16.98062559	 -30.82657135
No	 -29.20785634	 -17.63379803	 -32.27103642
Au	 -30.79444530	 -15.35859450	 -33.07096555
No	 -30.07672011	 -19.26992236	 -30.04311669
No	 -29.63558554	 -18.21422572	 -27.72375225
No	 -27.14314819	 -18.90775317	 -29.06302865
No	 -28.66699774	 -16.62255154	 -29.94968305
No	 -28.15411964	 -20.53987976	 -26.87956411
No	 -27.87898153	 -19.45144185	 -24.55224678
No	 -25.31474591	 -20.15700244	 -25.76151082
No	 -26.76177002	 -17.85343884	 -26.72165146
No	 -26.57623320	 -21.90282929	 -23.73793886
No	 -26.44420702	 -20.76072495	 -21.39345286
Au	 -23.94427696	 -21.59841362	 -22.59606076
No	 -25.13347087	 -19.09707709	 -23.44856990
Au	 -33.20881033	 -14.68305508	 -31.60149490
Au	 -32.59851734	 -13.56291765	 -29.41212852
Au	 -30.17294002	 -14.32023691	 -30.81833223
No	 -31.11705144	 -15.88857168	 -28.56794038
No	 -30.64126649	 -14.71143120	 -26.34019495
No	 -28.18917003	 -15.53055376	 -27.66216436
Au	 -29.60990021	 -13.20110366	 -28.59601122
No	 -29.25014649	 -17.07109643	 -25.43612494
No	 -28.91022257	 -15.83369341	 -23.17957331
No	 -26.44035824	 -16.71560782	 -24.41955064
No	 -27.76663378	 -14.35386140	 -25.40999369
No	 -27.63835649	 -18.25490314	 -22.24549171
No	 -27.42211690	 -16.94205260	 -19.95838619
No	 -24.98068867	 -17.92537189	 -21.15444079
No	 -26.16367423	 -15.48318478	 -22.15158799
Au	 -32.04071063	 -12.36038553	 -27.25267054
Au	 -31.53002284	 -11.07338534	 -25.12648083
Au	 -29.09949906	 -11.99881627	 -26.40704661
No	 -30.21295005	 -13.44581912	 -24.14565099
Au	 -29.82591561	 -12.08903731	 -21.98709523
No	 -27.39102606	 -13.08796406	 -23.19415458
Au	 -28.63563767	 -10.71095785	 -24.25427234
No	 -28.60787689	 -14.49724332	 -20.95538113
No	 -28.33784041	 -13.05978922	 -18.76718683
No	 -25.91953036	 -14.14742767	 -19.91529331
No	 -27.05459367	 -11.72894185	 -21.01615071
Au	 -28.21232774	 -9.33542466	 -22.14061927
Au	 -29.47479831	 -10.63943401	 -19.86801903
Au	 -29.15497329	 -9.09642721	 -17.79254877
No	 -26.75097676	 -10.27434530	 -18.87867928
Au	 -27.82397772	 -7.87073199	 -20.06934372
Au	 -27.46548902	 -6.31616415	 -18.04409817
Au	 -35.38609524	 -29.48669922	 -16.94408256
Au	 -35.33786678	 -27.95641354	 -14.44434670
Au	 -30.49313536	 -25.51797328	 -13.22571754
Au	 -34.46935081	 -26.39407266	 -16.71675035
Au	 -29.22598802	 -26.34796231	 -9.83503498
Au	 -30.50052751	 -23.89761131	 -10.74193208
Au	 -34.39699671	 -24.83588906	 -14.28754334
Au	 -35.74452164	 -22.39535940	 -15.11163364
Au	 -32.19620308	 -27.27523425	 -18.26718969
Au	 -32.10481521	 -25.79248599	 -15.76307582
Au	 -27.18382454	 -23.56850860	 -14.46305190
Au	 -31.13521712	 -24.27975295	 -18.03014490
Au	 -28.21254167	 -24.96575910	 -12.15615340
Au	 -28.25293904	 -23.31317306	 -9.64964056
No	 -25.96917266	 -24.47135738	 -11.00545164
Au	 -27.14766418	 -21.99107498	 -11.96569894
Au	 -27.04925284	 -25.76886064	 -8.66699415
Au	 -24.90993163	 -25.23830927	 -7.41706992
Au	 -26.04346656	 -22.78329659	 -8.47649332
No	 -33.43273812	 -23.33010037	 -16.56320734
Au	 -33.33526968	 -21.74901725	 -14.20396041
Au	 -31.02539954	 -22.77639593	 -15.59776642
No	 -32.27581442	 -20.30232036	 -16.47988355
Au	 -32.06454986	 -24.20766264	 -13.30991451
Au	 -32.07054508	 -22.52065564	 -10.91267630
Au	 -27.15983689	 -20.31313701	 -9.52910228
Au	 -30.96029791	 -21.16988316	 -13.21524276
Au	 -26.16428984	 -20.99332194	 -6.01662354
Au	 -27.21424337	 -18.53402345	 -7.15705408
Au	 -34.60815004	 -19.29930096	 -15.11144138
Au	 -32.15207311	 -18.70277028	 -14.18940015
Au	 -33.35075721	 -16.25038992	 -15.18104206
Au	 -30.93602127	 -19.46128283	 -10.88837500
Au	 -32.06446713	 -17.00171721	 -11.95058034
Au	 -28.86851969	 -25.26147443	 -19.53038290
Au	 -28.73810954	 -23.82755503	 -17.01646245
Au	 -23.77136480	 -21.83887523	 -15.64596413
Au	 -27.64756770	 -22.34572923	 -19.25449890
Au	 -24.88054025	 -23.16533149	 -13.33563473
Au	 -24.87461810	 -21.54894042	 -10.80742112
No	 -22.62133375	 -22.81836034	 -12.12561673
Au	 -23.68770335	 -20.29675157	 -13.12122241
No	 -23.76563269	 -24.02833480	 -9.77134332
Au	 -23.87531456	 -22.30233269	 -7.22111514
No	 -21.60395814	 -23.62958046	 -8.45110136
No	 -22.64677472	 -21.15998203	 -9.56687871
Au	 -22.81115133	 -24.75062561	 -6.08373707
Au	 -20.75595822	 -24.30004175	 -4.66563635
Au	 -21.75120061	 -21.86405587	 -5.88185276
No	 -29.95175742	 -21.31383877	 -17.85689734
No	 -29.82408828	 -19.79583831	 -15.49659378
Au	 -27.51324049	 -20.90670146	 -16.82188072
No	 -28.64807955	 -18.38785918	 -17.74625046
Au	 -28.65857194	 -22.29197899	 -14.55332609
Au	 -28.62501821	 -20.65470919	 -12.14589963
Au	 -23.65768644	 -18.66010410	 -10.66284450
Au	 -27.41773722	 -19.35927987	 -14.43334787
Au	 -24.91864883	 -19.83420221	 -8.34685312
Au	 -25.00519796	 -18.01943273	 -5.95637197
No	 -22.72342554	 -19.40513025	 -7.08267589
Au	 -23.67241865	 -16.92555174	 -8.27171771
Au	 -24.03087591	 -20.47459967	 -4.74488205
Au	 -21.94304633	 -19.99645521	 -3.39105928
Au	 -22.84277139	 -17.55143088	 -4.67430419
No	 -30.99941838	 -17.31912455	 -16.46364626
Au	 -30.84772950	 -15.70463739	 -14.23987072
No	 -28.50171314	 -16.85915329	 -15.45649812
No	 -29.60549522	 -14.38934737	 -16.51151745
No	 -29.73398366	 -18.17300750	 -13.18430468
Au	 -29.67881810	 -16.44781527	 -10.92686397
Au	 -27.35999305	 -17.70740101	 -12.09741785
No	 -28.38588936	 -15.22433274	 -13.21304622
Au	 -28.63241901	 -18.91598962	 -9.79896839
Au	 -28.67561579	 -17.07634526	 -7.51716597
Au	 -23.72482125	 -15.09193895	 -5.95056598
Au	 -27.33682003	 -15.95332230	 -9.82053150
Au	 -22.99737883	 -15.59793338	 -2.34417311
Au	 -23.80853952	 -13.15922912	 -3.70280226
Au	 -31.97311215	 -13.25613613	 -15.31623771
Au	 -29.42346929	 -12.76244140	 -14.35148007
Au	 -30.47645523	 -10.32383520	 -15.51257325
Au	 -30.72712519	 -13.98929100	 -12.06772618
Au	 -28.29905020	 -13.48695541	 -11.02348792
Au	 -29.26805038	 -11.03599118	 -12.24339762
Au	 -27.34405303	 -14.09873530	 -7.60814077
Au	 -28.23823440	 -11.64967876	 -8.89410152
Au	 -25.41166922	 -23.44744742	 -20.72301038
Au	 -25.24659881	 -22.06330233	 -18.19397588
Au	 -20.33273588	 -20.39841141	 -16.83416353
Au	 -23.94540189	 -20.52532843	 -20.31145886
Au	 -21.47703482	 -21.60838587	 -14.47989013
Au	 -21.41156067	 -20.01097007	 -11.90607689
No	 -19.22646984	 -21.42417336	 -13.22377427
Au	 -20.15669537	 -18.84235980	 -14.22595130
No	 -20.40514703	 -22.51687801	 -10.82709012
No	 -20.46529128	 -20.81606130	 -8.24088361
No	 -18.23099625	 -22.25024587	 -9.43399448
No	 -19.18598301	 -19.77466431	 -10.60661669
No	 -19.48614506	 -23.26794079	 -7.04208162
Au	 -19.67361352	 -21.46198338	 -4.45701827
Au	 -17.41464984	 -22.93682601	 -5.54231961
No	 -18.33079020	 -20.50841371	 -6.82568808
Au	 -17.64512337	 -21.08976124	 -2.94523436
No	 -26.29674072	 -19.45659380	 -19.02885466
No	 -26.16226213	 -18.02033084	 -16.67979940
Au	 -23.84213472	 -19.20110782	 -17.92275099
No	 -24.83231777	 -16.61909021	 -18.86517455
Au	 -25.13224283	 -20.57778054	 -15.71560365
Au	 -25.06368401	 -18.99091564	 -13.29277737
Au	 -20.07081118	 -17.22879778	 -11.72184520
Au	 -23.73982367	 -17.73186920	 -15.54135297
Au	 -21.40740760	 -18.32715654	 -9.41219233
Au	 -21.45158616	 -16.54987482	 -6.99476866
No	 -19.20990257	 -18.04194790	 -8.07871034
Au	 -20.04229161	 -15.53054755	 -9.29808817
No	 -20.57647445	 -19.01920156	 -5.73488481
Au	 -20.72986516	 -17.12410121	 -3.31004602
No	 -18.47952088	 -18.66902675	 -4.30134233
No	 -19.28442546	 -16.21887190	 -5.63558809
Au	 -19.90363249	 -19.55293349	 -1.95419804
Au	 -17.91536942	 -19.13801052	 -0.43350639
Au	 -18.66887488	 -16.73096496	 -1.86251939
No	 -27.22925395	 -15.51421673	 -17.69841415
No	 -27.06099894	 -13.97599439	 -15.47527049
No	 -24.69182672	 -15.18295438	 -16.59245489
No	 -25.70125696	 -12.70490224	 -17.71310420
No	 -26.05292854	 -16.46789206	 -14.36692293
No	 -25.97194486	 -14.80733120	 -12.10249430
Au	 -23.66196072	 -16.14556291	 -13.19954903
No	 -24.56715545	 -13.62791993	 -14.35236379
Au	 -25.03586908	 -17.30302206	 -10.93023587
Au	 -25.04362042	 -15.51469461	 -8.63256199
Au	 -20.05677995	 -13.73923429	 -6.94987079
Au	 -23.61281275	 -14.45182416	 -10.91097806
Au	 -21.53476242	 -14.67603776	 -4.65415398
Au	 -21.64926887	 -12.70459346	 -2.39239033
No	 -19.39889319	 -14.30148589	 -3.27610259
Au	 -20.10513781	 -11.85210401	 -4.67769627
Au	 -20.91757682	 -15.12975137	 -0.96827944
Au	 -18.89097819	 -14.69368578	 0.48885315
Au	 -19.54458785	 -12.28804208	 -1.00112654
No	 -28.09658290	 -11.52155383	 -16.62019579
Au	 -27.88120953	 -9.88396518	 -14.52021012
No	 -25.50593253	 -11.15633825	 -15.55083722
Au	 -26.47520453	 -8.72337026	 -16.78562975
No	 -26.91760292	 -12.33195556	 -13.29788070
Au	 -26.79778498	 -10.58587606	 -11.17382656
No	 -24.46244663	 -11.96255018	 -12.15761774
No	 -25.33183391	 -9.50435465	 -13.43542148
No	 -25.91841399	 -13.04322603	 -9.89490581
Au	 -25.88945978	 -11.17865279	 -7.75063477
Au	 -23.59105036	 -12.65520534	 -8.68380620
No	 -24.37821933	 -10.19268062	 -10.01761838
Au	 -25.08164774	 -13.62680747	 -6.40417182
Au	 -25.14456020	 -11.64051257	 -4.24930425
Au	 -20.18006947	 -9.86862783	 -2.48387888
Au	 -23.59324767	 -10.75858101	 -6.52409514
Au	 -19.71389367	 -10.17821692	 1.18737528
Au	 -20.27503158	 -7.78939187	 -0.37139745
Au	 -26.22320643	 -7.07651565	 -14.74165894
Au	 -27.68876893	 -8.14896961	 -12.47299744
Au	 -25.17700993	 -7.75203231	 -11.37359852
Au	 -25.99127826	 -5.33511832	 -12.75171710
Au	 -26.69900543	 -8.74085076	 -9.10953619
Au	 -24.31268548	 -8.32245587	 -7.93960219
Au	 -25.03883258	 -5.90237409	 -9.37148251
Au	 -23.61502968	 -8.76425735	 -4.43689206
Au	 -24.26268163	 -6.35512393	 -5.92945912
Au	 -24.95405283	 -28.20832284	 -44.71562433
Au	 -22.25068724	 -29.86430277	 -41.39088032
Au	 -20.37836099	 -32.01754503	 -40.84060934
Au	 -19.74370628	 -31.46908452	 -37.87531978
Au	 -19.28431617	 -29.81619897	 -40.21212253
Au	 -17.94481399	 -33.65576229	 -37.24078270
Au	 -17.45095407	 -33.01944046	 -34.18911328
Au	 -16.91224346	 -31.44200277	 -36.56731594
Au	 -15.38972552	 -34.51465575	 -30.35719098
Au	 -14.76156309	 -33.00690025	 -32.76202332
Au	 -26.02673299	 -25.57806405	 -42.48883264
Au	 -24.13641656	 -27.72004260	 -41.94329084
No	 -23.40509484	 -27.14099401	 -39.17541115
Au	 -21.10016366	 -27.63608212	 -40.84530630
Au	 -22.92456214	 -25.46088761	 -41.47599817
No	 -21.56546655	 -29.29894338	 -38.52275889
No	 -20.96152601	 -28.63319910	 -35.66116823
Au	 -18.65775122	 -29.23616331	 -37.28970198
Au	 -20.42199166	 -27.04293220	 -38.01987294
No	 -19.19123224	 -30.81503969	 -34.91529023
No	 -18.71505089	 -30.05088768	 -31.96394822
Au	 -16.42389963	 -30.77031535	 -33.56079876
No	 -18.11167277	 -28.55241684	 -34.37680170
No	 -17.03719924	 -32.27055735	 -31.14819892
No	 -16.69819297	 -31.40534840	 -28.12239807
Au	 -14.41662849	 -32.23762402	 -29.68300149
No	 -16.01249098	 -29.98701441	 -30.56797763
Au	 -27.91205244	 -23.43128461	 -43.01964760
Au	 -27.08708634	 -22.82166860	 -40.44613448
Au	 -24.74924739	 -23.28453060	 -42.09658435
No	 -25.25016168	 -24.98535837	 -39.82031114
No	 -24.55840783	 -24.30701637	 -37.16518246
Au	 -22.19720577	 -24.85600503	 -38.74849239
Au	 -23.97175993	 -22.66647624	 -39.46464732
No	 -22.75669328	 -26.46893260	 -36.41762412
No	 -22.18760007	 -25.70187711	 -33.67552282
No	 -19.82445544	 -26.35204564	 -35.20593380
No	 -21.55190365	 -24.16031012	 -36.03535135
No	 -20.43302818	 -27.86280034	 -32.80953799
No	 -19.97220025	 -26.98191523	 -29.96939988
No	 -17.64033409	 -27.76104339	 -31.47711004
No	 -19.30278728	 -25.56059554	 -32.40810512
No	 -18.30815057	 -29.17123146	 -29.02362578
No	 -17.96227220	 -28.16950446	 -26.09540202
No	 -15.67196621	 -29.08805380	 -27.59246097
No	 -17.23665970	 -26.85713821	 -28.59301425
Au	 -28.90830941	 -20.64449100	 -41.04884062
Au	 -28.11228944	 -19.93632190	 -38.57838085
Au	 -25.73610337	 -20.46739823	 -40.16143623
No	 -26.34654522	 -22.13158111	 -37.88681151
No	 -25.68939291	 -21.36155915	 -35.34916114
No	 -23.27685587	 -21.96355629	 -36.84869654
Au	 -24.98631622	 -19.75210426	 -37.63656579
No	 -23.95022206	 -23.54334676	 -34.53106467
No	 -23.42598409	 -22.69675515	 -31.92724540
No	 -20.98595891	 -23.37299658	 -33.34305656
No	 -22.66297830	 -21.17603906	 -34.25599510
No	 -21.69399459	 -24.83811371	 -30.95464170
No	 -21.27185653	 -23.87619959	 -28.26044388
No	 -18.85118648	 -24.66517933	 -29.63007985
No	 -20.49732900	 -22.49437326	 -30.67885209
No	 -19.56741893	 -25.98107127	 -27.13832196
No	 -19.19888288	 -24.84235620	 -24.30526874
No	 -16.89147825	 -25.83389234	 -25.72473838
No	 -18.46173403	 -23.66069919	 -26.87348560
Au	 -29.07669940	 -16.91621483	 -36.87551353
Au	 -26.67657750	 -17.52381992	 -38.39911592
No	 -27.39623468	 -19.15050673	 -36.12730309
No	 -26.75820524	 -18.28727108	 -33.70208424
No	 -24.31589199	 -18.95607541	 -35.13404957
Au	 -25.94294665	 -16.71294002	 -35.98035933
No	 -25.11543739	 -20.51352609	 -32.84152870
No	 -24.62550645	 -19.59107078	 -30.37324410
No	 -22.12961176	 -20.30570887	 -31.69486721
No	 -23.72335210	 -18.08018272	 -32.66098419
No	 -22.98976204	 -21.77382678	 -29.36659901
No	 -22.65394898	 -20.79011653	 -26.86992668
No	 -20.08576493	 -21.52698875	 -28.05182751
No	 -21.67815275	 -19.35677382	 -29.17546446
No	 -20.91697536	 -22.81496599	 -25.59830865
Au	 -20.62496018	 -21.65352071	 -22.97351911
No	 -18.12104489	 -22.53691257	 -24.13440904
No	 -19.75628639	 -20.47908194	 -25.47626516
Au	 -19.86116492	 -25.42952389	 -40.35256118
Au	 -17.48614038	 -27.02610348	 -36.75887647
Au	 -15.79893154	 -29.25045568	 -35.95237814
Au	 -15.31516778	 -28.54678778	 -32.99140502
Au	 -14.60231936	 -27.08464311	 -35.39092520
Au	 -13.70855775	 -30.79426399	 -32.10378723
Au	 -13.36454633	 -29.98859130	 -29.07162019
Au	 -12.57514124	 -28.60927210	 -31.50239883
Au	 -20.89332730	 -22.59543335	 -38.37011903
Au	 -19.18716011	 -24.81000338	 -37.56783652
No	 -18.59280303	 -24.09501150	 -34.79893547
Au	 -16.22633433	 -24.84255458	 -36.27791317
Au	 -17.85934701	 -22.60466976	 -37.16268114
No	 -16.94484586	 -26.31521236	 -33.89236060
No	 -16.47741730	 -25.49972487	 -31.04400118
Au	 -14.12184376	 -26.35187565	 -32.47514710
Au	 -15.68755395	 -24.10638561	 -33.45610724
No	 -14.90590047	 -27.73320516	 -30.04770654
No	 -14.56475209	 -26.80579820	 -27.12458651
Au	 -12.23146094	 -27.77103716	 -28.51776564
No	 -13.71403660	 -25.51144776	 -29.58065695
Au	 -22.59511657	 -20.37541514	 -39.15770294
Au	 -21.89336716	 -19.64872940	 -36.57804286
Au	 -19.49319746	 -20.36493799	 -38.03747688
No	 -20.24681273	 -21.87626094	 -35.69800751
No	 -19.67823924	 -21.06741504	 -33.05020237
Au	 -17.26470767	 -21.86638675	 -34.43585877
Au	 -18.84180770	 -19.62301002	 -35.40331577
No	 -18.07421307	 -23.28289918	 -32.05138775
No	 -17.62731341	 -22.37228997	 -29.33064662
No	 -15.22186464	 -23.26862743	 -30.65719282
No	 -16.74485326	 -21.03351240	 -31.73444947
No	 -16.07754423	 -24.57598059	 -28.21709169
No	 -15.73700327	 -23.53875781	 -25.41300427
No	 -13.37268510	 -24.56006255	 -26.71098987
No	 -14.82404315	 -22.32706853	 -27.88562627
Au	 -23.52482896	 -17.40720813	 -37.43485394
Au	 -22.83893876	 -16.58742286	 -34.96588057
Au	 -20.40931119	 -17.36947304	 -36.35140361
No	 -21.26946148	 -18.83759095	 -34.02313541
No	 -20.72193729	 -17.94309626	 -31.50032965
No	 -18.26602391	 -18.79248752	 -32.79584727
Au	 -19.77237727	 -16.53609779	 -33.83176119
No	 -19.18590866	 -20.16978704	 -30.43418779
No	 -18.76978048	 -19.18636597	 -27.85908820
No	 -16.29664081	 -20.10584241	 -29.06477884
No	 -17.76386110	 -17.87421725	 -30.22218412
No	 -17.24784074	 -21.36208284	 -26.64207642
No	 -16.93135531	 -20.25145435	 -23.99094034
No	 -14.48785681	 -21.27892714	 -25.14491171
No	 -15.91760561	 -19.08429283	 -26.43390590
Au	 -14.87656960	 -22.68959877	 -35.84233163
Au	 -12.84132609	 -24.18870542	 -32.00633882
Au	 -11.35914917	 -26.45531804	 -30.95254815
Au	 -11.01506838	 -25.58797623	 -28.01556598
Au	 -10.05858152	 -24.33573351	 -30.44882264
Au	 -15.83962045	 -19.67128193	 -34.11322729
Au	 -14.33765145	 -21.92961395	 -33.06298460
No	 -13.87072129	 -21.07064497	 -30.31063374
Au	 -11.47163544	 -22.06074210	 -31.57967455
Au	 -12.89406725	 -19.78922902	 -32.70865165
No	 -12.43359040	 -23.32402953	 -29.16004888
No	 -12.09133337	 -22.35179750	 -26.34326247
Au	 -9.71302684	 -23.44221104	 -27.55887863
Au	 -11.06193919	 -21.17370738	 -28.77965023
Au	 -17.33778325	 -17.40682047	 -35.14888093
Au	 -16.75134316	 -16.55546848	 -32.57857777
Au	 -14.31783176	 -17.51516192	 -33.82786866
No	 -15.31444323	 -18.81782921	 -31.45405875
No	 -14.85941128	 -17.87183599	 -28.82985939
Au	 -12.42268764	 -18.90987901	 -29.99963655
Au	 -13.78392394	 -16.64187330	 -31.20758625
No	 -13.47146063	 -20.11165869	 -27.59063068
No	 -13.13537850	 -19.05190064	 -24.90822086
No	 -10.71685481	 -20.18247404	 -26.01360603
No	 -12.01791459	 -17.93336121	 -27.32678932
Au	 -10.01156594	 -19.97186304	 -31.19032102
Au	 -8.32330753	 -21.33663933	 -27.14167347
Au	 -10.87777312	 -16.79122207	 -29.72038449
Au	 -9.59750559	 -19.06394102	 -28.43405338
No	 -9.24687603	 -18.05475603	 -25.71561793
Au	 -6.84450002	 -19.27448246	 -26.75831960
Au	 -8.03978113	 -16.99882239	 -28.11859439
Au	 -5.27596213	 -17.25935566	 -26.40368221
Au	 -15.12301408	 -33.66877830	 -27.25158195
Au	 -14.93171817	 -32.70371003	 -24.17124294
Au	 -12.64864744	 -33.63627422	 -25.68020267
Au	 -14.14723409	 -31.35138450	 -26.62495894
Au	 -13.41522952	 -33.93753755	 -20.12524493
Au	 -12.52791649	 -32.64544033	 -22.57356959
No	 -16.42855655	 -30.42030774	 -25.11626004
No	 -16.22349077	 -29.31284531	 -22.13527619
No	 -13.94829077	 -30.34553427	 -23.59304929
No	 -15.39571432	 -28.06904122	 -24.63738084
No	 -14.81168378	 -31.61806384	 -21.12279553
No	 -14.75920892	 -30.41158420	 -18.11372252
Au	 -12.47777849	 -31.53313422	 -19.50383194
No	 -13.81497123	 -29.21810390	 -20.59298408
Au	 -13.44734766	 -32.74906381	 -17.04897821
Au	 -13.54640475	 -31.43923921	 -14.02304253
Au	 -12.49391038	 -30.29893143	 -16.47789903
No	 -17.66857677	 -27.03843020	 -23.17986736
No	 -17.42064633	 -25.77304375	 -20.28060307
No	 -15.17703335	 -26.92563557	 -21.70595540
No	 -16.59249242	 -24.68125925	 -22.86920384
No	 -16.07963805	 -28.08238206	 -19.18697073
No	 -15.99566772	 -26.73136839	 -16.28165038
No	 -13.74311464	 -27.96834603	 -17.63155700
No	 -15.01040098	 -25.65489290	 -18.80302610
No	 -14.77103624	 -29.08530380	 -15.15234646
No	 -14.84407438	 -27.64136649	 -12.24741647
Au	 -12.57220223	 -28.94334765	 -13.50318503
No	 -13.72953729	 -26.59728434	 -14.71704022
Au	 -13.70809198	 -30.00902958	 -11.05486174
Au	 -13.92785502	 -28.45987267	 -8.15163330
Au	 -12.70865364	 -27.46781026	 -10.58742416
No	 -18.83253821	 -23.53197909	 -21.44410703
Au	 -18.44493068	 -22.02349757	 -18.54025824
No	 -16.32446930	 -23.38562848	 -20.02027655
Au	 -17.79721446	 -21.26493658	 -21.38991112
No	 -17.22029920	 -24.37743298	 -17.41095431
No	 -17.07911547	 -22.86810080	 -14.59586357
No	 -14.89354461	 -24.25778620	 -15.93755888
No	 -16.07719754	 -21.93761089	 -17.17768241
No	 -15.97166898	 -25.26507984	 -13.43163332
No	 -16.00725922	 -23.68969882	 -10.64880266
No	 -13.77191626	 -25.10784311	 -11.85900175
No	 -14.82857103	 -22.74117434	 -13.12398793
No	 -14.97492332	 -26.08250954	 -9.40739699
Au	 -15.15944837	 -24.41145191	 -6.63980156
Au	 -12.89915055	 -25.87443445	 -7.73829714
No	 -13.86807985	 -23.50421153	 -9.06731393
Au	 -13.13920880	 -24.16567282	 -4.96299671
Au	 -11.64989877	 -31.35138133	 -25.02554214
Au	 -10.77438470	 -30.04879557	 -27.47255639
No	 -13.09215856	 -29.06655029	 -26.06249666
No	 -12.88553861	 -28.02501526	 -23.08063557
Au	 -10.57154977	 -29.09962782	 -24.43132641
No	 -11.95612736	 -26.81777056	 -25.55883510
Au	 -11.52152850	 -30.31929205	 -21.96780378
Au	 -11.45876728	 -29.16548893	 -18.94766492
Au	 -9.15315834	 -30.33663588	 -20.24058010
Au	 -10.43486331	 -28.03067165	 -21.42329256
Au	 -10.28256288	 -30.21982479	 -14.74087432
Au	 -9.16059469	 -29.15103206	 -17.20054966
No	 -14.28423629	 -25.75978399	 -24.22423754
No	 -14.05562481	 -24.58920934	 -21.34759452
No	 -11.74262077	 -25.74605963	 -22.62905058
No	 -13.09026861	 -23.49343496	 -23.86835859
No	 -12.73881382	 -26.86113218	 -20.13042833
No	 -12.64669081	 -25.57298553	 -17.21718594
No	 -10.35876043	 -26.83995006	 -18.45341383
No	 -11.58387073	 -24.55215017	 -19.73136548
No	 -11.45697378	 -27.88928934	 -15.97153003
No	 -11.51197835	 -26.49116651	 -13.04662077
Au	 -9.22796189	 -27.84251527	 -14.20951749
No	 -10.33794733	 -25.52618193	 -15.52717995
Au	 -10.42719043	 -28.82989975	 -11.75354950
Au	 -10.62728123	 -27.31830285	 -8.82835241
Au	 -9.35049629	 -26.41139113	 -11.27410342
No	 -15.44374154	 -22.37918577	 -22.62913485
No	 -15.17753722	 -21.07992676	 -19.85429384
No	 -12.85718756	 -22.30537044	 -21.05280096
No	 -14.20497942	 -20.11972802	 -22.43646138
No	 -13.86959515	 -23.28741779	 -18.49511138
No	 -13.71920309	 -21.85010273	 -15.67023733
No	 -11.47271425	 -23.23235039	 -16.86880968
No	 -12.66071998	 -20.98642562	 -18.26105990
No	 -12.60531883	 -24.16070770	 -14.34821431
No	 -12.61289360	 -22.62750658	 -11.53353631
No	 -10.36780763	 -24.08933356	 -12.65112649
No	 -11.40315483	 -21.78439419	 -14.04602097
No	 -11.62008742	 -24.97290471	 -10.18094436
No	 -11.77781998	 -23.33741273	 -7.38287464
Au	 -9.52367750	 -24.85892179	 -8.40138562
No	 -10.44472366	 -22.53117227	 -9.83321593
Au	 -10.87814615	 -25.68675754	 -5.97232961
Au	 -11.17489702	 -23.93745746	 -3.19225651
Au	 -9.74313488	 -23.18729172	 -5.59871147
Au	 -9.61974427	 -27.86720700	 -26.88490770
Au	 -9.41249212	 -26.88484960	 -23.89266610
Au	 -8.38332276	 -25.72193335	 -26.34680605
Au	 -8.04752563	 -28.07994911	 -19.66459750
Au	 -6.93669211	 -26.99988946	 -22.12440508
No	 -10.73679569	 -24.60768416	 -25.10758232
No	 -10.51751454	 -23.51116520	 -22.23170705
Au	 -8.17127624	 -24.71028657	 -23.40395093
No	 -9.43135965	 -22.43836376	 -24.70166789
No	 -9.26739912	 -25.78367738	 -20.93537902
No	 -9.17816330	 -24.56122268	 -18.01705346
Au	 -6.86106036	 -25.86523794	 -19.14145571
No	 -8.01804873	 -23.58153687	 -20.49839742
Au	 -8.04156794	 -26.85698576	 -16.67532062
Au	 -8.09051801	 -25.51122603	 -13.73542709
Au	 -5.79177254	 -26.90701392	 -14.79683787
Au	 -6.84127571	 -24.60938128	 -16.20342052
Au	 -7.25127324	 -26.35493824	 -9.40230051
Au	 -5.90975455	 -25.52389175	 -11.84378011
No	 -11.80782243	 -21.26897599	 -23.55906809
No	 -11.57443596	 -20.07096835	 -20.80861105
No	 -9.20695378	 -21.32153031	 -21.88050345
No	 -10.43075625	 -19.08546118	 -23.28577051
No	 -10.34931536	 -22.29426828	 -19.38992418
No	 -10.22305238	 -20.95167072	 -16.58295558
No	 -7.91670638	 -22.33292061	 -17.63335399
No	 -9.03189727	 -20.08805886	 -19.09735603
No	 -9.13847328	 -23.21530087	 -15.14185017
No	 -9.14259961	 -21.74468696	 -12.31482569
No	 -6.87135621	 -23.23102680	 -13.31499131
No	 -7.85977476	 -20.96133581	 -14.81152581
No	 -8.18930952	 -24.04270471	 -10.85102891
No	 -8.33337181	 -22.45263261	 -8.02901121
Au	 -6.07620006	 -24.01789006	 -8.95115453
No	 -6.94560298	 -21.72959317	 -10.48136306
Au	 -7.48901830	 -24.76330073	 -6.52357065
Au	 -7.77004252	 -23.05117025	 -3.71797371
Au	 -6.28597321	 -22.39004972	 -6.12521790
Au	 -7.06352099	 -23.61613599	 -25.85260837
Au	 -6.84617381	 -22.57869421	 -22.95899257
Au	 -5.65890571	 -21.55289774	 -25.39658421
Au	 -5.67850523	 -24.86023980	 -21.59836394
Au	 -5.59321821	 -23.69606650	 -18.66597311
Au	 -4.33820386	 -22.76513985	 -21.11396846
Au	 -4.57667351	 -24.69030078	 -14.29034796
Au	 -3.24548641	 -23.84734945	 -16.73340081
No	 -8.03709831	 -20.31184282	 -24.33397769
No	 -7.80711189	 -19.17781901	 -21.56671245
Au	 -5.43542152	 -20.49260116	 -22.55134383
Au	 -6.55197118	 -18.23061607	 -23.99795955
No	 -6.68505056	 -21.42659935	 -20.10566225
No	 -6.57295165	 -20.15721961	 -17.29546554
Au	 -4.24312033	 -21.57537877	 -18.23226464
No	 -5.26619046	 -19.32063380	 -19.74981705
No	 -5.55976072	 -22.41202293	 -15.77992186
No	 -5.57144348	 -21.00631043	 -12.94393553
Au	 -3.28057551	 -22.52393426	 -13.82849423
No	 -4.19650764	 -20.26781620	 -15.39890918
Au	 -4.67567375	 -23.27418069	 -11.38926989
Au	 -4.81811903	 -21.73563563	 -8.54866648
Au	 -2.55555313	 -23.33932212	 -9.36599908
Au	 -3.36042920	 -21.07932331	 -10.97957501
Au	 -4.30830850	 -22.34021798	 -4.12523552
Au	 -2.76508105	 -21.75839557	 -6.51919980
Au	 -3.93756713	 -18.45461881	 -22.17468438
Au	 -2.91475698	 -20.71746251	 -20.66529586
Au	 -2.80961409	 -19.50561529	 -17.83388121
Au	 -1.40729905	 -18.71998634	 -20.24635228
Au	 -1.88313257	 -21.76000708	 -16.25921931
Au	 -1.90349603	 -20.41115333	 -13.40585845
Au	 -0.43937149	 -19.72491079	 -15.81827988
Au	 -1.22977019	 -21.17385178	 -8.91895027
Au	 0.30405758	 -20.57963503	 -11.31590921
Au	 -28.36935840	 -16.03246128	 -34.52830600
Au	 -27.73139804	 -15.07084357	 -32.20808726
Au	 -25.28269851	 -15.82327447	 -33.58744951
Au	 -26.81850567	 -13.54529075	 -34.48807926
No	 -26.19587885	 -17.34706891	 -31.30892791
No	 -25.70584340	 -16.32992202	 -28.95312230
No	 -23.20748157	 -17.12614163	 -30.22474042
No	 -24.69288416	 -14.85475925	 -31.22598226
No	 -24.22073748	 -18.59895181	 -27.95393639
No	 -23.89921764	 -17.54003365	 -25.59045557
No	 -21.31308077	 -18.33717248	 -26.71079125
No	 -22.76681181	 -16.09609894	 -27.83246493
No	 -22.44579986	 -19.77751471	 -24.47206111
No	 -22.38114870	 -18.76076324	 -22.19690158
No	 -19.53267708	 -19.37806216	 -22.98469859
No	 -21.04180736	 -17.25884039	 -24.31647792
Au	 -28.59615471	 -11.71627091	 -30.87006239
Au	 -26.15297588	 -12.56019780	 -32.20039991
No	 -27.15853147	 -14.03020468	 -29.91922070
No	 -26.64544243	 -12.90881016	 -27.66523177
No	 -24.16982592	 -13.80716468	 -28.90095019
Au	 -25.54883165	 -11.49574272	 -29.94468098
No	 -25.28255098	 -15.23434790	 -26.63811029
No	 -24.91757041	 -14.05641403	 -24.36482906
No	 -22.39815187	 -14.99128412	 -25.48974402
No	 -23.70861291	 -12.67957545	 -26.61629397
No	 -23.64935955	 -16.40858863	 -23.28086532
No	 -23.44800563	 -15.18718204	 -21.01273249
No	 -20.86598452	 -16.12986910	 -22.00265554
No	 -22.09414230	 -13.80954233	 -23.19842569
Au	 -27.99980662	 -10.57499846	 -28.68380523
Au	 -27.45399213	 -9.35206483	 -26.53275655
Au	 -25.00122557	 -10.35074395	 -27.72478964
No	 -26.18578127	 -11.70423943	 -25.44879280
No	 -25.77251899	 -10.41361184	 -23.27201183
No	 -23.30269630	 -11.46989258	 -24.37454926
Au	 -24.50458719	 -9.12367764	 -25.54400026
No	 -24.60026807	 -12.79005047	 -22.13229931
No	 -24.32009255	 -11.42903472	 -19.93961202
No	 -21.84185466	 -12.54350545	 -20.95540659
No	 -22.94401254	 -10.17477181	 -22.17695453
Au	 -26.95310858	 -8.04579694	 -24.42011118
Au	 -26.49146391	 -6.65468753	 -22.34898757
Au	 -24.05276630	 -7.81274033	 -23.40510530
No	 -25.39858186	 -9.03412963	 -21.13695867
Au	 -25.05745627	 -7.56367639	 -19.04616549
No	 -22.62387252	 -8.79030769	 -20.02421448
Au	 -23.63935224	 -6.41609337	 -21.31067224
Au	 -23.25805928	 -4.93220947	 -19.26335292
Au	 -23.70474627	 -13.40665765	 -33.52227384
Au	 -21.26007002	 -14.26245931	 -34.84223401
No	 -22.22631537	 -15.68662129	 -32.52635782
No	 -21.68463857	 -14.70557923	 -30.12259275
No	 -19.20772006	 -15.61886528	 -31.34468164
Au	 -20.62626514	 -13.33993934	 -32.43529152
No	 -20.25021137	 -16.96772713	 -29.01780369
No	 -19.85476539	 -15.91562582	 -26.58468011
No	 -17.33440602	 -16.87056127	 -27.69047055
No	 -18.71348297	 -14.61920648	 -28.89707957
No	 -18.43354155	 -18.12431172	 -25.33758457
No	 -18.18927132	 -16.99972465	 -22.89024622
No	 -15.60710288	 -17.97202113	 -23.85070718
No	 -16.97869667	 -15.78629770	 -25.21064666
Au	 -23.08782375	 -12.41468317	 -31.19286875
Au	 -22.53313921	 -11.34263987	 -28.89979979
Au	 -20.05869356	 -12.33610774	 -30.06387118
Au	 -21.38067164	 -10.03177073	 -31.20468331
No	 -21.21123950	 -13.64530556	 -27.76058061
No	 -20.80239229	 -12.50638588	 -25.44535956
No	 -18.28811094	 -13.53939512	 -26.49610756
No	 -19.55406586	 -11.25145623	 -27.73335359
No	 -19.53644844	 -14.79210008	 -24.21032715
No	 -19.29311930	 -13.60057672	 -21.90126083
No	 -16.70091141	 -14.62991713	 -22.79546595
No	 -17.92983900	 -12.38213538	 -24.14865129
Au	 -23.25476109	 -7.85924630	 -27.83373061
Au	 -20.79494579	 -8.94022886	 -28.94364894
No	 -22.03607495	 -10.18993244	 -26.64719947
No	 -21.59100197	 -8.95539901	 -24.43833338
No	 -19.10839338	 -10.08631683	 -25.44848058
Au	 -20.26308687	 -7.76795470	 -26.72346378
No	 -20.45225914	 -11.28791812	 -23.18008190
No	 -20.15212428	 -9.98657353	 -20.96536570
No	 -17.63522321	 -11.14922153	 -21.85998527
No	 -18.71647940	 -8.84034576	 -23.21290717
Au	 -22.72123567	 -6.61460350	 -25.68802114
Au	 -22.23041524	 -5.28783065	 -23.58581761
Au	 -19.77994824	 -6.51433048	 -24.54773045
No	 -21.19126976	 -7.63720209	 -22.27559166
No	 -20.82955581	 -6.23305087	 -20.16078597
No	 -18.37150491	 -7.51202913	 -21.02885411
Au	 -19.33967739	 -5.17840317	 -22.41943452
Au	 -21.77641029	 -3.87782285	 -21.53003356
Au	 -21.35325803	 -2.38364084	 -19.52349015
Au	 -18.93585594	 -3.75894545	 -20.34106055
Au	 -18.17373023	 -14.27857318	 -33.67983762
Au	 -17.59000369	 -13.34087488	 -31.22661362
Au	 -15.13613496	 -14.36306037	 -32.39624251
No	 -16.23527049	 -15.61681082	 -30.04335653
No	 -15.78772419	 -14.59251873	 -27.55037029
No	 -13.31775907	 -15.67742265	 -28.62442697
Au	 -14.60341427	 -13.40541282	 -29.89665917
No	 -14.47242658	 -16.83479298	 -26.24791392
No	 -14.15307906	 -15.71028557	 -23.71712001
No	 -11.67621066	 -16.86008820	 -24.69621320
No	 -12.91697365	 -14.62324943	 -26.08528939
Au	 -18.33079614	 -10.02348610	 -30.04464552
Au	 -15.87092497	 -11.11569786	 -31.14339051
No	 -17.07202238	 -12.31989022	 -28.81263189
No	 -16.61713441	 -11.21695535	 -26.44397079
No	 -14.13507021	 -12.36191820	 -27.43952857
Au	 -15.32837793	 -10.07656901	 -28.76179906
No	 -15.40777897	 -13.48564337	 -25.10756984
No	 -15.09562153	 -12.30088593	 -22.72381387
No	 -12.58030788	 -13.48230386	 -23.59807610
No	 -13.72891830	 -11.23457660	 -25.03152412
Au	 -17.79561727	 -8.91929148	 -27.74571693
Au	 -17.31483468	 -7.73389846	 -25.49209573
Au	 -14.84417404	 -8.95470118	 -26.42504726
Au	 -15.93650085	 -6.65339669	 -27.79247813
No	 -16.22237564	 -10.03363954	 -24.12636049
No	 -15.88376079	 -8.77109273	 -21.86453421
No	 -13.38311552	 -10.02622438	 -22.67952372
No	 -14.41473508	 -7.75114643	 -24.13824417
Au	 -17.86841880	 -4.14920344	 -24.69536577
Au	 -15.42151518	 -5.45264795	 -25.56991046
No	 -16.88355296	 -6.46727639	 -23.28762750
No	 -16.49588588	 -5.11883581	 -21.13526268
No	 -14.03581569	 -6.46679889	 -21.90582621
Au	 -14.95226437	 -4.17086134	 -23.39662964
Au	 -17.38806144	 -2.80040095	 -22.60064792
Au	 -16.94206506	 -1.37004039	 -20.55720806
Au	 -14.52335773	 -2.80798159	 -21.27591984
Au	 -12.15475170	 -14.51166690	 -30.99231605
Au	 -11.67427604	 -13.52960635	 -28.44675703
Au	 -9.23682762	 -14.71988743	 -29.46939728
No	 -10.46370117	 -15.79734944	 -27.09053057
No	 -10.11115648	 -14.70927525	 -24.50592492
Au	 -7.68066730	 -15.97249746	 -25.44428843
Au	 -8.81032141	 -13.70938876	 -26.87892332
Au	 -12.87088137	 -11.24674765	 -29.77976201
Au	 -12.38007876	 -10.18630941	 -27.35635402
Au	 -9.93147139	 -11.43479802	 -28.29441842
No	 -11.25588964	 -12.45855094	 -25.94624726
No	 -10.89742460	 -11.30075491	 -23.49768370
No	 -8.44290754	 -12.60635399	 -24.33559716
Au	 -9.49302473	 -10.34823637	 -25.82947515
Au	 -12.97100206	 -6.75803488	 -26.43514082
Au	 -10.52548481	 -8.07192305	 -27.29785548
No	 -11.94677035	 -9.04144325	 -24.98158089
No	 -11.56802545	 -7.81404879	 -22.66123632
No	 -9.11033926	 -9.17499528	 -23.41643244
Au	 -10.06448980	 -6.91267020	 -24.95483599
Au	 -12.50787290	 -5.53901992	 -24.17898286
Au	 -12.09069711	 -4.23876615	 -21.97661560
Au	 -9.65330541	 -5.67036748	 -22.66549959
Au	 -10.50302177	 -3.40144352	 -24.24316038
Au	 -12.45343535	 -0.58155203	 -21.44325063
Au	 -10.04883061	 -2.09009141	 -22.07040157
Au	 -6.01880080	 -13.94031634	 -25.19551254
Au	 -7.05979484	 -11.67520519	 -26.68898461
Au	 -6.67461769	 -10.55802324	 -24.18324848
Au	 -4.26268603	 -11.96312013	 -24.96555618
Au	 -7.63154902	 -8.29868612	 -25.73240589
Au	 -7.22327215	 -7.11221122	 -23.35250882
Au	 -4.80936309	 -8.57034950	 -24.04622525
Au	 -7.64134057	 -3.60017112	 -22.68791607
Au	 -5.23954717	 -5.11823842	 -23.30272775
Au	 -20.87129330	 -20.87129330	 -20.87129330
Au	 -21.63946746	 -20.50085189	 -19.28530767
Au	 -17.38042987	 -19.73488553	 -18.53680893
Au	 -19.51883103	 -18.33274394	 -20.68730070
Au	 -18.11715122	 -20.40001705	 -15.69158038
Au	 -17.92611055	 -18.75267794	 -12.99207668
No	 -15.86576951	 -20.35478147	 -14.36958116
Au	 -16.78453560	 -17.84850786	 -15.49745520
No	 -17.00764375	 -21.26353277	 -11.85932213
No	 -17.00544194	 -19.57216168	 -9.21259069
No	 -14.81943408	 -21.11578186	 -10.37908706
No	 -15.72530402	 -18.68041332	 -11.64653131
No	 -16.09985849	 -22.01007708	 -7.94231308
No	 -16.24441618	 -20.22888982	 -5.31812753
No	 -14.01505598	 -21.79068957	 -6.35081822
No	 -14.86713535	 -19.39080982	 -7.71605348
Au	 -15.39261684	 -22.63049598	 -3.95088584
Au	 -15.66860893	 -20.74145650	 -1.34573531
Au	 -13.42380043	 -22.34398659	 -2.26790955
No	 -14.20850273	 -19.97075553	 -3.71649040
No	 -22.36426241	 -17.65542134	 -19.96256759
No	 -22.30292943	 -16.37051686	 -17.69018855
Au	 -19.79413992	 -17.44033543	 -18.66952600
No	 -20.75910258	 -14.93196548	 -19.75329980
Au	 -21.49494901	 -19.06584166	 -16.78658635
Au	 -21.39612238	 -17.52969887	 -14.34330577
Au	 -16.47675882	 -16.08744059	 -12.76636141
Au	 -19.86626053	 -16.21984869	 -16.46132997
Au	 -17.84333070	 -17.06469425	 -10.42253587
Au	 -17.83230563	 -15.30698848	 -7.95456351
No	 -15.66811630	 -16.93796689	 -9.03358428
Au	 -16.36051768	 -14.37552829	 -10.25421050
No	 -17.06377364	 -17.79347899	 -6.65711254
No	 -17.17174684	 -15.92415441	 -4.19158493
No	 -14.96771169	 -17.57081398	 -5.14196093
No	 -15.68121332	 -15.12394818	 -6.52735251
No	 -16.43424198	 -18.34718201	 -2.77999349
Au	 -16.66195345	 -16.36529918	 -0.33061253
Au	 -14.44276846	 -18.04682139	 -1.16945561
No	 -15.11382123	 -15.65670647	 -2.65961430
No	 -23.27255834	 -13.85734037	 -18.77410264
No	 -23.11244343	 -12.41145689	 -16.56390537
No	 -20.67199664	 -13.62222168	 -17.53153302
No	 -21.62569786	 -11.18275191	 -18.75524722
No	 -22.21670799	 -14.92388431	 -15.40684688
No	 -22.13367326	 -13.34589276	 -13.14807635
Au	 -19.82422147	 -14.74885533	 -14.15816673
No	 -20.58003941	 -12.17850900	 -15.32328412
Au	 -21.33790838	 -15.89280792	 -11.96016071
Au	 -21.31510821	 -14.15583304	 -9.64168576
Au	 -16.32375290	 -12.60764605	 -7.85530521
Au	 -19.77304414	 -13.13387271	 -11.87137898
Au	 -17.87162813	 -13.46473515	 -5.57564320
Au	 -17.94810891	 -11.53147181	 -3.28189892
No	 -15.74736169	 -13.22898624	 -4.11946288
Au	 -16.33348305	 -10.75719300	 -5.54550127
No	 -17.31916994	 -13.96133601	 -1.81530487
Au	 -17.49704293	 -11.90344867	 0.47122921
No	 -15.29695300	 -13.64797993	 -0.27020702
No	 -15.85261874	 -11.24652148	 -1.80499522
No	 -24.06874283	 -9.96919292	 -17.78781560
No	 -23.84061512	 -8.40914616	 -15.68030518
No	 -21.43310794	 -9.71917099	 -16.59522241
No	 -22.33420118	 -7.31317944	 -17.91755560
No	 -22.96627829	 -10.85141266	 -14.38944389
No	 -22.83499080	 -9.18235486	 -12.26016815
No	 -20.48627107	 -10.60609033	 -13.14012459
No	 -21.25706293	 -8.14992008	 -14.47753038
No	 -22.06570682	 -11.65304575	 -10.93424096
No	 -22.01577117	 -9.85397911	 -8.77727008
Au	 -19.73596914	 -11.40341682	 -9.63293671
No	 -20.39832477	 -8.91644968	 -10.99791473
Au	 -21.32241536	 -12.31971694	 -7.39224473
Au	 -21.35442776	 -10.38567892	 -5.21602034
Au	 -16.37515420	 -8.81640382	 -3.31957702
Au	 -19.71703625	 -9.56772322	 -7.45610549
Au	 -18.05222606	 -9.50472864	 -1.07324946
Au	 -18.17614685	 -7.38407136	 1.04871555
No	 -15.98617928	 -9.17320755	 0.41765515
Au	 -16.43945162	 -6.78313856	 -1.17759792
Au	 -24.74347243	 -6.00117332	 -17.00285559
Au	 -24.45172903	 -4.34660306	 -15.01086717
No	 -22.06833434	 -5.74152312	 -15.85939389
Au	 -22.90301762	 -3.36017470	 -17.26611111
No	 -23.63188444	 -6.74968200	 -13.62201609
Au	 -23.43940149	 -4.99278831	 -11.61844503
No	 -21.09433969	 -6.47629434	 -12.40772397
Au	 -21.82102618	 -4.07510592	 -13.85332244
No	 -22.71857868	 -7.40941189	 -10.18469862
Au	 -22.61554497	 -5.53692737	 -8.17026526
No	 -20.32010287	 -7.11870161	 -8.90906007
No	 -20.94296462	 -4.70146952	 -10.39242590
No	 -21.98275439	 -7.95386503	 -6.68517641
Au	 -21.96359322	 -5.95637648	 -4.66402764
Au	 -19.71471546	 -7.63195077	 -5.34864567
No	 -20.25192443	 -5.21924971	 -6.88259419
Au	 -21.40566016	 -8.35521244	 -3.11700441
Au	 -21.47055663	 -6.23008208	 -1.09898831
Au	 -16.51893061	 -4.65747873	 0.87858316
Au	 -19.72540855	 -5.59957819	 -3.31618708
No	 -16.67325140	 -19.03986026	 -21.38238835
Au	 -16.46876800	 -17.72703658	 -18.82144542
No	 -13.96164480	 -18.83984486	 -19.75612685
No	 -15.36978926	 -16.77786821	 -21.32922602
No	 -14.90386057	 -19.60771502	 -17.06229874
Au	 -14.59850598	 -17.93671030	 -14.23872021
No	 -12.48517403	 -19.52358782	 -15.48686247
Au	 -13.72559068	 -17.41097788	 -17.08074360
No	 -13.60569979	 -20.28210844	 -12.88612826
No	 -13.54016014	 -18.60080518	 -10.16736452
No	 -11.37243550	 -20.20998777	 -11.27171642
No	 -12.31977404	 -17.90812474	 -12.72984206
No	 -12.66908722	 -20.97944865	 -8.78509627
No	 -12.77318928	 -19.22350401	 -6.11431742
No	 -10.56598048	 -20.85539057	 -7.08264007
No	 -11.38221097	 -18.51678929	 -8.55998304
No	 -11.98144476	 -21.58819060	 -4.66044447
Au	 -12.22655697	 -19.72870273	 -2.02069214
Au	 -10.00443358	 -21.39937387	 -2.87332469
No	 -10.72907885	 -19.06695146	 -4.40882500
No	 -18.06406073	 -15.84497929	 -20.55158565
No	 -18.07383332	 -14.68531640	 -18.34491379
No	 -15.22914437	 -15.52980969	 -18.90173377
No	 -16.50825043	 -13.41388238	 -20.46024286
Au	 -16.79642844	 -16.79642844	 -16.79642844
Au	 -17.63219635	 -16.27092124	 -15.28775943
Au	 -13.38658641	 -15.72368221	 -14.30710571
Au	 -15.28899806	 -14.33705682	 -16.67807079
Au	 -14.34165387	 -16.15112366	 -11.48122112
Au	 -14.21009580	 -14.34317201	 -8.88284735
No	 -12.17896344	 -16.15846923	 -10.01794947
Au	 -12.85714286	 -13.68032183	 -11.35828396
No	 -13.53282279	 -16.82553868	 -7.53738718
No	 -13.58310640	 -14.96548240	 -5.00685551
No	 -11.43608643	 -16.71634694	 -5.92711963
No	 -12.09744113	 -14.31888636	 -7.40117117
No	 -12.92238270	 -17.36527316	 -3.52984279
No	 -13.11144421	 -15.40813095	 -1.03710837
No	 -10.93079405	 -17.17090958	 -1.82011015
No	 -11.53484867	 -14.81863798	 -3.38576201
No	 -19.11297880	 -12.33594496	 -19.65513975
No	 -18.97258159	 -10.98145883	 -17.45912974
No	 -16.40226547	 -12.14682158	 -18.21467211
No	 -17.39667641	 -9.83908885	 -19.63159506
No	 -18.12274344	 -13.43716867	 -16.18758924
No	 -18.11783094	 -12.01044516	 -14.00060874
Au	 -15.62954815	 -13.29714654	 -14.74255665
No	 -16.35633968	 -10.81110410	 -16.04217408
Au	 -17.54856869	 -14.68485862	 -12.87919971
Au	 -17.50027052	 -12.99892130	 -10.53518520
Au	 -12.60374519	 -11.76428671	 -8.72777892
Au	 -15.75781696	 -11.93052527	 -12.62434695
Au	 -14.17555344	 -12.49663647	 -6.42362090
Au	 -14.20150908	 -10.58294761	 -4.07465092
No	 -12.08746957	 -12.41363644	 -4.90381146
Au	 -12.53071622	 -9.89981917	 -6.32497109
No	 -13.68218718	 -13.02076993	 -2.57665805
No	 -13.81907828	 -10.98867669	 -0.24498122
No	 -11.67441306	 -12.82891606	 -0.94240748
No	 -12.13608857	 -10.43982422	 -2.52185122
No	 -19.89105596	 -8.59690462	 -18.79990727
No	 -19.65818981	 -7.11331157	 -16.68248790
No	 -17.20102767	 -8.44499889	 -17.45999015
No	 -18.06514054	 -6.09862108	 -18.89722726
No	 -18.84894124	 -9.51933483	 -15.30097527
No	 -18.73108873	 -7.94258535	 -13.17938162
No	 -16.32095857	 -9.36461250	 -13.90543027
No	 -17.03239703	 -6.95718309	 -15.33936688
No	 -18.07807087	 -10.42348747	 -11.81113084
No	 -18.03122625	 -8.70715070	 -9.65451543
Au	 -15.76167172	 -10.31523913	 -10.41958268
No	 -16.27100338	 -7.78590902	 -11.79017013
Au	 -17.48197687	 -11.21412038	 -8.26002977
Au	 -17.48827223	 -9.33174240	 -6.05786239
Au	 -12.52606111	 -7.98218820	 -4.04370485
Au	 -15.74583946	 -8.55821928	 -8.23948710
Au	 -14.26643903	 -8.58784331	 -1.82297413
Au	 -14.35702086	 -6.50545195	 0.33574317
No	 -12.22603528	 -8.38863474	 -0.24639079
Au	 -12.55667196	 -5.98535357	 -1.85940180
No	 -20.49850101	 -4.74073732	 -18.09568183
Au	 -20.19132047	 -3.15872776	 -16.08249992
No	 -17.78842993	 -4.59682042	 -16.81839435
Au	 -18.56181778	 -2.25469613	 -18.31485394
No	 -19.44491670	 -5.53222455	 -14.61386010
No	 -19.24535304	 -3.85284498	 -12.59711844
No	 -16.87790361	 -5.36816591	 -13.26668182
No	 -17.53303452	 -3.00390463	 -14.79324708
No	 -18.61731727	 -6.25365495	 -11.10141261
No	 -18.50830428	 -4.45823953	 -9.07622000
No	 -16.20913057	 -6.08081416	 -9.70779125
No	 -16.73022886	 -3.67569999	 -11.24383456
No	 -17.98895742	 -6.87848274	 -7.55080337
No	 -17.95404533	 -4.94669162	 -5.51153342
Au	 -15.73336758	 -6.68853974	 -6.11566535
No	 -16.14271674	 -4.26134254	 -7.67387990
Au	 -17.51366298	 -7.35334661	 -3.93261743
Au	 -17.55259000	 -5.28076162	 -1.88802540
Au	 -12.60786460	 -3.90214177	 0.23362134
Au	 -15.72813290	 -4.71702332	 -4.06095875
No	 -12.85782202	 -17.89089630	 -22.26853168
No	 -12.63398738	 -16.62845189	 -19.67656074
No	 -10.19703366	 -17.88051961	 -20.59939238
No	 -11.39474254	 -15.69159476	 -22.11471704
No	 -11.37874398	 -18.74951837	 -18.08904982
No	 -11.20015373	 -17.28787647	 -15.38897762
No	 -8.89621653	 -18.73238105	 -16.35201139
No	 -10.00701016	 -16.56380512	 -17.95560354
No	 -10.12897131	 -19.47735451	 -13.81104851
No	 -10.05965582	 -17.86769263	 -11.07744470
No	 -7.83968663	 -19.46375347	 -12.03568422
No	 -8.78681791	 -17.24566873	 -13.64096887
No	 -9.18626129	 -20.15023806	 -9.54299149
No	 -9.26725038	 -18.43592702	 -6.83600909
No	 -7.05900953	 -20.10576859	 -7.70873955
No	 -7.85003098	 -17.83859854	 -9.31019046
No	 -8.51864645	 -20.74354864	 -5.27699140
No	 -8.74133861	 -18.91912266	 -2.60289608
Au	 -6.53421539	 -20.64237948	 -3.37264004
No	 -7.20759470	 -18.36206739	 -5.00469977
No	 -13.90472612	 -14.50605678	 -21.24990494
No	 -13.73918557	 -13.23875433	 -18.86655229
No	 -11.17252506	 -14.43165514	 -19.59090099
No	 -12.30849380	 -12.25993999	 -21.17245724
No	 -12.45893104	 -15.26465446	 -17.13716451
Au	 -12.32758129	 -13.79987151	 -14.65504720
No	 -9.84659556	 -15.12631320	 -15.34995776
No	 -11.01390820	 -13.08971653	 -17.13850876
No	 -11.00369952	 -15.65332625	 -12.68209855
Au	 -10.76445824	 -13.82068378	 -9.95404447
No	 -8.68760089	 -15.61552389	 -10.95774954
Au	 -9.68322421	 -13.54033207	 -12.75900589
No	 -10.01585431	 -16.12830540	 -8.39502678
No	 -10.00821874	 -14.27743423	 -5.78792686
No	 -7.88763272	 -16.08832103	 -6.64343593
No	 -8.58727727	 -13.83389731	 -8.30181625
No	 -9.38489945	 -16.60860913	 -4.20537356
No	 -9.53825266	 -14.67602874	 -1.66197931
No	 -7.38832765	 -16.50294655	 -2.37798692
No	 -7.95377109	 -14.22138016	 -4.04908204
No	 -14.85186657	 -11.04410163	 -20.40815748
No	 -14.67420359	 -9.71926933	 -18.16673393
No	 -12.10546215	 -10.96520024	 -18.82088210
No	 -13.09565502	 -8.74012191	 -20.39009875
No	 -13.68343714	 -11.94122390	 -16.60121463
No	 -13.75356328	 -10.63915835	 -14.47659188
No	 -10.94212271	 -11.69431999	 -14.78949514
No	 -11.97825741	 -9.61106466	 -16.55830361
Au	 -12.71383793	 -12.71383793	 -12.71383793
Au	 -13.60952597	 -12.04256185	 -11.30403920
Au	 -9.40628013	 -11.69688032	 -10.07946388
Au	 -11.06098161	 -10.35505375	 -12.65334031
Au	 -10.56178920	 -11.87530492	 -7.30215454
Au	 -10.47249642	 -9.91042244	 -4.81844631
No	 -8.49971420	 -11.92010274	 -5.70081521
Au	 -8.92694230	 -9.49906571	 -7.23499064
No	 -10.04677055	 -12.33526419	 -3.27896391
No	 -10.13087636	 -10.31167502	 -0.87814292
No	 -8.05178839	 -12.25013448	 -1.54288013
No	 -8.45929398	 -9.91938117	 -3.20407351
No	 -15.59522004	 -7.42898967	 -19.66129945
No	 -15.34781417	 -6.00459937	 -17.51689997
No	 -12.86289786	 -7.37862094	 -18.16816122
No	 -13.70199026	 -5.10188271	 -19.73110936
No	 -14.55068873	 -8.32187886	 -15.99674593
No	 -14.45766083	 -6.83586140	 -13.88489794
No	 -11.92839426	 -8.20667300	 -14.39394190
No	 -12.67709192	 -5.94073452	 -16.01478387
No	 -13.85371171	 -9.24981663	 -12.40922300
No	 -13.89024359	 -7.68402322	 -10.31986802
Au	 -11.45157803	 -9.16965654	 -10.81326678
No	 -11.92922775	 -6.73502419	 -12.31061592
Au	 -13.57088429	 -10.30827237	 -8.99872036
Au	 -13.55676933	 -8.47661114	 -6.76624655
Au	 -8.71113639	 -7.43200287	 -4.71792156
Au	 -11.62044762	 -7.65998956	 -8.79750201
Au	 -10.46858583	 -7.91031881	 -2.48215618
Au	 -10.51359278	 -5.84689831	 -0.26386653
No	 -8.47832620	 -7.85674315	 -0.83509812
Au	 -8.66419365	 -5.42018741	 -2.43637541
No	 -16.14493961	 -3.68731988	 -19.03705402
No	 -15.82315705	 -2.17102376	 -16.99446184
No	 -13.40622919	 -3.65546257	 -17.61594638
Au	 -14.12871781	 -1.36362252	 -19.21042476
No	 -15.13037613	 -4.49309124	 -15.42965048
No	 -14.93179055	 -2.88948445	 -13.39796429
No	 -12.52489070	 -4.42034066	 -13.92603534
No	 -13.13999888	 -2.12538302	 -15.56085698
No	 -14.37181077	 -5.24412482	 -11.81856576
No	 -14.28183148	 -3.54030772	 -9.79616649
No	 -11.93097523	 -5.15478033	 -10.27049578
No	 -12.39019269	 -2.80831488	 -11.89568943
No	 -13.88158218	 -5.96066605	 -8.23569095
No	 -13.85522277	 -4.11109210	 -6.19182751
Au	 -11.65428974	 -5.90468946	 -6.70276433
No	 -11.90808680	 -3.44520916	 -8.25903657
Au	 -13.56167672	 -6.54920336	 -4.61049694
Au	 -13.58004176	 -4.52794185	 -2.53514340
Au	 -8.67423820	 -3.35924607	 -0.28371989
Au	 -11.65757327	 -4.01110984	 -4.64011274
No	 -8.95497475	 -16.94390377	 -23.04012147
No	 -8.71695260	 -15.73126114	 -20.41253626
No	 -6.31474621	 -17.08121736	 -21.28222131
No	 -7.37917462	 -14.84766294	 -22.81647755
No	 -7.62624979	 -17.93217170	 -18.84269502
No	 -7.48554946	 -16.57093644	 -16.16277946
No	 -5.14423072	 -18.03497819	 -16.99502863
No	 -6.12685404	 -15.82534337	 -18.61504053
No	 -6.50160095	 -18.76704560	 -14.53011127
No	 -6.46149213	 -17.25139438	 -11.81004216
No	 -4.19107728	 -18.84034503	 -12.61680867
No	 -5.06129785	 -16.63262143	 -14.28864289
No	 -5.62157701	 -19.47742300	 -10.16187431
No	 -5.70405934	 -17.82483357	 -7.43846936
No	 -3.47871224	 -19.51291357	 -8.19099852
No	 -4.21901131	 -17.29052143	 -9.88835364
No	 -4.99858573	 -20.07542188	 -5.77428553
No	 -5.21217376	 -18.29548738	 -3.07260450
Au	 -3.01094282	 -20.05609673	 -3.74345511
No	 -3.62938725	 -17.82482626	 -5.46759571
No	 -9.81769505	 -13.52909868	 -21.97358976
No	 -9.58259253	 -12.26100692	 -19.50213520
No	 -7.13142761	 -13.62535554	 -20.24097890
No	 -8.13189829	 -11.41282216	 -21.84604202
No	 -8.52782515	 -14.41698606	 -17.83768879
No	 -8.38248439	 -13.00151680	 -15.32024881
No	 -5.98136713	 -14.46148139	 -15.99934713
No	 -6.93428263	 -12.30773251	 -17.72428921
No	 -7.37226103	 -15.08647675	 -13.52382439
No	 -7.26547492	 -13.46263740	 -10.91414550
No	 -5.00710308	 -15.10862526	 -11.63013063
No	 -5.86931874	 -12.98641883	 -13.43593125
No	 -6.44249618	 -15.60489695	 -9.13523120
No	 -6.43678469	 -13.82461864	 -6.50863981
No	 -4.27240006	 -15.61598447	 -7.21598980
No	 -4.96823866	 -13.45478117	 -9.01568569
No	 -5.81424749	 -16.05012816	 -4.78036519
No	 -5.94960489	 -14.15804256	 -2.19678904
No	 -3.80712786	 -16.01647072	 -2.81516909
No	 -4.34448287	 -13.81585471	 -4.60373240
No	 -10.59766701	 -10.05984262	 -21.10873256
No	 -10.35656334	 -8.74107268	 -18.78793531
No	 -7.87574290	 -10.13233474	 -19.41786019
No	 -8.78095680	 -7.91764597	 -21.06166625
No	 -9.40893280	 -10.91332737	 -17.10367767
No	 -9.30832727	 -9.50325017	 -14.79816474
No	 -6.78647368	 -10.89918517	 -15.27467233
No	 -7.67492378	 -8.77082045	 -17.06039679
No	 -8.27571063	 -11.48557064	 -12.86471873
Au	 -8.20218464	 -9.87014200	 -10.47542335
No	 -5.77635593	 -11.39177078	 -10.91998980
No	 -6.69210434	 -9.40976368	 -12.90551547
No	 -7.12983489	 -11.66726865	 -8.30727078
Au	 -6.93974307	 -9.67588896	 -5.68880446
No	 -4.92825079	 -11.65931503	 -6.43855851
Au	 -5.66966769	 -9.65041102	 -8.42773345
No	 -6.44467398	 -11.91696576	 -3.94279675
No	 -6.47648065	 -9.90104379	 -1.46130539
No	 -4.43173798	 -11.89332726	 -2.05957444
No	 -4.87539683	 -9.71487847	 -3.89796553
No	 -11.24063959	 -6.50625409	 -20.40073199
No	 -10.96042565	 -5.11976705	 -18.20444503
No	 -8.50280205	 -6.57958477	 -18.77172680
No	 -9.28811995	 -4.34662487	 -20.43463085
No	 -10.17455078	 -7.35083931	 -16.54398558
No	 -10.04921079	 -5.89365626	 -14.38258981
No	 -7.53318073	 -7.33786643	 -14.78574733
No	 -8.27368382	 -5.16462011	 -16.55282174
No	 -9.30769866	 -8.06407318	 -12.61935383
No	 -9.42335576	 -6.62188900	 -10.58931875
No	 -6.67421478	 -7.86856664	 -10.64840641
No	 -7.45746000	 -5.84695351	 -12.60846216
Au	 -8.63411413	 -8.63411413	 -8.63411413
Au	 -9.57076343	 -7.81764509	 -7.33296849
Au	 -5.43828999	 -7.65383848	 -5.85574586
Au	 -6.83664877	 -6.38553483	 -8.61244207
Au	 -6.77383733	 -7.57502386	 -3.15563747
Au	 -6.70906563	 -5.45884863	 -0.79870090
No	 -4.82304758	 -7.64167810	 -1.42115646
Au	 -4.99208824	 -5.30602363	 -3.12813679
No	 -11.71435806	 -2.85780348	 -19.83154531
No	 -11.37277106	 -1.39610753	 -17.74635578
No	 -8.96448880	 -2.94289198	 -18.26631000
Au	 -9.63173020	 -0.69846425	 -19.95481091
No	 -10.72114256	 -3.65482835	 -16.07478825
No	 -10.51369162	 -2.10929131	 -14.01158058
No	 -8.08982861	 -3.67564698	 -14.40945443
No	 -8.67681725	 -1.45995028	 -16.16346480
No	 -9.96852369	 -4.36559015	 -12.30044966
No	 -9.90868716	 -2.75122934	 -10.28375366
No	 -7.44930296	 -4.30770172	 -10.53725449
No	 -7.94338411	 -2.11223665	 -12.34223955
No	 -9.55954563	 -5.09472538	 -8.62373033
No	 -9.62202912	 -3.39434492	 -6.64301079
Au	 -7.26147274	 -5.05847928	 -6.87979933
No	 -7.48211593	 -2.70369868	 -8.55430324
Au	 -9.56064211	 -5.93980215	 -5.14268276
Au	 -9.56393895	 -3.96830432	 -3.03263375
Au	 -4.79661808	 -3.09375605	 -0.73593669
Au	 -7.45488951	 -3.41063871	 -4.97766096
Au	 -4.97497416	 -16.19786782	 -23.68790802
No	 -4.72806901	 -15.03410060	 -21.02033039
Au	 -2.35177085	 -16.46766888	 -21.82311235
Au	 -3.30616323	 -14.21739478	 -23.39888990
No	 -3.75933698	 -17.26536199	 -19.42346985
No	 -3.62732062	 -15.96651615	 -16.72305658
Au	 -1.29151309	 -17.48897563	 -17.46412779
Au	 -2.16303201	 -15.26296006	 -19.11980474
No	 -2.75033467	 -18.17876611	 -15.05346139
No	 -2.72939676	 -16.73493176	 -12.32655827
Au	 -0.44512203	 -18.35455347	 -13.01633825
No	 -1.21961260	 -16.14628340	 -14.73599530
No	 -1.96462310	 -18.94277807	 -10.60955434
No	 -2.05950075	 -17.35375425	 -7.87368444
Au	 0.17611023	 -19.06652955	 -8.50783468
No	 -0.48830377	 -16.86707746	 -10.27310180
Au	 -1.41496523	 -19.56470029	 -6.12470881
Au	 -1.63152409	 -17.83494456	 -3.40120248
Au	 0.56599717	 -19.62719553	 -3.96492597
Au	 0.01512387	 -17.43366362	 -5.76603777
No	 -5.70421694	 -12.80163481	 -22.61097942
No	 -5.44182754	 -11.56831727	 -20.08146185
Au	 -3.04692166	 -13.04001929	 -20.77576224
Au	 -3.93216215	 -10.81127254	 -22.42044880
No	 -4.53021878	 -13.76828360	 -18.40574762
No	 -4.37627657	 -12.40092660	 -15.84879683
No	 -2.01957628	 -13.95267757	 -16.47118103
No	 -2.83562078	 -11.76404381	 -18.20890053
No	 -3.53411439	 -14.55632437	 -14.07592775
No	 -3.47047638	 -13.03145365	 -11.48258533
No	 -1.18432235	 -14.69053638	 -12.06462880
No	 -1.91514964	 -12.53651575	 -13.88082256
No	 -2.73821906	 -15.17124648	 -9.65454228
No	 -2.76699600	 -13.48366829	 -7.03751439
No	 -0.56133746	 -15.26103149	 -7.59111203
No	 -1.17712830	 -13.11935828	 -9.45132558
No	 -2.18112681	 -15.64325528	 -5.20174224
No	 -2.32309496	 -13.81145067	 -2.59806664
No	 -0.17228130	 -15.68112067	 -3.09447236
No	 -0.65612638	 -13.53462769	 -4.97238231
No	 -6.34255299	 -9.35134212	 -21.73204272
No	 -6.06116206	 -8.05799996	 -19.34195119
No	 -3.65140026	 -9.56672537	 -19.93198307
Au	 -4.45407598	 -7.35183910	 -21.63007118
No	 -5.22890084	 -10.24307296	 -17.61365970
No	 -5.06445742	 -8.83068884	 -15.21583838
No	 -2.66810778	 -10.39112859	 -15.70377569
No	 -3.41744676	 -8.23211660	 -17.50644911
No	 -4.26098856	 -10.93281802	 -13.35394342
No	 -4.17900623	 -9.36502270	 -10.92547107
No	 -1.84257033	 -11.01359433	 -11.35128100
No	 -2.54099075	 -8.92404938	 -13.26651422
No	 -3.42339800	 -11.38488465	 -8.93952951
No	 -3.37171095	 -9.60105532	 -6.43474154
No	 -1.18748931	 -11.42843704	 -6.89518262
No	 -1.79264621	 -9.38132505	 -8.88294756
No	 -2.80528565	 -11.66747957	 -4.47510911
No	 -2.84491267	 -9.72044225	 -1.96993823
No	 -0.76448453	 -11.68617007	 -2.41896973
No	 -1.20174501	 -9.61018049	 -4.39203002
No	 -6.86361187	 -5.84130953	 -21.03012309
No	 -6.54941502	 -4.48844026	 -18.77070527
No	 -4.14532666	 -6.04698466	 -19.27470566
Au	 -4.84938170	 -3.83684404	 -21.01102026
No	 -5.82899932	 -6.68219103	 -17.02030183
No	 -5.64582887	 -5.22972290	 -14.77526955
No	 -3.22851913	 -6.81157470	 -15.15109401
No	 -3.88044085	 -4.65892348	 -16.98615469
No	 -4.95136695	 -7.34007067	 -12.89975021
No	 -4.90109228	 -5.78893927	 -10.68496064
No	 -2.45278600	 -7.36780719	 -10.90498800
No	 -3.08490961	 -5.31159460	 -12.87488682
No	 -4.12489879	 -7.69887921	 -8.56747199
Au	 -4.09316583	 -5.93599649	 -6.28383768
No	 -1.75082605	 -7.63193272	 -6.47060774
No	 -2.40741398	 -5.73304423	 -8.63217528
No	 -3.27971868	 -7.64839289	 -3.94151276
Au	 -3.12119976	 -5.50315543	 -1.44533130
No	 -1.20314811	 -7.65343979	 -1.93478642
Au	 -1.68411463	 -5.73886690	 -4.09008063
Au	 -7.23966898	 -2.26516704	 -20.48628965
Au	 -6.87501188	 -0.84997342	 -18.34634356
Au	 -4.49995829	 -2.47320917	 -18.78125502
Au	 -5.09712955	 -0.26561008	 -20.55013605
No	 -6.27729478	 -3.05628179	 -16.57929911
No	 -6.04292225	 -1.54708653	 -14.45987896
No	 -3.65716958	 -3.19160221	 -14.77059183
No	 -4.18729007	 -1.02949243	 -16.61784317
No	 -5.51196942	 -3.70751363	 -12.61514262
No	 -5.42495695	 -2.12058797	 -10.54516194
No	 -2.99022607	 -3.74229429	 -10.68952414
No	 -3.47319712	 -1.64936240	 -12.63381615
No	 -4.94055398	 -4.21102009	 -8.60480159
No	 -5.08635183	 -2.63274812	 -6.68071355
No	 -2.42778499	 -4.04940187	 -6.47925098
No	 -2.95137529	 -2.11763268	 -8.60911770
Au	 -4.55621849	 -4.55621849	 -4.55621849
Au	 -5.51541646	 -3.59799941	 -3.37321115
Au	 -1.48124144	 -3.59411775	 -1.63776514
Au	 -2.61782070	 -2.42714455	 -4.55491042
Au	 -13.74732428	 -20.41165996	 0.34148559
Au	 -14.71132388	 -16.02052471	 1.28647962
Au	 -16.92006654	 -14.28356632	 2.02761885
Au	 -15.00721463	 -13.89317106	 3.64824937
Au	 -15.50865646	 -11.54414058	 2.02518780
Au	 -17.69732586	 -9.75010597	 2.66657421
Au	 -15.74093417	 -9.34526661	 4.22513997
Au	 -16.13919113	 -7.00790487	 2.54808953
Au	 -16.30392630	 -4.75089617	 4.58483716
Au	 -16.60692843	 -2.44061347	 2.84647101
Au	 -10.30282303	 -19.49836786	 -0.23193744
Au	 -12.50790813	 -17.76197103	 0.53063051
Au	 -12.81950648	 -15.69050306	 2.98895881
Au	 -10.63306191	 -17.48746217	 2.31957751
No	 -11.16659880	 -15.17146267	 0.67706281
Au	 -10.98938283	 -15.36964440	 4.77627858
No	 -13.33354731	 -13.35378370	 1.36066354
Au	 -13.58119495	 -11.20321483	 3.66129461
Au	 -11.43070600	 -13.07170524	 3.07811578
No	 -11.84735418	 -10.74873320	 1.40069538
Au	 -11.71648519	 -10.87392763	 5.37979385
No	 -13.98348472	 -8.86695068	 1.98937459
Au	 -14.16630822	 -6.65461701	 4.12641284
No	 -12.04508837	 -8.57819352	 3.64289193
No	 -12.34329558	 -6.25407721	 1.92798734
Au	 -13.84680647	 -8.95737332	 5.86291578
Au	 -12.01690669	 -8.58006685	 7.57958722
Au	 -12.25910055	 -6.31740294	 5.78364425
Au	 -14.46361320	 -4.33390164	 2.40206067
Au	 -14.57828798	 -2.07335340	 4.37488872
No	 -12.47698680	 -4.03338554	 4.00339066
Au	 -12.67021676	 -1.73100630	 2.23578496
Au	 -14.35942666	 -4.35188752	 6.16520656
Au	 -12.48134265	 -3.96703248	 7.82206431
Au	 -12.61819300	 -1.72600278	 5.97993930
Au	 -8.08935186	 -21.22102334	 -0.99210810
Au	 -8.44180221	 -19.27579911	 1.64774034
Au	 -6.81626161	 -18.77781512	 -0.70031134
No	 -8.99746474	 -16.98360629	 -0.01425881
Au	 -9.28243014	 -14.94119153	 2.48241982
Au	 -7.12743517	 -16.79997517	 1.88502819
No	 -7.59846216	 -14.53413040	 0.16248725
Au	 -7.46279975	 -14.71278778	 4.37720919
No	 -9.72433841	 -12.64451278	 0.78610254
No	 -9.93784075	 -10.51810860	 3.13401581
No	 -7.83460333	 -12.46140748	 2.60894703
No	 -8.18234400	 -10.18531031	 0.86315566
Au	 -9.59085066	 -12.79559677	 4.88194878
Au	 -9.91664175	 -10.54999565	 7.18033666
Au	 -7.81698186	 -12.52014484	 6.77093013
No	 -8.09212037	 -10.28966808	 4.95553980
Au	 -8.18412881	 -10.22570909	 9.06183924
No	 -10.25170261	 -8.20740840	 1.41424585
No	 -10.39824002	 -6.02031490	 3.60056873
No	 -8.34131466	 -8.03282559	 3.16315365
No	 -8.54396249	 -5.72984565	 1.41079412
No	 -10.17187424	 -8.29915470	 5.37911146
Au	 -10.41890262	 -5.98924209	 7.51977955
Au	 -8.36517068	 -8.02265848	 7.19828370
No	 -8.52126884	 -5.79483775	 5.35546459
Au	 -8.64710079	 -5.66328872	 9.33452054
Au	 -10.58594282	 -3.70643741	 1.84987377
Au	 -10.67224874	 -1.48363074	 3.86389984
No	 -8.63898037	 -3.53039426	 3.54306381
Au	 -8.70810041	 -1.22367597	 1.76509905
No	 -10.56016151	 -3.74871337	 5.68256406
Au	 -10.72834202	 -1.39219946	 7.66077908
No	 -8.71362472	 -3.47202864	 7.44001339
No	 -8.74936336	 -1.25293601	 5.56766392
Au	 -10.67132340	 -3.58991217	 9.55472157
Au	 -8.93088261	 -3.21409236	 11.36233865
Au	 -8.90987612	 -1.06506982	 9.41683670
Au	 -4.61861833	 -20.54912151	 -1.37339984
Au	 -4.95946671	 -18.64019615	 1.29522638
Au	 -3.28770339	 -18.23419774	 -1.04458971
No	 -5.45453580	 -16.39911935	 -0.45078133
No	 -5.72164292	 -14.39073545	 2.08377102
Au	 -3.59024236	 -16.29544477	 1.57120222
No	 -4.00766446	 -14.09110236	 -0.24084503
Au	 -5.32563393	 -16.61665759	 3.87455822
Au	 -5.71180102	 -14.48217078	 6.35886082
Au	 -3.91368003	 -14.24350977	 4.09755173
No	 -6.10920639	 -12.15620889	 0.30128314
No	 -6.29193609	 -10.05312267	 2.70354805
No	 -4.22773035	 -12.05392934	 2.24714856
No	 -4.53515044	 -9.85765420	 0.40332135
No	 -6.00934136	 -12.27531823	 4.52407976
Au	 -6.31292915	 -10.05776040	 6.86423770
Au	 -4.25317974	 -12.08273531	 6.52828291
No	 -4.46441597	 -9.91141532	 4.64047598
Au	 -4.60370240	 -9.81775061	 8.85782468
No	 -6.54210430	 -7.79784586	 0.91370150
No	 -6.64094746	 -5.61791483	 3.17291798
No	 -4.65788869	 -7.72198107	 2.76981676
No	 -4.80537597	 -5.48590273	 0.94328004
No	 -6.49475239	 -7.85580591	 5.00255964
No	 -6.71232788	 -5.56894285	 7.19408720
No	 -4.71424083	 -7.67005288	 6.93197994
No	 -4.80057374	 -5.49774679	 5.02857187
Au	 -6.62696825	 -7.74244513	 9.09966473
Au	 -6.94536163	 -5.33317704	 11.22698793
Au	 -4.95982525	 -7.45311829	 11.08149697
No	 -4.97255376	 -5.33538928	 9.11644439
Au	 -5.31569220	 -4.99313954	 13.19558309
Au	 -6.71779922	 -3.31207515	 1.40356356
Au	 -6.76369056	 -1.10704113	 3.48112406
No	 -4.83483800	 -3.27325410	 3.17267463
Au	 -4.75831047	 -0.94163690	 1.41394090
No	 -6.76424446	 -3.36255879	 5.31668809
No	 -6.90103635	 -1.03016573	 7.34796590
No	 -4.95912693	 -3.19149162	 7.17438195
No	 -4.89877473	 -1.00188800	 5.27239871
No	 -6.93779610	 -3.19546717	 9.27609580
Au	 -7.16365757	 -0.73753963	 11.24758203
Au	 -5.23353734	 -2.91178367	 11.19052555
No	 -5.12618824	 -0.80593650	 9.20623275
Au	 -5.49059352	 -0.40272505	 13.15219959
Au	 -1.43951547	 -18.17487199	 1.07537547
Au	 0.28506440	 -17.85064452	 -1.24234628
No	 -1.87373792	 -15.98605746	 -0.75374777
No	 -2.13645297	 -14.02071437	 1.81165171
Au	 -0.01956153	 -15.95568345	 1.39950033
No	 -0.37980011	 -13.80971843	 -0.49754066
Au	 -1.80093267	 -16.18905667	 3.68359966
Au	 -2.17975016	 -14.08952849	 6.19959217
Au	 -0.34222307	 -13.94480262	 3.95528486
No	 -2.48047304	 -11.86065050	 -0.06886729
No	 -2.65047496	 -9.79634196	 2.37713043
No	 -0.60186058	 -11.82157768	 2.01942059
No	 -0.87937084	 -9.71547070	 0.06552156
No	 -2.41511256	 -11.94293523	 4.28836130
No	 -2.70553629	 -9.75786278	 6.66954172
Au	 -0.67761779	 -11.82146726	 6.41935013
No	 -0.83398323	 -9.72067971	 4.44980108
Au	 -2.57060456	 -11.88021920	 8.61784046
Au	 -2.96808531	 -9.56549083	 10.93321515
Au	 -1.02073350	 -9.59006113	 8.78590656
No	 -2.88583736	 -7.64974870	 0.46589957
No	 -2.93813269	 -5.47535067	 2.80940353
No	 -0.99699260	 -7.62646186	 2.47356478
No	 -1.17956533	 -5.55157647	 0.47765097
No	 -2.83200285	 -7.62691232	 4.72953302
No	 -3.02386814	 -5.36157585	 6.97868328
No	 -1.07274852	 -7.51296115	 6.78594854
No	 -1.11812566	 -5.42917034	 4.79256269
No	 -3.00348441	 -7.47118089	 8.94883547
Au	 -3.30423164	 -5.08844726	 11.12097705
Au	 -1.36665751	 -7.25562037	 11.04939574
No	 -1.31516924	 -5.20559387	 9.02015780
Au	 -1.71033226	 -4.82343895	 13.20489288
Au	 -2.97417923	 -3.25304845	 0.95747902
Au	 -2.91587870	 -0.99310470	 3.17711823
No	 -1.14395720	 -3.32569083	 2.81851589
Au	 -1.05079301	 -1.10262666	 0.96192101
No	 -3.01167339	 -3.21900797	 5.03918270
No	 -3.10598530	 -0.89187516	 7.14666616
No	 -1.24585579	 -3.13749550	 7.00804829
No	 -1.13039710	 -1.02287955	 5.04002800
No	 -3.22304465	 -3.00800954	 9.11780554
No	 -3.42427484	 -0.57149110	 11.14333241
No	 -1.55776493	 -2.80573581	 11.14593696
No	 -1.38085513	 -0.76354350	 9.10939997
Au	 -3.60236847	 -2.61466987	 13.18203968
Au	 -3.89186591	 -0.05424138	 15.12930655
Au	 -2.04636915	 -2.29870924	 15.24838182
No	 -1.79594743	 -0.31954740	 13.15874617
Au	 -2.36899072	 0.31367375	 17.17681832
Au	 -22.56887483	 -1.69983660	 -15.32228993
Au	 -21.58796616	 -2.31498762	 -11.90367724
Au	 -23.25999725	 -3.14097039	 -9.67501835
Au	 -20.80077948	 -2.82908316	 -8.43802812
Au	 -21.36524598	 -0.46305916	 -10.01505855
Au	 -22.52316579	 -3.56856859	 -6.22290800
Au	 -20.19183343	 -3.22281353	 -4.92534657
Au	 -20.66498586	 -0.86269553	 -6.55025779
Au	 -19.74459755	 -3.47350993	 -1.36332162
Au	 -20.13652854	 -1.13321596	 -3.04277019
Au	 -18.21103665	 -0.66470200	 -16.34313301
Au	 -19.90209551	 -1.48651519	 -14.12414064
Au	 -19.62570499	 0.27535738	 -12.22410166
No	 -17.29204351	 -1.31859310	 -12.82386474
Au	 -17.87742184	 1.01138456	 -14.42851615
No	 -19.05543467	 -2.07652330	 -10.63687456
Au	 -18.87181510	 -0.20580048	 -8.73826926
No	 -16.58590319	 -1.88164477	 -9.27606004
Au	 -17.05999361	 0.45878054	 -10.91349147
No	 -18.40385130	 -2.56201904	 -7.11206885
Au	 -18.30230587	 -0.56989267	 -5.21578906
No	 -16.07548091	 -2.33715203	 -5.70048161
No	 -16.44275974	 0.01027424	 -7.36962454
No	 -17.92522723	 -2.91752967	 -3.54428893
Au	 -17.89931871	 -0.79524853	 -1.65468011
Au	 -15.72847114	 -2.64941833	 -2.08267243
No	 -16.00760361	 -0.31519992	 -3.79621479
Au	 -17.55542479	 2.77315989	 -12.57398645
Au	 -16.83239256	 2.32660434	 -9.06609281
Au	 -18.69116693	 1.75627068	 -6.90633974
Au	 -16.29849276	 1.99587549	 -5.53052350
Au	 -16.60518738	 4.28244616	 -7.28587246
Au	 -18.20082288	 1.51391659	 -3.39298609
Au	 -15.93702517	 1.79923826	 -1.96745662
Au	 -16.15019531	 4.07105870	 -3.76405257
Au	 -16.52430972	 0.14241816	 -18.56762514
Au	 -16.12861929	 1.73735121	 -16.63437093
Au	 -13.76171659	 0.16287327	 -17.20226861
No	 -15.52295298	 -0.56832428	 -15.00889291
Au	 -15.23733049	 1.12173573	 -13.08220339
No	 -12.89413793	 -0.50893887	 -13.56581790
Au	 -13.41549201	 1.77219730	 -15.25332315
No	 -14.74320001	 -1.19081022	 -11.42224111
No	 -14.55849958	 0.60315463	 -9.50522151
No	 -12.25986341	 -1.09781278	 -9.92032516
No	 -12.66010603	 1.19600249	 -11.63133270
No	 -14.18574573	 -1.72742015	 -7.82446895
No	 -14.08403654	 0.18829983	 -5.91227710
No	 -11.86288473	 -1.61269878	 -6.28740247
No	 -12.12634708	 0.71282163	 -8.00148795
No	 -13.82266166	 -2.15288370	 -4.20794817
No	 -13.78656134	 -0.09580404	 -2.29515498
Au	 -11.65321298	 -2.00886827	 -2.64074142
No	 -11.80254241	 0.33021000	 -4.37085677
Au	 -13.08333722	 3.46473834	 -13.36552278
Au	 -14.96018118	 2.89909983	 -11.21691999
Au	 -14.68622339	 4.76267589	 -9.41615176
No	 -12.43080649	 2.99014776	 -9.75909262
Au	 -12.75900062	 5.24028921	 -11.54109202
No	 -14.37344448	 2.49050576	 -7.65114381
Au	 -14.18455073	 4.46816273	 -5.86474684
No	 -11.98598602	 2.62117269	 -6.14404467
Au	 -12.20061884	 4.87260885	 -7.95194455
No	 -13.97636886	 2.20063435	 -4.06745467
Au	 -13.86099721	 4.30414788	 -2.29638828
No	 -11.73065484	 2.37333078	 -2.52104049
No	 -11.83647961	 4.62297908	 -4.35385951
Au	 -12.43679773	 7.09790415	 -9.78260777
Au	 -11.96492958	 6.84123725	 -6.21343870
Au	 -13.98839387	 6.53254354	 -4.15063565
Au	 -11.67543608	 6.71353469	 -2.63648937
Au	 -11.71960234	 8.89307918	 -4.54734052
Au	 -12.01592864	 0.87090098	 -19.40933265
Au	 -11.60402747	 2.40330637	 -17.43384240
Au	 -9.24614401	 0.77293907	 -17.89930422
No	 -11.05885955	 0.14700753	 -15.72271149
No	 -10.76489360	 1.77267173	 -13.76167078
No	 -8.41792736	 0.10257073	 -14.12753151
Au	 -8.88582953	 2.32394891	 -15.90613446
No	 -10.32673619	 -0.47892902	 -12.01270264
No	 -10.14897501	 1.24063178	 -10.07614606
No	 -7.82089740	 -0.46886266	 -10.34675664
No	 -8.17914543	 1.74625149	 -12.15859494
No	 -9.84613961	 -1.03416576	 -8.31944597
No	 -9.76929691	 0.79133646	 -6.40559524
No	 -7.50593287	 -0.99436558	 -6.62120289
No	 -7.70611545	 1.26297235	 -8.41630389
No	 -9.62871596	 -1.54021435	 -4.67425887
No	 -9.60688146	 0.43582769	 -2.75233860
Au	 -7.50243871	 -1.52134897	 -3.00320585
No	 -7.49483852	 0.84031870	 -4.72306271
Au	 -11.21144084	 4.01564928	 -15.51897514
Au	 -10.83183932	 5.70775576	 -13.66680546
Au	 -8.54401030	 3.95466598	 -13.97701761
No	 -10.48312406	 3.48193559	 -11.86423170
Au	 -10.20640389	 5.27519317	 -10.03183744
No	 -7.95116983	 3.47321689	 -10.25619175
Au	 -8.21369026	 5.66522718	 -12.11340477
No	 -9.97136530	 3.05176928	 -8.20190533
No	 -9.78764199	 4.95414340	 -6.39231788
No	 -7.58571669	 3.08949354	 -6.54702819
No	 -7.72532268	 5.28502527	 -8.42038881
No	 -9.67596843	 2.72170690	 -4.54862331
No	 -9.56650128	 4.75017855	 -2.75694109
No	 -7.45087456	 2.79339549	 -2.87075692
No	 -7.45197045	 5.01177672	 -4.74006967
Au	 -7.88804409	 7.45547337	 -10.31680095
Au	 -9.92849643	 7.15183993	 -8.26659484
Au	 -9.64402091	 9.11025274	 -6.57118109
No	 -7.49438451	 7.18182600	 -6.65244284
Au	 -7.56072139	 9.32466109	 -8.58899313
No	 -9.59344047	 6.94531173	 -4.65120379
Au	 -9.38520075	 9.02167478	 -2.98285886
No	 -7.30109163	 7.02686510	 -2.99988148
Au	 -7.25263987	 9.16219548	 -4.95476015
Au	 -7.22596364	 11.27132321	 -6.93211091
Au	 -6.99541606	 11.22347088	 -3.33043585
Au	 -7.02647532	 2.85007340	 -18.06708608
Au	 -4.69302934	 1.15636305	 -18.43790730
No	 -6.54209069	 0.64433038	 -16.27119654
No	 -6.23468346	 2.21721798	 -14.26301889
No	 -3.90679305	 0.49231467	 -14.52446242
Au	 -4.31697147	 2.65678954	 -16.39007343
No	 -5.83994801	 0.03835682	 -12.41441797
No	 -5.65917982	 1.70163130	 -10.44226499
No	 -3.32467753	 -0.03562123	 -10.57988126
No	 -3.65276532	 2.09089094	 -12.50360794
No	 -5.37276583	 -0.46555841	 -8.56148927
No	 -5.33152893	 1.27235778	 -6.64974901
No	 -2.96998871	 -0.44767272	 -6.64184773
No	 -3.20372435	 1.64951832	 -8.60890429
No	 -5.24293694	 -0.97285285	 -4.82746155
No	 -5.31555575	 0.85595395	 -2.96503304
Au	 -3.06062674	 -0.96402524	 -2.94034936
No	 -3.01960270	 1.28345741	 -4.76922256
Au	 -6.62096764	 4.40437556	 -16.10301823
Au	 -6.23200781	 6.03601073	 -14.20381643
Au	 -3.96325413	 4.23463152	 -14.40913655
No	 -5.94559381	 3.86882102	 -12.32304071
No	 -5.66698293	 5.59971304	 -10.45187275
No	 -3.41794473	 3.76606280	 -10.55625621
Au	 -3.62553170	 5.88918155	 -12.49691494
No	 -5.48917933	 3.44638100	 -8.54081953
No	 -5.31852675	 5.27639053	 -6.70760306
No	 -3.09684870	 3.41101553	 -6.71593353
No	 -3.19358331	 5.51885827	 -8.68201384
No	 -5.27750563	 3.10890038	 -4.79639610
No	 -5.19889909	 5.04918822	 -2.99909482
No	 -3.05015485	 3.11560744	 -2.95220394
No	 -2.98771796	 5.25676539	 -4.89374443
Au	 -5.85319522	 7.74442640	 -12.37124788
Au	 -5.47810909	 9.52891730	 -10.60694721
Au	 -3.29694229	 7.62000385	 -10.65467349
No	 -5.39100191	 7.41039123	 -8.65005948
Au	 -5.11041733	 9.30070698	 -6.91858780
No	 -2.97030577	 7.35084483	 -6.87993375
Au	 -2.97041944	 9.42670257	 -8.88340098
No	 -5.13805924	 7.19346532	 -4.94215742
No	 -4.94141475	 9.19672120	 -3.24637291
No	 -2.86289230	 7.19239346	 -3.13800251
No	 -2.73936259	 9.26302940	 -5.14960303
Au	 -2.63908304	 11.30859413	 -7.18413275
Au	 -4.81892741	 11.26952981	 -5.25910375
Au	 -4.51111480	 13.31473034	 -3.67381480
No	 -2.49347609	 11.25502756	 -3.49180281
Au	 -2.29654717	 13.26442388	 -5.55818014
Au	 -1.93704207	 15.29223064	 -4.00718992
Au	 -17.59944142	 -3.11608156	 0.07239596
Au	 -17.64856549	 -0.86166161	 1.94535009
Au	 -12.73620469	 0.52738491	 4.14574361
Au	 -15.73067953	 -0.48978721	 -0.18595709
Au	 -12.75914549	 0.66721050	 7.85669967
Au	 -12.79911693	 2.87126685	 5.96152918
Au	 -15.73016583	 1.75839118	 1.62509555
Au	 -15.86037231	 4.00178758	 -0.21917995
Au	 -13.60625222	 -2.41498297	 -0.54364183
Au	 -13.63466120	 -0.21274183	 1.36077601
Au	 -8.75103453	 0.99312958	 3.71626991
Au	 -11.64498883	 0.09064570	 -0.71702183
Au	 -10.76281970	 0.82282247	 5.77929306
Au	 -10.84970341	 3.21219568	 7.59550507
No	 -8.86422151	 1.10474588	 7.48724395
Au	 -8.79358087	 3.29215174	 5.57074103
Au	 -10.89464954	 1.04844842	 9.53484350
Au	 -9.10199770	 1.42481020	 11.28562669
Au	 -8.97464640	 3.54265872	 9.30248122
No	 -13.74557417	 2.05383595	 -0.46055762
Au	 -13.69646201	 4.29123123	 1.29073345
Au	 -11.63117040	 2.28111862	 1.12423989
No	 -11.64732723	 4.50917380	 -0.74611489
Au	 -13.65960019	 2.07611288	 3.17511029
Au	 -13.67539208	 4.44866473	 4.89660033
Au	 -8.82820753	 5.67216732	 7.32771403
Au	 -11.60801939	 4.55793209	 2.87841348
Au	 -9.07290064	 6.05939957	 11.01301576
Au	 -8.84822561	 8.13086987	 8.98578484
Au	 -13.73501972	 6.49408533	 -0.60420799
Au	 -11.55046179	 6.73193346	 0.94803480
Au	 -11.49990315	 8.88822335	 -0.99675938
Au	 -11.57093893	 6.91706383	 4.54194601
Au	 -11.43668018	 9.03671251	 2.55695298
Au	 -9.57503883	 -1.90537062	 -1.00621757
Au	 -9.58829725	 0.24652343	 0.93339680
Au	 -4.76546136	 1.25438984	 3.42861736
Au	 -7.50837042	 0.50161050	 -1.06728592
Au	 -6.82518086	 1.16946989	 5.44795450
Au	 -6.88888720	 3.52222864	 7.30942893
No	 -4.98007340	 1.33601134	 7.25250124
Au	 -4.78490508	 3.51931974	 5.33365801
No	 -7.04103555	 1.38041077	 9.26906396
Au	 -7.17516214	 3.86904140	 11.08110835
No	 -5.29325213	 1.65770006	 11.12466211
No	 -5.06478428	 3.74539676	 9.11950206
Au	 -7.38236288	 1.80274499	 13.10785388
Au	 -5.73677267	 2.18869880	 15.00018755
Au	 -5.45189468	 4.19822190	 12.93031354
No	 -9.56791715	 2.51568108	 -0.89650746
No	 -9.51443163	 4.68905141	 0.88260986
Au	 -7.49552907	 2.62809987	 0.79935652
No	 -7.38106711	 4.85180879	 -1.07918085
Au	 -9.59805328	 2.48465126	 2.78327500
Au	 -9.59864269	 4.80604136	 4.54072431
Au	 -4.80190362	 5.85922473	 7.13579385
Au	 -7.46766507	 4.84619041	 2.58485970
Au	 -6.94513994	 5.95199873	 9.06718704
Au	 -6.98603396	 8.45752491	 10.72125639
No	 -5.14208038	 6.22797356	 10.87662515
Au	 -4.80703050	 8.27455572	 8.83653668
Au	 -7.29534654	 6.43441985	 12.78431907
Au	 -5.59418633	 6.81388531	 14.62349020
Au	 -5.20313204	 8.78323916	 12.52513641
No	 -9.44048513	 6.87001607	 -1.03797012
Au	 -9.29614511	 9.07527344	 0.60238407
No	 -7.28894796	 7.00486499	 0.64046843
No	 -7.13070701	 9.12998216	 -1.33188518
No	 -9.44505935	 6.94909766	 2.57841585
Au	 -9.35657656	 9.29049353	 4.18633570
Au	 -7.42305074	 7.14903490	 4.28295394
No	 -7.17461120	 9.24456978	 2.28052310
Au	 -9.58441098	 7.20748375	 6.20330021
Au	 -9.54972646	 9.68553709	 7.76881235
Au	 -4.79281664	 10.76357243	 10.43566803
Au	 -7.35798178	 9.53149367	 5.88956429
Au	 -5.24030479	 11.40929062	 14.06527886
Au	 -4.75266673	 13.32346808	 11.93237776
Au	 -9.15946377	 11.17914616	 -1.39141838
Au	 -6.93840135	 11.31592315	 0.25883745
Au	 -6.71855562	 13.36220289	 -1.78276095
Au	 -9.13058781	 11.36069375	 2.15950169
Au	 -7.03598691	 11.56462001	 3.83562337
Au	 -6.72124081	 13.57958662	 1.76796501
Au	 -7.26792636	 11.98903876	 7.40170850
Au	 -6.86975864	 13.95963231	 5.30186165
Au	 -5.51699430	 -1.58306603	 -1.30831668
Au	 -5.52071448	 0.52063779	 0.66994966
Au	 -0.85814909	 1.24721249	 3.21937579
Au	 -3.26223108	 0.81539422	 -1.16160233
Au	 -2.91911125	 1.29161192	 5.23593851
Au	 -2.94770903	 3.62837592	 7.16447549
No	 -1.15158496	 1.33053209	 7.12038540
Au	 -0.81091781	 3.53084196	 5.22881939
No	 -3.21244754	 1.50422199	 9.13286039
No	 -3.32022358	 3.97040248	 11.00133491
No	 -1.51917233	 1.68557275	 11.09211298
No	 -1.19512646	 3.73594905	 9.06566340
No	 -3.62078893	 1.94449511	 13.05387634
Au	 -3.80519966	 4.53726354	 14.84907095
Au	 -2.02400485	 2.24804580	 15.05591358
No	 -1.65359556	 4.20661779	 12.95583577
Au	 -2.23547232	 4.89302388	 16.83607947
No	 -5.32164910	 2.83360150	 -1.12039159
No	 -5.28832280	 4.92776593	 0.67191449
Au	 -3.30703620	 2.83097889	 0.68381378
No	 -3.03543484	 5.06809051	 -1.17548820
Au	 -5.52092111	 2.71032692	 2.55871718
Au	 -5.51196024	 4.98297397	 4.35535926
Au	 -0.79761785	 5.85204508	 7.09786861
Au	 -3.29911547	 4.97452535	 2.48529428
Au	 -2.98019513	 6.02993448	 8.97725418
Au	 -3.00325997	 8.50056201	 10.68021832
No	 -1.24408657	 6.20075641	 10.88651935
Au	 -0.78515296	 8.23534641	 8.85262922
No	 -3.41913645	 6.50732086	 12.75500477
Au	 -3.50022271	 9.11435762	 14.39560270
No	 -1.77576908	 6.79788415	 14.70174497
No	 -1.28465056	 8.72945075	 12.59006436
Au	 -3.97008510	 7.20421192	 16.52885917
Au	 -2.42355460	 7.61179404	 18.49862424
Au	 -1.87742355	 9.45769872	 16.33111558
No	 -5.09336505	 7.08910259	 -1.26387238
No	 -4.96117489	 9.22136742	 0.40129366
No	 -2.97726093	 7.13338154	 0.55039340
No	 -2.71453068	 9.21841383	 -1.44939655
No	 -5.22692420	 7.11985237	 2.39307830
No	 -5.14007326	 9.39906575	 4.03298714
Au	 -3.26130612	 7.21539935	 4.21258410
No	 -2.88256971	 9.29792675	 2.21095378
Au	 -5.48819286	 7.33531617	 6.05749967
Au	 -5.44400799	 9.76386264	 7.66301833
Au	 -0.75886219	 10.68632189	 10.50040527
Au	 -3.19739673	 9.54116722	 5.85436454
Au	 -3.00732549	 11.04052563	 12.27559571
Au	 -2.98460455	 13.64808473	 13.76401716
No	 -1.30612393	 11.32327012	 14.18012213
Au	 -0.70942245	 13.20493387	 12.04330047
Au	 -3.55554681	 11.78972389	 15.92396529
Au	 -1.95079708	 12.18385127	 17.84488499
Au	 -1.29982595	 13.98124819	 15.65857129
No	 -4.72417117	 11.28320022	 -1.62361159
Au	 -4.48275487	 13.44881074	 -0.07769071
No	 -2.53878282	 11.33135036	 0.16807446
Au	 -2.22689930	 13.32490577	 -1.90846101
No	 -4.80190526	 11.43875668	 1.98945939
Au	 -4.61381587	 13.73484616	 3.49523210
No	 -2.75489138	 11.55055301	 3.79547383
No	 -2.33326504	 13.52593835	 1.70946666
No	 -5.02645368	 11.75807008	 5.58558777
Au	 -4.88292408	 14.19105645	 7.04687029
Au	 -3.10573120	 11.94448603	 7.40493327
No	 -2.59437320	 13.88279562	 5.29680925
Au	 -5.37383564	 12.26490214	 9.17005647
Au	 -5.27215973	 14.83451134	 10.57702137
Au	 -0.62949770	 15.78896958	 13.48170195
Au	 -2.98270831	 14.41973600	 8.86079849
Au	 -1.25829545	 16.70103056	 17.02627957
Au	 -0.51265609	 18.43516928	 14.81541591
Au	 -1.93496306	 15.46951558	 -0.40218354
Au	 -4.21373510	 15.68899312	 1.38775600
Au	 -2.09560142	 15.79650661	 3.17020405
Au	 -1.61355139	 17.68494440	 1.02424332
Au	 -4.39408687	 16.10391364	 4.91453085
Au	 -2.39903879	 16.28789260	 6.71015266
Au	 -1.82294009	 18.13750505	 4.54649586
Au	 -2.82393016	 16.96192757	 10.21957349
Au	 -2.16569980	 18.76001678	 8.03216834
Au	 -0.67795316	 -14.53505040	 -21.49124644
Au	 0.31206172	 -15.52773088	 -17.11645115
Au	 1.08626380	 -17.74459225	 -15.40443691
Au	 1.09513051	 -16.35620835	 -12.65328275
Au	 2.69407730	 -15.82147412	 -15.01149085
Au	 1.76990024	 -18.55431626	 -10.88319295
Au	 1.66151805	 -17.02021986	 -8.12705601
Au	 3.31541109	 -16.58830555	 -10.47491770
Au	 2.00230177	 -17.52359834	 -3.56652567
Au	 3.71853102	 -17.18664155	 -5.88862613
Au	 -1.27243649	 -11.10326388	 -20.54417931
Au	 -0.47684251	 -13.31628256	 -18.83287493
No	 -0.31979249	 -11.99549403	 -16.23246348
Au	 2.00138491	 -13.62445080	 -16.78473620
Au	 1.29861621	 -11.42877917	 -18.55753496
No	 0.39720634	 -14.17172433	 -14.43890082
No	 0.44677455	 -12.70708100	 -11.82183689
Au	 2.71787991	 -14.41793751	 -12.30980891
Au	 2.10100509	 -12.25689397	 -14.15515792
No	 1.06914139	 -14.85383192	 -9.96312164
No	 1.01607597	 -13.23612403	 -7.33608874
Au	 3.22621246	 -15.03712143	 -7.77035477
No	 2.70876876	 -12.90404398	 -9.67186610
No	 1.52403654	 -15.36835054	 -5.43789151
No	 1.36472484	 -13.59824717	 -2.81866712
Au	 3.51674570	 -15.48528395	 -3.19496575
No	 3.11117611	 -13.37087433	 -5.13403480
Au	 -2.06558760	 -8.88195441	 -22.24169263
Au	 -1.76385500	 -7.62692274	 -19.79036168
Au	 0.59342425	 -9.22838555	 -20.32165103
No	 -1.04448326	 -9.81718972	 -18.02040820
No	 -0.85879324	 -8.43727714	 -15.56078627
Au	 1.47162412	 -10.09816058	 -16.00141673
Au	 0.84058167	 -7.93281235	 -17.83690281
No	 -0.20151246	 -10.57354541	 -13.69444214
No	 -0.11662198	 -9.05157303	 -11.22305499
No	 2.16595072	 -10.78501496	 -11.58962065
No	 1.60694615	 -8.67010409	 -13.51065717
No	 0.46841067	 -11.13267740	 -9.26734978
No	 0.47157088	 -9.44580335	 -6.77553289
No	 2.67424665	 -11.27905676	 -7.09992742
No	 2.20269323	 -9.20913685	 -9.09129432
No	 0.94475566	 -11.50085637	 -4.77315711
No	 0.86522012	 -9.64462123	 -2.27402757
No	 2.97810450	 -11.58875994	 -2.56807554
No	 2.62303089	 -9.54122593	 -4.59486713
Au	 -2.47020797	 -5.42029895	 -21.53738411
Au	 -2.13302985	 -4.10606189	 -19.21415045
Au	 0.21717653	 -5.75458276	 -19.65378161
No	 -1.50567130	 -6.28307873	 -17.40243781
No	 -1.28838645	 -4.85383806	 -15.08413870
No	 1.04787085	 -6.54558865	 -15.41764089
Au	 0.50145529	 -4.40273391	 -17.29995763
No	 -0.71240873	 -6.96683942	 -13.17163533
No	 -0.60415763	 -5.41125381	 -10.86082321
No	 1.70894832	 -7.14688521	 -11.09032516
No	 1.21844964	 -5.06994338	 -13.06976873
No	 -0.05966331	 -7.43098597	 -8.82235073
No	 -0.02511408	 -5.71346238	 -6.49617354
No	 2.21860193	 -7.52899989	 -6.66229769
No	 1.78120559	 -5.53188648	 -8.74612346
No	 0.46945813	 -7.64004642	 -4.34247388
No	 0.48343810	 -5.70042914	 -1.95576678
No	 2.56584911	 -7.68685391	 -2.15535417
No	 2.22302711	 -5.74262511	 -4.30257081
Au	 -2.35741258	 -0.53842069	 -18.79884449
Au	 -0.02816784	 -2.24062443	 -19.15697107
No	 -1.83507480	 -2.70854189	 -16.95667781
No	 -1.57302629	 -1.23074686	 -14.77003740
No	 0.74891265	 -2.96604005	 -15.01513957
Au	 0.30277358	 -0.83659365	 -16.92867593
No	 -1.11038313	 -3.34395448	 -12.84240458
No	 -0.97130309	 -1.75976926	 -10.68499898
No	 1.35427025	 -3.51058038	 -10.80012770
No	 0.96237864	 -1.44819237	 -12.80495528
No	 -0.53675737	 -3.77999112	 -8.63968934
No	 -0.52158192	 -2.09128454	 -6.52737573
No	 1.82535353	 -3.83070351	 -6.48548120
No	 1.45516874	 -1.87454527	 -8.61726449
No	 -0.00740013	 -3.90094542	 -4.24815445
Au	 -0.00090843	 -1.99563848	 -2.08170309
No	 2.23065133	 -3.84282950	 -2.00643834
No	 1.83758927	 -2.05455244	 -4.32092032
Au	 3.77598131	 -11.78206811	 -16.46341320
Au	 4.42344251	 -12.54162194	 -11.97919089
Au	 4.94050413	 -14.68374482	 -10.08477467
Au	 4.87022303	 -13.11889384	 -7.43093978
Au	 6.64493503	 -12.84265370	 -9.70641900
Au	 5.28589424	 -15.23228944	 -5.48646377
Au	 5.10822236	 -13.51469753	 -2.84453265
Au	 6.93017641	 -13.34358496	 -5.09965362
Au	 3.35299068	 -8.26459113	 -15.77352923
Au	 3.89165483	 -10.40426685	 -13.87863798
No	 3.97383921	 -8.92597544	 -11.36086377
Au	 6.21154012	 -10.72943152	 -11.65516068
Au	 5.76799314	 -8.61689814	 -13.60404292
No	 4.43155559	 -11.01865504	 -9.39156936
No	 4.41522542	 -9.38930569	 -6.87331308
Au	 6.59361590	 -11.26693024	 -7.10180218
Au	 6.23782396	 -9.19905126	 -9.11506950
No	 4.77660365	 -11.44240545	 -4.84726037
No	 4.66761517	 -9.65357270	 -2.33542926
Au	 6.77595601	 -11.61359782	 -2.50887193
No	 6.52082200	 -9.58349328	 -4.56972003
Au	 2.81645112	 -6.11589493	 -17.65504083
Au	 3.04763342	 -4.72200374	 -15.27201909
Au	 5.32180591	 -6.49893457	 -15.54473367
No	 3.50825074	 -6.83037810	 -13.32520382
No	 3.63165345	 -5.30434635	 -10.94941376
Au	 5.86948102	 -7.13275434	 -11.12992988
Au	 5.49925202	 -5.05905082	 -13.13458469
No	 4.02802185	 -7.34867476	 -8.91409708
No	 4.05974966	 -5.67411354	 -6.54213612
No	 6.24049741	 -7.56687755	 -6.64755474
No	 5.94398436	 -5.55357274	 -8.72947673
No	 4.38226941	 -7.65307008	 -4.42606584
No	 4.34229032	 -5.80784449	 -2.04946119
No	 6.43421496	 -7.79222693	 -2.11197556
No	 6.22618096	 -5.83384584	 -4.25532307
Au	 2.59963924	 -2.59662786	 -17.19615241
Au	 2.87803199	 -1.15449592	 -14.94202825
Au	 5.13632549	 -2.97175889	 -15.12100443
No	 3.24529787	 -3.24116964	 -12.96056607
No	 3.41224384	 -1.67737227	 -10.72648478
No	 5.64716373	 -3.52976519	 -10.79800723
Au	 5.36263232	 -1.48684417	 -12.84227441
No	 3.72631786	 -3.69039963	 -8.65205171
No	 3.79354397	 -1.99448860	 -6.44054001
No	 5.99601556	 -3.88222815	 -6.40729946
No	 5.76883893	 -1.91488211	 -8.54046929
No	 4.07461629	 -3.90430391	 -4.24856238
No	 4.07824906	 -2.04151645	 -2.03673262
No	 6.20236255	 -4.00029721	 -1.94001099
No	 6.02926520	 -2.12269058	 -4.16862897
Au	 8.08115777	 -8.98388715	 -11.33202062
Au	 8.39616220	 -9.48267663	 -6.77610589
Au	 8.65075667	 -11.52223662	 -4.72178541
Au	 8.51944281	 -9.78318811	 -2.18111529
Au	 10.44686229	 -9.76981888	 -4.34643107
Au	 7.85065924	 -5.40884471	 -10.89219421
Au	 8.12689946	 -7.44728167	 -8.83611780
No	 8.15014100	 -5.81296935	 -6.41542166
Au	 10.27705034	 -7.76786012	 -6.44749231
Au	 10.09709152	 -5.76596431	 -8.54932513
No	 8.34425807	 -7.79462022	 -4.29355667
No	 8.27940083	 -6.00370966	 -1.88833452
Au	 10.33821955	 -8.02439420	 -1.85419186
Au	 10.24669445	 -6.07671088	 -4.01153038
Au	 7.57630075	 -3.36066813	 -12.93536726
Au	 7.75070651	 -1.82863873	 -10.63370720
Au	 9.91435399	 -3.75795219	 -10.64351413
No	 7.94806982	 -3.82759337	 -8.53305763
No	 8.02437383	 -2.15773992	 -6.25399057
Au	 10.14266462	 -4.12992712	 -6.17119069
Au	 10.03661302	 -2.17497203	 -8.32127448
No	 8.15649813	 -4.08303289	 -4.07346524
No	 8.15161511	 -2.25981162	 -1.81355350
No	 10.20410995	 -4.28754264	 -1.65575219
No	 10.17226763	 -2.40246037	 -3.87412239
Au	 12.23474719	 -6.12454934	 -6.11019785
Au	 12.23153642	 -6.33818766	 -1.52121909
Au	 12.21534045	 -2.52078410	 -5.91018603
Au	 12.22693418	 -4.43134859	 -3.71733559
No	 12.20789050	 -2.64444238	 -1.40694812
Au	 14.19807442	 -4.72581537	 -1.17581114
Au	 14.28278411	 -2.86067718	 -3.40555485
Au	 16.23581036	 -3.18885895	 -0.81220141
Au	 1.75074961	 -15.72394724	 -0.89642670
Au	 1.48038277	 -13.80693929	 1.69363538
Au	 3.58480521	 -15.76606983	 1.38989029
Au	 3.29414374	 -13.66700925	 -0.57696201
Au	 1.37018372	 -13.85998607	 6.18554036
Au	 3.25349879	 -13.79851307	 3.97183787
No	 1.19082855	 -11.70975481	 -0.27244806
No	 1.00898634	 -9.70372958	 2.19688097
No	 3.05755859	 -11.73257560	 1.96189268
No	 2.83530491	 -9.68963589	 -0.07405540
No	 1.19711964	 -11.77475001	 4.19883722
No	 0.90628874	 -9.63076357	 6.61370920
Au	 2.91149341	 -11.71692654	 6.46443848
No	 2.81348906	 -9.68348253	 4.41768426
Au	 0.97975367	 -11.68661948	 8.63522613
Au	 0.58529549	 -9.40505675	 10.98482476
Au	 2.56458956	 -9.52449664	 8.86291624
No	 0.78815858	 -7.66334668	 0.16206377
No	 0.72202376	 -5.55548666	 2.53291976
No	 2.69117010	 -7.67245977	 2.34641534
No	 2.51654959	 -5.70895386	 0.22319876
No	 0.82434317	 -7.58319174	 4.58360774
No	 0.63985243	 -5.35435891	 6.87956999
No	 2.56767549	 -7.52254362	 6.78560046
No	 2.55294890	 -5.53772247	 4.69020359
No	 0.61257396	 -7.37970783	 8.93219738
No	 0.32022265	 -5.02741895	 11.14808895
Au	 2.21818978	 -7.22538033	 11.16220564
No	 2.32472592	 -5.25444183	 9.05960405
Au	 0.19223239	 -7.01991357	 13.22944788
Au	 -0.19401790	 -4.53621167	 15.36461858
Au	 1.87735475	 -4.82464000	 13.35714719
No	 0.54949318	 -3.59595877	 0.41159127
Au	 0.69440937	 -1.30366108	 2.77431522
No	 2.49210971	 -3.59699592	 2.54826188
Au	 2.27459061	 -1.80362145	 0.25071868
No	 0.66713090	 -3.32901000	 4.82694261
No	 0.61355590	 -1.00468632	 7.02180059
No	 2.42462576	 -3.29007622	 6.95031077
No	 2.50498470	 -1.34505161	 4.82132607
No	 0.45669755	 -3.02634246	 9.07501276
No	 0.27605144	 -0.60903402	 11.16097187
No	 2.08812789	 -2.88581053	 11.23267151
No	 2.30554653	 -0.94029480	 9.11476498
No	 0.03347525	 -2.58024364	 13.25568855
Au	 -0.24300386	 -0.04436067	 15.25041268
Au	 1.54698836	 -2.32796617	 15.44284567
No	 1.86085960	 -0.42448978	 13.29777487
Au	 1.23208216	 0.25872699	 17.41506252
Au	 5.13009137	 -13.73420478	 1.75104117
Au	 7.00620899	 -13.65982615	 -0.46836950
No	 4.91356841	 -11.68245937	 -0.27856455
No	 4.70938679	 -9.73576566	 2.20893943
Au	 6.75052646	 -11.77400147	 2.09472100
No	 6.60790065	 -9.77195066	 0.00506699
Au	 4.83284703	 -11.74896076	 4.28123940
Au	 4.52964859	 -9.65099340	 6.72317368
Au	 6.51407867	 -11.75323820	 6.68253520
Au	 6.48659416	 -9.77547566	 4.57380398
Au	 4.13660365	 -9.39851028	 11.19239464
Au	 6.15405781	 -9.60167559	 9.10919137
No	 4.55225098	 -7.75079064	 0.10403185
No	 4.44071679	 -5.73127115	 2.47187568
No	 6.43396572	 -7.81846919	 2.44052249
No	 6.34264660	 -5.89198958	 0.27103082
No	 4.50309419	 -7.67511706	 4.61539854
No	 4.30148678	 -5.50203772	 6.93743866
No	 6.22138427	 -7.66566139	 6.96590278
No	 6.26259820	 -5.75263807	 4.79640349
No	 4.22654574	 -7.44315830	 9.07256941
No	 3.92896067	 -5.12952084	 11.32454453
Au	 5.79652368	 -7.34182697	 11.43905864
No	 5.96151278	 -5.44671677	 9.26764478
Au	 3.73961698	 -7.04709815	 13.47059149
Au	 3.35204150	 -4.59433846	 15.64211047
Au	 5.44733841	 -4.97754408	 13.66796483
No	 4.30861861	 -3.84780552	 0.26087475
No	 4.30275356	 -1.75854447	 2.51778309
No	 6.25696273	 -3.87967876	 2.58110705
No	 6.17848133	 -2.06483931	 0.29893916
No	 4.34388040	 -3.59157427	 4.76931954
No	 4.27039895	 -1.33083281	 6.99464072
No	 6.10232553	 -3.57404898	 7.07159912
No	 6.19113258	 -1.74889441	 4.82330632
No	 4.10984326	 -3.22023533	 9.16990123
No	 3.93120004	 -0.83662794	 11.30524142
No	 5.71280895	 -3.12212098	 11.47479435
No	 5.96052893	 -1.28385041	 9.26350150
No	 3.64162077	 -2.71548320	 13.47367594
No	 3.36875492	 -0.20753462	 15.51442235
Au	 5.11192142	 -2.51363967	 15.79148334
No	 5.47992658	 -0.69722564	 13.58193720
Au	 2.97927569	 -2.04549031	 17.70273132
Au	 2.62665998	 0.59381055	 19.64866848
Au	 4.79529737	 0.04418689	 17.80512768
Au	 8.67185887	 -11.78449905	 -0.08546879
Au	 8.44449017	 -9.88744637	 2.42669839
Au	 10.41070260	 -9.98035771	 0.29134295
Au	 8.16544766	 -9.80207003	 7.01830013
Au	 10.17694728	 -9.99231430	 4.92813036
No	 8.37667460	 -7.93617365	 0.28118688
No	 8.23054048	 -5.98109808	 2.66392081
Au	 10.21069731	 -8.07582040	 2.75335934
No	 10.21986568	 -6.17518533	 0.55767835
No	 8.21255852	 -7.88021316	 4.85494913
No	 7.98363047	 -5.76361981	 7.19729990
Au	 9.88798022	 -7.92810726	 7.34612304
No	 10.00911952	 -6.06433084	 5.13097830
Au	 7.84374571	 -7.63845350	 9.39458346
Au	 7.52910137	 -5.36807553	 11.67555302
Au	 9.36814144	 -7.58788509	 11.89786933
Au	 9.60351805	 -5.75673512	 9.67288954
Au	 6.87609844	 -4.79522216	 16.08436173
Au	 9.00142332	 -5.26161048	 14.15651075
No	 8.20951125	 -4.11003936	 0.43841160
No	 8.14426915	 -2.11208810	 2.68755359
No	 10.09955049	 -4.22267387	 2.88788585
No	 10.15599627	 -2.40187917	 0.61764495
No	 8.09013561	 -3.91695793	 4.96706450
No	 7.96576166	 -1.74156231	 7.19187198
No	 9.81400531	 -3.94632000	 7.42308371
No	 9.98618979	 -2.16630088	 5.13654892
No	 7.76521937	 -3.53879832	 9.45170463
No	 7.56420203	 -1.20791398	 11.61534968
No	 9.33059554	 -3.48023670	 11.90601683
No	 9.63386875	 -1.72187330	 9.62911817
No	 7.22761571	 -2.99444066	 13.85753180
No	 6.94472235	 -0.52225948	 15.93627149
Au	 8.65040472	 -2.83408546	 16.31218609
No	 9.07586784	 -1.10139731	 14.04272026
Au	 6.49509310	 -2.27748984	 18.18025706
Au	 6.13683792	 0.33349494	 20.16423065
Au	 8.32092737	 -0.30978810	 18.36136989
Au	 12.22160910	 -8.24863896	 0.66851451
Au	 12.04813844	 -6.33983412	 3.08158509
Au	 14.10330389	 -6.59043551	 1.05249395
Au	 11.93642461	 -8.20308539	 5.30330181
Au	 11.67957149	 -6.13284393	 7.67176462
Au	 13.76444125	 -6.48970987	 5.68170646
Au	 11.12137202	 -5.72537252	 12.22042825
Au	 13.24205950	 -6.17898548	 10.28443931
No	 12.13737760	 -4.48897066	 0.84242424
No	 12.04196955	 -2.54165782	 3.12179492
Au	 13.95585030	 -4.67991086	 3.41844405
Au	 14.12848149	 -2.87795583	 1.14267753
No	 11.87531552	 -4.32800538	 5.40912769
No	 11.71127627	 -2.21364151	 7.65047844
Au	 13.53845878	 -4.41705127	 8.00157876
No	 13.81062724	 -2.67076822	 5.69724967
No	 11.43072163	 -3.95817107	 9.94949393
No	 11.19747915	 -1.68048687	 12.13506827
Au	 12.94083555	 -3.94470463	 12.54461507
No	 13.32327303	 -2.24339437	 10.23063832
Au	 10.79675194	 -3.39282759	 14.43070132
Au	 10.49219009	 -0.96073718	 16.53987595
Au	 12.16225502	 -3.27109639	 17.02171705
Au	 12.65689995	 -1.61004574	 14.70756827
Au	 9.60535787	 -0.05666718	 20.85129731
Au	 11.81094031	 -0.78158169	 19.10171497
Au	 15.93259300	 -3.09651414	 3.77080082
Au	 15.65938697	 -4.85292053	 6.06976820
Au	 15.46316100	 -2.78091685	 8.34239527
Au	 17.61951838	 -3.29329773	 6.47389168
Au	 15.08973537	 -4.48185457	 10.66351022
Au	 14.82397782	 -2.24685541	 12.87611977
Au	 17.00042459	 -2.86431601	 11.05507926
Au	 14.01185611	 -1.50409290	 17.34341454
Au	 16.21417610	 -2.21653699	 15.58462423
Au	 -2.00584027	 0.91229530	 -16.66283071
Au	 -1.68195898	 2.44107495	 -14.59569484
Au	 0.60246446	 0.64775800	 -14.76989494
Au	 0.26462456	 2.76585242	 -16.70860266
No	 -1.34337537	 0.32410987	 -12.65886018
No	 -1.14171325	 1.95325160	 -10.62667608
No	 1.14421522	 0.14632860	 -10.67515743
No	 0.87500643	 2.20973947	 -12.68462158
No	 -0.87140714	 -0.10870254	 -8.61976600
No	 -0.80824890	 1.60374012	 -6.65144808
No	 1.51760853	 -0.17246644	 -6.53243658
No	 1.29680121	 1.81266985	 -8.63109673
No	 -0.58560465	 -0.37925720	 -4.55676383
No	 -0.74577728	 1.32937516	 -2.74866139
No	 1.79507003	 -0.23359574	 -2.28316212
No	 1.53466304	 1.58124782	 -4.55928654
Au	 -1.60435262	 6.15373407	 -14.55811946
Au	 0.62996186	 4.29708513	 -14.66687058
No	 -1.38038957	 4.04630742	 -12.60012471
No	 -1.09483572	 5.72693678	 -10.67783543
No	 1.12506117	 3.84683768	 -10.67608964
Au	 0.97659671	 5.90391336	 -12.69601542
No	 -0.96164640	 3.65536629	 -8.67497905
No	 -0.79395616	 5.43150116	 -6.80260851
No	 1.42399204	 3.54691950	 -6.67634156
No	 1.35837454	 5.55721596	 -8.74632282
No	 -0.76986672	 3.38043816	 -4.77563495
No	 -0.73240586	 5.23558143	 -2.97734573
No	 1.50454855	 3.37613448	 -2.70544219
No	 1.53364182	 5.34847603	 -4.81047817
Au	 -1.21959342	 7.80681432	 -12.67208122
Au	 -0.84213504	 9.53362716	 -10.85655563
Au	 1.31029409	 7.58478217	 -10.79808543
No	 -0.81804560	 7.48256416	 -8.82958207
No	 -0.54213681	 9.31323190	 -7.05548774
No	 1.58222779	 7.34018429	 -6.89580022
Au	 1.63743953	 9.33847103	 -8.97442565
No	 -0.62717155	 7.28474548	 -5.00644178
No	 -0.44982318	 9.21832151	 -3.28348762
No	 1.63920446	 7.22176694	 -3.02798811
No	 1.80537635	 9.19624766	 -5.12361289
Au	 -0.46553011	 11.33310629	 -9.11284288
Au	 -0.08332958	 13.20404083	 -7.44210027
Au	 1.96491622	 11.16403451	 -7.22581266
No	 -0.25922613	 11.21891007	 -5.35560411
Au	 0.03794141	 13.19893458	 -3.73042415
No	 2.03720169	 11.12644603	 -3.42829241
Au	 2.29979653	 13.06057258	 -5.55273697
Au	 2.64895108	 15.02690720	 -3.95572995
Au	 2.86575115	 2.43988875	 -14.76556766
Au	 5.09452685	 0.57588683	 -14.86142702
No	 3.12699399	 0.36864667	 -12.76118515
No	 3.34994399	 1.96926099	 -10.65826554
No	 5.56220599	 0.08027160	 -10.63999458
Au	 5.37858804	 2.10152001	 -12.70785405
No	 3.55019837	 -0.03590748	 -8.57628308
No	 3.65958045	 1.67637167	 -6.51727344
No	 5.86633530	 -0.21966200	 -6.36836114
No	 5.73797006	 1.72536239	 -8.51935147
No	 3.83070267	 -0.22662887	 -4.32576163
No	 3.82644810	 1.59445878	 -2.32639906
No	 6.04545297	 -0.28112788	 -2.02040627
No	 5.93955381	 1.54832114	 -4.28976598
Au	 3.17920707	 4.00459689	 -12.70542963
Au	 3.47456372	 5.64419273	 -10.72058532
Au	 5.64119484	 3.70446815	 -10.63058547
Au	 5.56623958	 5.70599390	 -12.71560916
No	 3.55045131	 3.64362086	 -8.63744785
No	 3.73294180	 5.38845194	 -6.70178147
No	 5.89233727	 3.44343696	 -6.48563785
No	 5.88650178	 5.38153059	 -8.63315805
No	 3.74012592	 3.45157096	 -4.55682255
No	 3.79420059	 5.28374024	 -2.69914769
No	 5.98496759	 3.37795543	 -2.31546751
No	 6.02768740	 5.22915879	 -4.54372187
Au	 3.79617919	 9.33908652	 -10.90925372
Au	 5.90462524	 7.34376266	 -10.75346149
No	 3.75723830	 7.35655851	 -8.81325366
No	 4.03353761	 9.14013655	 -6.98465853
No	 6.11918561	 7.12969947	 -6.71832588
Au	 6.23382338	 9.05326857	 -8.86784730
No	 3.90378830	 7.20195019	 -4.85224765
No	 4.07216845	 9.08466139	 -3.08714335
No	 6.14782220	 7.07815505	 -2.69665727
No	 6.34497233	 8.94665344	 -4.88760809
Au	 4.17169912	 11.08664236	 -9.10845180
Au	 4.54923931	 12.90339420	 -7.38294702
Au	 6.55959929	 10.83246799	 -7.06032644
No	 4.31070388	 10.99402779	 -5.23504518
No	 4.59659723	 12.91777528	 -3.56401516
No	 6.57109692	 10.83121998	 -3.14095504
Au	 6.88831464	 12.67965836	 -5.33173809
Au	 4.93523048	 14.78779223	 -5.73353941
Au	 5.33608652	 16.73815202	 -4.16087755
Au	 7.22680958	 14.59341788	 -3.68233940
Au	 7.56563075	 0.18796754	 -12.71198931
Au	 7.79828434	 1.75653265	 -10.53855917
Au	 9.93760058	 -0.20572826	 -10.45356016
No	 7.90196794	 -0.21269513	 -8.41096065
No	 8.03296981	 1.48263965	 -6.27247266
No	 10.13998273	 -0.50601009	 -6.07983134
Au	 10.11969465	 1.41032086	 -8.26175177
No	 8.08278500	 -0.40375770	 -4.06041079
No	 8.12466488	 1.42785327	 -1.95925280
No	 10.19049070	 -0.58701462	 -1.66223814
No	 10.22783512	 1.24457629	 -3.92417388
Au	 8.01387738	 5.34846978	 -10.58752491
Au	 10.11551616	 3.34702501	 -10.41880452
No	 8.01157622	 3.40273602	 -8.44510673
No	 8.20896497	 5.12253205	 -6.43580757
No	 10.28538987	 3.10481512	 -6.15297196
Au	 10.36562540	 4.99171061	 -8.35033200
No	 8.14548545	 3.25155181	 -4.22427944
No	 8.23993225	 5.08670482	 -2.27320840
No	 10.30226783	 3.07099582	 -1.86020148
No	 10.43763990	 4.87301934	 -4.13192826
Au	 8.30167498	 7.02402920	 -8.61257985
Au	 8.58111380	 8.77028988	 -6.71848255
Au	 10.60425889	 6.70965645	 -6.36408782
Au	 10.79246425	 8.56900276	 -8.57009268
No	 8.39401776	 6.91171010	 -4.51435353
No	 8.57111440	 8.76653118	 -2.68328331
No	 10.57884552	 6.70946110	 -2.20342024
No	 10.83556155	 8.49718142	 -4.46311864
Au	 9.15863568	 12.41726219	 -7.11513587
Au	 11.11604554	 10.30925589	 -6.69562501
No	 8.85758603	 10.58465800	 -4.90695088
No	 9.13734501	 12.46510823	 -3.17868760
No	 11.06416239	 10.35081589	 -2.64966907
Au	 11.44001066	 12.11643537	 -4.90245139
Au	 9.53654072	 14.25381332	 -5.40571436
Au	 9.92574497	 16.15414427	 -3.77545276
Au	 11.77006234	 13.98804331	 -3.19161482
Au	 12.20546405	 -0.59978036	 -8.09066833
Au	 12.33757485	 1.06794382	 -5.88240808
Au	 14.36465691	 -0.98876716	 -5.62825209
No	 12.27046643	 -0.79542808	 -3.65286954
No	 12.31544750	 1.01415660	 -1.48221076
Au	 14.28874476	 -1.07627203	 -1.13617592
Au	 14.44694108	 0.73431135	 -3.40613592
Au	 12.41669937	 2.94961477	 -8.08995518
Au	 12.61723025	 4.64157515	 -6.00779759
Au	 14.61198812	 2.55986810	 -5.65879406
No	 12.45712797	 2.81543196	 -3.75949777
No	 12.56702860	 4.63764503	 -1.72678684
No	 14.52115957	 2.53882266	 -1.27109093
Au	 14.76417976	 4.30348535	 -3.56465137
Au	 13.07362835	 8.20190423	 -6.26596034
Au	 15.02304732	 6.08908542	 -5.83364608
No	 12.80861965	 6.40674334	 -4.01140748
No	 12.99430307	 8.24059768	 -2.10446130
No	 14.91042410	 6.12072668	 -1.55916775
Au	 15.25255612	 7.84878927	 -3.85959138
Au	 13.34854555	 9.98379215	 -4.38446338
Au	 13.62487178	 11.83123656	 -2.58843721
Au	 15.48062594	 9.67670038	 -1.97274879
Au	 15.92898716	 11.37002897	 -4.27289181
Au	 14.46700709	 15.40072864	 -3.17222374
Au	 16.25009592	 13.20743716	 -2.49310667
Au	 16.44346347	 0.41442837	 -0.83877152
Au	 16.69707296	 2.18319148	 -3.13049909
Au	 16.80189767	 3.98247534	 -1.02651242
Au	 18.66807643	 1.82494017	 -0.51062893
Au	 17.14321067	 5.70472747	 -3.33682917
Au	 17.32563573	 7.51550690	 -1.35538482
Au	 19.15205627	 5.34139459	 -0.74563869
Au	 18.03276803	 11.01546146	 -1.80390725
Au	 19.80678196	 8.81872584	 -1.11227114
Au	 -0.47686802	 -0.47686802	 -0.47686802
Au	 -1.44319953	 0.61461247	 0.57671004
Au	 2.46637652	 0.48251285	 2.57273630
Au	 1.59375006	 1.52161132	 -0.48048706
Au	 0.84065822	 1.08758287	 5.03676026
Au	 0.91061816	 3.48197862	 7.11028805
No	 2.54253313	 1.02489530	 7.01618943
Au	 2.89865075	 3.10956504	 5.03503555
No	 0.55135166	 1.39500882	 9.09689086
No	 0.48078309	 3.85836821	 11.04440439
No	 2.19261581	 1.49701117	 11.16982002
No	 2.57067006	 3.46489155	 9.08593974
No	 0.10083967	 1.88928265	 13.13137903
No	 -0.06383051	 4.46278728	 14.98335970
No	 1.64631583	 2.12174413	 15.24912627
No	 2.08502152	 4.00912202	 13.10560780
Au	 -0.50391583	 2.57464496	 17.12902222
Au	 -0.74337936	 5.27184283	 18.88948579
Au	 0.93790751	 2.92966621	 19.27047971
No	 1.44893912	 4.74616894	 17.08289329
No	 -0.90685719	 3.11525712	 -1.01690127
No	 -0.97366867	 5.06472852	 0.71905531
Au	 1.14943160	 3.11350355	 1.00681350
No	 1.45352148	 5.22757971	 -0.95171905
Au	 -1.43950950	 2.75846418	 2.50741830
Au	 -1.42665927	 4.98509525	 4.34618700
Au	 3.10601318	 5.58762751	 7.14954849
Au	 0.95610139	 5.01626688	 2.65394255
Au	 0.93096330	 5.89419196	 9.01803392
Au	 0.93762141	 8.35116016	 10.79111080
No	 2.57635721	 5.94806374	 11.00966157
Au	 3.17961565	 7.99233444	 9.01154343
No	 0.41025127	 6.38310359	 12.86602998
No	 0.35039968	 8.96989152	 14.56597261
No	 1.98650656	 6.58840897	 14.91834787
No	 2.57165235	 8.47544266	 12.79414098
No	 -0.21136256	 7.10749616	 16.71619893
Au	 -0.33455551	 9.82025042	 18.33018993
Au	 1.27425679	 7.44334628	 18.79710146
No	 1.90405973	 9.23117748	 16.60837080
No	 -0.67202225	 7.18426556	 -1.24249466
No	 -0.57677345	 9.23100852	 0.43170924
No	 1.43165235	 7.17474325	 0.74160306
No	 1.75701930	 9.17411714	 -1.32108344
No	 -0.96323416	 7.15709681	 2.43244817
No	 -0.90254263	 9.35956533	 4.08908493
Au	 0.93045731	 7.14887728	 4.36317188
No	 1.46537253	 9.23624224	 2.39030271
Au	 -1.39902271	 7.29118908	 6.09070662
Au	 -1.35100690	 9.67320421	 7.73892567
Au	 3.23066873	 10.42724441	 10.72913270
Au	 0.96855839	 9.40271456	 6.02418121
Au	 0.95192240	 10.86520477	 12.44461636
Au	 0.98703432	 13.44014836	 13.98508768
No	 2.57324698	 11.05403599	 14.45065622
Au	 3.29213456	 12.91645310	 12.32898501
No	 0.31122495	 11.61894363	 16.14777060
Au	 0.30150419	 14.32919981	 17.61378360
No	 1.84581531	 11.93528489	 18.17750984
No	 2.59475429	 13.68793362	 15.98692664
No	 -0.25269486	 11.23348694	 -1.63279343
No	 -0.02939198	 13.32883940	 -0.05576388
No	 1.90057409	 11.21057969	 0.31509487
No	 2.28645816	 13.13126460	 -1.80890899
No	 -0.44422319	 11.37116226	 2.03967609
No	 -0.27462827	 13.59696780	 3.57389665
No	 1.55302731	 11.40399640	 3.98424030
No	 2.07775434	 13.33113241	 1.88034985
No	 -0.80295833	 11.65307369	 5.67064110
No	 -0.66717768	 14.02636299	 7.16754433
Au	 1.04751139	 11.74668403	 7.60723190
No	 1.68771072	 13.66397780	 5.50937229
Au	 -1.27706505	 12.12738233	 9.28905569
Au	 -1.17170936	 14.64975672	 10.73957562
Au	 3.37852869	 15.46508544	 13.81900083
Au	 1.16342237	 14.16788763	 9.10157504
Au	 1.05237440	 16.07580838	 15.41536305
Au	 1.15554252	 18.77000836	 16.73669646
No	 2.64666842	 16.37795641	 17.40739349
Au	 3.49900195	 18.07266301	 15.20189694
Au	 0.35566881	 15.25167778	 -2.18109794
Au	 0.69934693	 17.37453504	 -0.70933123
No	 2.56041630	 15.20981537	 -0.26573302
Au	 3.01873755	 17.06130405	 -2.43559503
No	 0.22450207	 15.50093443	 1.44473097
Au	 0.51251197	 17.74522117	 2.86538203
No	 2.29241247	 15.53180807	 3.37117145
Au	 2.86479084	 17.35968678	 1.19981784
No	 -0.06761468	 15.90074142	 5.02793407
Au	 0.17845968	 18.27561892	 6.39693379
No	 1.86583253	 16.00456745	 6.95548548
No	 2.54688038	 17.80688693	 4.78312265
No	 -0.49400026	 16.47164354	 8.57431088
Au	 -0.28043390	 18.98266850	 9.88751806
Au	 1.31780783	 16.65853093	 10.50209935
No	 2.08712867	 18.41687031	 8.31598270
Au	 -1.02952381	 17.23616113	 12.08923567
Au	 -0.84517671	 19.88223913	 13.33706056
Au	 3.66068875	 20.73655102	 16.47868405
Au	 1.51409813	 19.21256119	 11.80591686
No	 4.07629605	 -0.08827465	 0.09022860
Au	 4.07441293	 1.95265109	 2.12943598
No	 6.16928262	 -0.02085642	 2.46770729
No	 6.04082654	 1.63069533	 0.02534463
No	 4.36090535	 0.49035554	 4.74861478
Au	 4.51035857	 2.92108258	 6.96837236
No	 6.16229730	 0.51028845	 7.00553993
Au	 6.20793834	 2.15710812	 4.59139138
No	 4.22077930	 1.04222732	 9.13680689
No	 4.18514958	 3.50605718	 11.17421341
No	 5.84130312	 1.11261157	 11.36569563
No	 6.18316140	 2.90309694	 9.12975083
No	 3.76673783	 1.63898912	 13.33439091
No	 3.61752582	 4.19609666	 15.24911681
No	 5.26633545	 1.82067957	 15.58272385
No	 5.74402650	 3.60385327	 13.36688694
No	 3.11451903	 2.38736203	 17.44178910
Au	 2.88343303	 5.06245862	 19.25190650
Au	 4.50227657	 2.68963807	 19.70470322
No	 5.07491822	 4.42313473	 17.47084174
No	 3.75369983	 3.43428838	 -0.47486388
No	 3.59509759	 5.26592857	 1.20866033
No	 5.99254753	 3.58212353	 1.93839110
No	 5.99557127	 5.25441744	 -0.45861438
Au	 3.60178304	 3.60178304	 3.60178304
Au	 2.64596257	 4.81851551	 4.51839490
Au	 6.40619241	 4.57607352	 6.77410974
Au	 5.79640146	 5.46234715	 3.61087572
Au	 4.67395888	 5.44359908	 9.08219339
Au	 4.77356346	 7.96145415	 11.00261723
No	 6.24130734	 5.40668515	 11.17037537
Au	 6.85784883	 7.32888166	 9.09127085
No	 4.15339398	 6.03752530	 13.08708207
No	 4.12548485	 8.62443778	 14.86838306
No	 5.66550201	 6.17460428	 15.25409071
No	 6.30252772	 7.97230520	 13.08141842
No	 3.48630500	 6.82585995	 17.04408639
No	 3.37795372	 9.52197383	 18.71713891
No	 4.90889939	 7.10179987	 19.24123697
No	 5.60469045	 8.81159273	 17.01821817
No	 3.83363302	 7.17529498	 -0.93924151
No	 3.88218851	 9.13987560	 0.73851573
No	 5.96936846	 7.16689192	 1.27373046
No	 6.26049742	 8.98936499	 -0.94347272
No	 3.44547937	 7.16948161	 2.81128768
No	 3.40034547	 9.23035158	 4.41416812
Au	 5.36705909	 7.17411610	 4.96332347
No	 5.93233385	 9.13034036	 2.90145793
Au	 2.67182184	 7.08150628	 6.30779486
Au	 2.71802964	 9.42025333	 8.00109001
Au	 7.09729103	 9.92422070	 11.05642745
Au	 5.19836153	 9.19045056	 6.47224872
Au	 4.83526901	 10.48912835	 12.75354183
Au	 4.89470583	 13.05327641	 14.36666013
No	 6.35335568	 10.57261782	 14.84285903
Au	 7.21438347	 12.43806282	 12.76579724
No	 4.10953114	 11.26410483	 16.52049887
No	 4.11591517	 13.95681664	 18.04828201
No	 5.56504777	 11.50673724	 18.65622839
No	 6.40544469	 13.20834935	 16.46219195
No	 4.24951631	 11.03915497	 -1.40278913
No	 4.44728140	 13.06812417	 0.20435513
No	 6.37906149	 10.96672639	 0.72194541
No	 6.80625538	 12.78341705	 -1.47691130
No	 3.96373770	 11.19196574	 2.34879522
No	 4.09029970	 13.33550618	 3.89488842
No	 5.93445770	 11.18328014	 4.46501082
No	 6.51978746	 13.01703347	 2.30798207
No	 3.44303613	 11.42721418	 5.99081051
No	 3.54662517	 13.72681829	 7.50741416
Au	 5.20805658	 11.42935858	 8.03984131
No	 6.00231572	 13.34365310	 5.98069866
Au	 2.79011222	 11.83094998	 9.59656078
Au	 2.89353174	 14.30958483	 11.09275641
Au	 7.32002127	 14.97379252	 14.32798205
Au	 5.29228969	 13.78181556	 9.55609891
Au	 4.97299350	 15.66584326	 15.85765677
Au	 5.08309216	 18.33024972	 17.23367848
No	 6.47518002	 15.88618805	 17.95132111
Au	 7.44696947	 17.55512422	 15.77022898
No	 4.89906937	 14.91085476	 -1.97109430
Au	 5.22533167	 16.97212027	 -0.45625009
No	 7.05976782	 14.80379351	 0.10654398
Au	 7.58209785	 16.57237716	 -2.11209287
No	 4.67466585	 15.17231072	 1.73577208
No	 4.93803198	 17.34982645	 3.19057511
No	 6.69614012	 15.14480103	 3.82005750
No	 7.34032653	 16.89234907	 1.61088817
No	 4.26434005	 15.56534507	 5.37168005
No	 4.48555518	 17.87327272	 6.77215828
No	 6.13435476	 15.60284192	 7.43881733
No	 6.91598300	 17.34950274	 5.25850086
No	 3.69967055	 16.10967308	 8.94616284
No	 3.89933518	 18.56409835	 10.29804610
Au	 5.42804908	 16.21630608	 10.99182216
No	 6.32364022	 17.94637404	 8.82579656
Au	 3.03367363	 16.85195086	 12.48849849
Au	 3.21583407	 19.45365497	 13.78288394
Au	 7.60953173	 20.18678234	 17.10105090
Au	 5.61126954	 18.71951404	 12.33685146
No	 8.14115172	 -0.34589565	 0.36124393
No	 8.13077012	 1.65588035	 2.44809953
No	 10.10988948	 -0.42063525	 2.80755011
No	 10.20107110	 1.31187917	 0.45974537
No	 8.09706407	 -0.00459638	 4.86397015
No	 8.08946347	 2.22629871	 6.98098000
No	 9.89067785	 -0.00353219	 7.30599537
No	 10.07524731	 1.65702481	 4.91505906
No	 7.86839398	 0.54791841	 9.34006328
No	 7.80681867	 2.95169414	 11.41044404
No	 9.47729817	 0.60881097	 11.74851653
No	 9.82703633	 2.27147130	 9.40178685
No	 7.38591017	 1.22466939	 13.68367960
No	 7.23337789	 3.75137210	 15.64981352
No	 8.84517264	 1.37567384	 16.07938584
No	 9.35173024	 3.04395605	 13.77924372
No	 6.68510790	 2.04243352	 17.90702208
No	 6.45289767	 4.69254451	 19.76495048
Au	 8.01834411	 2.30585720	 20.30031378
No	 8.64312609	 3.94499777	 18.01126428
No	 8.14740768	 3.32655967	 0.03909481
No	 8.13963452	 5.27318393	 1.91643938
No	 10.20574392	 3.28751051	 2.48541438
No	 10.36318247	 4.96517508	 0.10450142
No	 8.12612185	 3.74244398	 4.44443417
Au	 8.13283476	 5.91049238	 6.34792287
No	 10.06680842	 3.83718143	 6.94689364
No	 10.20073968	 5.32759851	 4.40327833
No	 8.15784440	 4.61044952	 9.06633175
Au	 8.32991785	 7.16924926	 11.13539640
No	 9.81250182	 4.66805135	 11.43232250
Au	 10.11773501	 6.14478689	 8.92866594
No	 7.78164787	 5.46031068	 13.39260496
No	 7.78296465	 8.05148807	 15.26571745
No	 9.26128704	 5.57755686	 15.71551642
No	 9.85995232	 7.19075112	 13.40005572
No	 7.10769500	 6.36176346	 17.50540939
No	 7.00974013	 9.04475442	 19.24299474
No	 8.47309468	 6.59867711	 19.83271709
No	 9.20529004	 8.19746570	 17.54676096
No	 8.31598150	 6.97976429	 -0.42612146
No	 8.37585651	 8.92437723	 1.31330941
No	 10.40700022	 6.91555157	 1.95965372
No	 10.71132526	 8.60835438	 -0.37180532
No	 8.07410497	 7.23291662	 3.64085274
No	 7.93299873	 9.17867859	 5.19275918
No	 10.16316116	 7.40102883	 6.18362217
No	 10.42657890	 8.90692617	 3.69261925
Au	 7.68197939	 7.68197939	 7.68197939
Au	 6.75193380	 9.01214324	 8.45354594
Au	 10.33993206	 8.68637339	 10.96482023
Au	 9.98858262	 9.39677729	 7.71901443
Au	 8.52877645	 9.81153736	 13.09418754
Au	 8.67564133	 12.44031994	 14.85642357
No	 9.95709621	 9.81589462	 15.28012703
Au	 10.82828540	 11.55356457	 13.13090137
No	 7.80039026	 10.70150695	 17.01085413
No	 7.83352486	 13.39775876	 18.62177208
No	 9.18034964	 10.88781205	 19.26078531
No	 10.06949424	 12.49401118	 17.02749593
No	 8.74654254	 10.68473661	 -0.94303831
No	 8.92937185	 12.66641143	 0.70865321
No	 10.83876474	 10.56490484	 1.36040039
No	 11.29570399	 12.26779056	 -0.92472688
No	 8.43118529	 10.92254501	 2.95070620
No	 8.50556777	 12.98740894	 4.50235313
No	 10.41965178	 10.92818368	 5.29690538
No	 10.96875651	 12.57763762	 2.99474556
No	 7.81065578	 11.19012014	 6.66022273
No	 7.80279947	 13.35173388	 8.12508182
Au	 9.59051814	 11.21803227	 8.93069824
No	 10.41184074	 12.99392711	 6.79311429
Au	 6.81658729	 11.38300853	 10.09627716
Au	 6.91252398	 13.82166259	 11.63993641
Au	 11.11676871	 14.25377139	 14.94214908
Au	 9.46250470	 13.33674931	 10.29655681
Au	 8.79597436	 15.06997972	 16.44673510
Au	 8.92505475	 17.72694716	 17.89739047
No	 10.18316605	 15.19738374	 18.62303274
Au	 11.29392771	 16.86344586	 16.49561997
No	 9.42755841	 14.41027785	 -1.53339977
No	 9.73599851	 16.41924872	 0.02986011
No	 11.53731030	 14.24649047	 0.71231109
Au	 12.11247495	 15.92193225	 -1.56342229
No	 9.13093042	 14.71364668	 2.27605505
No	 9.36257863	 16.82864649	 3.76328558
No	 11.11447437	 14.65004889	 4.53796004
No	 11.79755169	 16.28648856	 2.26347087
No	 8.62282392	 15.13288044	 5.98354430
No	 8.79497972	 17.36235400	 7.39811059
No	 10.45296843	 15.14208720	 8.22244303
No	 11.29205288	 16.78844819	 5.99905193
No	 7.89307246	 15.64156167	 9.56117669
No	 8.05455652	 18.02592194	 10.93512917
Au	 9.52327639	 15.66990166	 11.71882842
No	 10.56967636	 17.38995956	 9.60178155
Au	 7.04510132	 16.32385613	 13.08341553
Au	 7.21958262	 18.88515779	 14.42588257
Au	 11.47030134	 19.48585132	 17.90039317
Au	 9.66901809	 18.10807776	 13.08785831
No	 12.18329024	 -0.76648930	 0.81794906
No	 12.15880463	 1.19960994	 2.95458542
No	 14.05821749	 -0.93705043	 3.37439805
No	 14.28992556	 0.79479134	 1.04571798
No	 11.95326541	 -0.49691283	 5.31628091
No	 11.88095154	 1.64623422	 7.42729888
No	 13.67540089	 -0.56405583	 7.88816741
No	 13.99398964	 1.09482014	 5.51770228
No	 11.56514611	 0.00368884	 9.80615724
No	 11.44725134	 2.32560911	 11.87796088
No	 13.12692761	 0.03025699	 12.36833442
No	 13.55907980	 1.64023544	 9.99187260
No	 10.98737842	 0.69847748	 14.22701977
No	 10.80729906	 3.17595041	 16.22313826
No	 12.39727306	 0.82236235	 16.77149026
No	 12.95793022	 2.40325040	 14.41468299
No	 10.21375836	 1.56678443	 18.54491406
No	 9.96681945	 4.18442552	 20.44223940
Au	 11.48840030	 1.80094367	 21.07391138
No	 12.16857077	 3.34914639	 18.73422364
No	 12.35352426	 2.90295508	 0.59688717
No	 12.38605266	 4.86394879	 2.57801391
No	 14.29092481	 2.74851722	 3.13654592
No	 14.59069158	 4.41988607	 0.77240988
No	 12.14008902	 3.25071951	 5.00044147
No	 12.13276984	 5.38347597	 6.95325418
No	 13.94331109	 3.21620170	 7.57204157
No	 14.29545699	 4.77984731	 5.13214135
No	 11.83840740	 3.89251116	 9.46026927
No	 11.84720235	 6.25526487	 11.42902496
No	 13.47253633	 3.94410535	 12.01124936
No	 13.91558754	 5.42741018	 9.53908346
No	 11.36860256	 4.75436787	 13.86815524
No	 11.33803772	 7.28954755	 15.77612158
No	 12.82485555	 4.87481593	 16.36970420
No	 13.42977542	 6.35286491	 13.95240415
No	 10.66254444	 5.74695147	 18.11951325
No	 10.55606100	 8.40328634	 19.90996617
No	 11.97655860	 5.96561051	 20.59281322
No	 12.73511805	 7.44258579	 18.23197618
No	 12.66903239	 6.52828189	 0.21019353
No	 12.76349280	 8.47955689	 2.04512899
No	 14.65760872	 6.37121171	 2.71899174
No	 15.05364114	 8.00637984	 0.35346000
No	 12.41038494	 6.88612027	 4.45130696
No	 12.41504847	 8.94987163	 6.19908772
No	 14.30520361	 6.88156481	 7.02665040
No	 14.72174900	 8.38426194	 4.56159804
No	 12.14243164	 7.59429634	 8.81102202
Au	 12.17460424	 9.87938648	 10.57200928
No	 13.92548174	 7.73402936	 11.42612239
No	 14.31631060	 9.04091120	 8.80914471
No	 11.94381735	 8.76380151	 13.36175681
Au	 12.15631223	 11.43872067	 15.27428061
No	 13.44805958	 8.87530152	 15.82426457
Au	 14.00608066	 10.16054398	 13.25931319
No	 11.35618661	 9.92100350	 17.59212339
No	 11.41299053	 12.62578218	 19.29614746
No	 12.69278391	 10.09993884	 19.99638756
No	 13.54036232	 11.51530037	 17.62984648
No	 13.17778303	 10.13847757	 -0.29013628
No	 13.36333087	 12.09621809	 1.42956331
No	 15.19615703	 9.95452674	 2.16895261
No	 15.71132965	 11.56869235	 -0.17564767
No	 12.84995613	 10.48273482	 3.77168338
No	 12.93044308	 12.53110665	 5.38674342
No	 14.77942060	 10.44706212	 6.29047279
No	 15.34016764	 11.95897148	 3.88348521
No	 12.37259192	 11.02011346	 7.78991895
No	 12.26468914	 13.06968844	 9.20480891
No	 14.30575945	 11.22635331	 10.45044941
No	 14.82328825	 12.54408160	 7.89350448
Au	 11.76129374	 11.76129374	 11.76129374
Au	 10.87436858	 13.19405728	 12.38394713
Au	 14.26939701	 12.81301289	 15.14346577
Au	 14.16887320	 13.32669467	 11.84355646
Au	 12.40789638	 14.18778629	 17.07356868
Au	 12.61904805	 16.91358166	 18.67450513
No	 13.69441844	 14.24839773	 19.34505169
Au	 14.81130454	 15.78178826	 17.15440855
No	 13.90791148	 13.74120443	 -0.87907277
No	 14.20380121	 15.71124267	 0.74347175
No	 15.94918633	 13.52087250	 1.53000038
Au	 16.58109697	 15.10606844	 -0.79842076
No	 13.55708551	 14.11114899	 3.05475634
No	 13.76794310	 16.18294098	 4.58830241
No	 15.48918144	 14.01454291	 5.49509563
No	 16.19969262	 15.53006599	 3.14375907
No	 13.01631612	 14.62631471	 6.89655566
No	 13.13093599	 16.78105770	 8.31808614
No	 14.85076051	 14.66396115	 9.36476917
No	 15.65056499	 16.11940228	 7.00592241
No	 12.18509504	 15.17789094	 10.53276267
No	 12.22965160	 17.42833770	 11.85637586
Au	 13.81799850	 15.24568011	 12.91032005
No	 14.88703982	 16.82101610	 10.72557623
Au	 10.99395765	 15.66018771	 13.87647762
Au	 11.15537457	 18.18529433	 15.26820408
Au	 15.16517891	 18.57314670	 18.80911357
Au	 13.74621342	 17.45431477	 14.13003263
Au	 16.19148741	 -1.34322409	 1.46473668
No	 16.14734329	 0.59094664	 3.65296007
Au	 17.97657242	 -1.59037925	 4.14500475
Au	 18.32373146	 0.11358618	 1.81398445
No	 15.81446881	 -1.09207463	 6.00318701
No	 15.70686709	 1.00453175	 8.14545782
Au	 17.45225054	 -1.22433259	 8.70121554
Au	 17.88563431	 0.40817824	 6.33414064
No	 15.27975220	 -0.61204029	 10.52347593
No	 15.11727155	 1.65267157	 12.61292008
Au	 16.76859647	 -0.63206094	 13.22120072
No	 17.29918402	 0.93691185	 10.83576282
No	 14.57878013	 0.08561429	 14.99240007
No	 14.36170902	 2.51357230	 17.01152923
Au	 15.92187569	 0.17738885	 17.67623146
No	 16.55988691	 1.69406659	 15.29131347
Au	 13.70589374	 0.98583035	 19.37765159
Au	 13.43281706	 3.56691902	 21.30634279
Au	 14.91242829	 1.19415413	 22.04104326
Au	 15.65951651	 2.66373926	 19.66591671
No	 16.47239689	 2.27915894	 1.30536299
No	 16.50222127	 4.22264242	 3.35727966
Au	 18.30687581	 2.04098420	 3.96318680
Au	 18.72609632	 3.68337239	 1.60039780
No	 16.10903968	 2.61045195	 5.75000837
No	 16.08220410	 4.71186586	 7.75368004
No	 17.80561434	 2.49367178	 8.43102900
No	 18.29646684	 4.04916548	 6.01955256
No	 15.61770194	 3.19210803	 10.19757352
No	 15.55659569	 5.47111091	 12.16152804
No	 17.16802941	 3.18885859	 12.87737447
No	 17.74315625	 4.66350208	 10.43460373
No	 14.98480285	 4.01311443	 14.61182490
No	 14.89262542	 6.47038121	 16.52256469
No	 16.38227368	 4.11252931	 17.26546603
No	 17.06761676	 5.53100673	 14.82731434
No	 14.18024393	 5.03472782	 18.93265391
No	 14.04118944	 7.64574546	 20.75420283
No	 15.43402775	 5.23933888	 21.55250904
No	 16.24418481	 6.62214869	 19.14428012
No	 16.90483249	 5.85630315	 0.98667653
No	 17.00873781	 7.79915365	 2.90474534
No	 18.78691776	 5.61761632	 3.61910723
Au	 19.28902859	 7.20742334	 1.24131181
No	 16.53613595	 6.23935718	 5.31262339
No	 16.57542419	 8.32180346	 7.16553771
No	 18.29704131	 6.13362656	 7.98007008
No	 18.85386022	 7.62230385	 5.54157345
No	 16.07241697	 6.89154592	 9.66203711
No	 16.08519882	 9.14564190	 11.47340928
No	 17.70567954	 6.91571657	 12.34490823
No	 18.31222169	 8.28882200	 9.84115196
No	 15.53684871	 7.84577536	 14.04331377
No	 15.57996591	 10.32896840	 15.85730787
No	 17.00872650	 7.96486215	 16.68905238
No	 17.70246796	 9.25015485	 14.16420837
No	 14.85171238	 9.02617589	 18.34798740
No	 14.87087575	 11.67949102	 20.08809008
No	 16.15410693	 9.22162523	 20.92839351
No	 17.00527788	 10.49524722	 18.46926939
No	 17.50916334	 9.39406083	 0.53548134
No	 17.69714326	 11.33542817	 2.33261801
No	 19.43049213	 9.14125007	 3.13499082
Au	 20.02929866	 10.68797989	 0.75922545
No	 17.11528783	 9.80427504	 4.72269494
No	 17.22471056	 11.86347249	 6.43474563
No	 18.92890358	 9.69068514	 7.36297344
No	 19.57926983	 11.13722350	 4.93173765
No	 16.61733151	 10.45851923	 8.90671143
No	 16.65023199	 12.62952802	 10.51899781
No	 18.34356763	 10.50707131	 11.59752988
No	 19.01175879	 11.81379926	 9.07680092
No	 16.12599760	 11.47010487	 13.18639753
Au	 16.20017618	 13.86069670	 14.79987712
No	 17.74803997	 11.67194884	 15.90039467
No	 18.38707405	 12.77518295	 13.23885951
No	 15.72246791	 12.94947523	 17.63218254
Au	 15.99268148	 15.72711293	 19.38426910
No	 17.07448945	 13.13043077	 20.17745545
Au	 17.87534277	 14.20515848	 17.58018658
Au	 18.30774335	 12.89782950	 -0.02294853
Au	 18.59380104	 14.83971511	 1.66890498
Au	 20.26034614	 12.61945295	 2.53952843
Au	 20.96261521	 14.12499524	 0.17326387
No	 17.89295173	 13.33453842	 4.03338417
No	 18.10069044	 15.38684475	 5.63632708
No	 19.73755151	 13.18902090	 6.62781398
No	 20.50386372	 14.60861403	 4.22664658
No	 17.33636846	 13.96765435	 8.03510152
No	 17.45202197	 16.10980678	 9.52121440
No	 19.09856143	 13.97930309	 10.67384100
No	 19.90735049	 15.29008123	 8.21994261
No	 16.64641506	 14.79950736	 11.97145191
No	 16.58700929	 16.94129238	 13.24563482
No	 18.41954019	 15.06125010	 14.73652188
No	 19.18172920	 16.17138268	 12.14251245
Au	 15.83916693	 15.83916693	 15.83916693
Au	 15.01271606	 17.36296528	 16.31144164
Au	 18.19644213	 16.95538878	 19.30879476
Au	 18.33600110	 17.25394851	 15.98392472
Au	 0.67008228	 5.67941471	 21.00675436
Au	 1.12852445	 10.20877995	 20.39107663
Au	 -0.42618763	 12.59799254	 19.82593107
Au	 1.01830899	 13.03842765	 21.86487704
Au	 1.81981771	 14.69863471	 19.62768834
Au	 0.32896901	 17.09843996	 18.96548341
Au	 1.83359132	 17.51860472	 20.96049315
Au	 2.73745283	 19.12272617	 18.71456452
Au	 2.87432720	 21.91949123	 19.90994626
Au	 3.86978972	 23.45308981	 17.64979958
Au	 4.23770091	 5.41623174	 21.48668902
Au	 2.68060444	 7.81164811	 20.94224880
Au	 2.51168908	 10.62951926	 22.51149093
Au	 4.00664293	 8.21766985	 23.14849065
No	 4.77249512	 9.84944933	 20.89080689
Au	 3.81448182	 11.08803265	 24.68848688
No	 3.29882099	 12.28001276	 20.26824877
Au	 3.25584968	 15.09640197	 21.69838318
Au	 4.67097141	 12.66019189	 22.41829123
No	 5.55326769	 14.25594526	 20.16914505
Au	 4.61030113	 15.52911560	 23.82371430
No	 4.15438567	 16.70239639	 19.45590713
Au	 4.23346588	 19.49939848	 20.74637324
No	 5.57719413	 17.05669822	 21.55946769
No	 6.57590921	 18.60987182	 19.31858351
Au	 3.25599113	 17.96768660	 23.00880827
Au	 4.59675169	 18.45178982	 25.10782217
Au	 5.64457899	 19.90653507	 22.82977670
Au	 5.23419101	 21.04591602	 18.49818881
Au	 5.43363560	 23.81028470	 19.65307705
No	 6.71786073	 21.37985955	 20.56904805
Au	 7.81661985	 22.86790099	 18.32379106
Au	 4.36061612	 22.34522826	 21.92179800
Au	 5.76264232	 22.80248126	 23.98231560
Au	 6.90921508	 24.19441822	 21.70586023
Au	 5.80662237	 3.03187831	 22.03276602
Au	 5.50962604	 5.81146377	 23.78279921
Au	 7.74755949	 5.00656370	 22.12523874
No	 6.25207874	 7.42054884	 21.50579258
Au	 6.08694496	 10.21918781	 23.12641539
Au	 7.51320670	 7.78548174	 23.83267941
No	 8.33778018	 9.32768815	 21.53817636
Au	 7.31989612	 10.63562061	 25.41985494
No	 6.94198803	 11.79102191	 20.85799140
No	 6.90901247	 14.59383957	 22.34896443
No	 8.24015438	 12.12318893	 23.12334291
No	 9.18511528	 13.63484004	 20.84929603
Au	 5.96233417	 13.08189380	 24.62502338
Au	 5.88360170	 16.00283776	 26.00100981
Au	 7.17242235	 13.55022012	 26.88491096
No	 8.18412908	 14.97751509	 24.58585717
Au	 7.07584990	 16.52294234	 28.22695910
No	 7.89011657	 16.13721809	 20.10155017
No	 7.98022162	 18.91984969	 21.45569251
No	 9.22268100	 16.43008458	 22.30999782
No	 10.30929813	 17.92650773	 20.07493012
No	 6.91684360	 17.44840309	 23.71658584
Au	 6.97209771	 20.35078439	 24.96250273
Au	 8.17463548	 17.88438817	 25.92518089
No	 9.29937704	 19.26912123	 23.64460973
Au	 8.21729375	 20.83854619	 27.14204108
Au	 9.08373101	 20.42284418	 19.22466834
Au	 9.28469157	 23.16074501	 20.43633379
No	 10.46391062	 20.68781398	 21.39571459
Au	 11.67839702	 22.14437319	 19.18430246
No	 8.11327647	 21.74514762	 22.68901510
Au	 8.29748609	 24.61134069	 23.80516082
No	 9.42269171	 22.14911939	 24.85629894
No	 10.66002465	 23.48474739	 22.59434250
Au	 7.08138883	 23.29719412	 26.08865304
Au	 8.31800442	 23.83523617	 28.23787309
Au	 9.60002044	 25.06731685	 25.94830347
Au	 9.26267260	 2.61358652	 22.75635119
Au	 8.95580978	 5.36785201	 24.54565172
Au	 11.20037451	 4.47142214	 22.93546250
No	 9.75593539	 6.88556917	 22.22780895
No	 9.58504406	 9.66257298	 23.89752561
Au	 10.95206660	 7.22386943	 24.68332906
No	 11.82573205	 8.66519753	 22.34320857
Au	 8.68986700	 8.19973662	 26.21641308
Au	 8.46978146	 11.10254344	 27.76631411
Au	 10.74817843	 10.05146834	 26.31446516
No	 10.48876062	 11.13394553	 21.58691170
No	 10.46124691	 13.92733486	 23.14365751
No	 11.71927013	 11.43945858	 23.98051017
No	 12.69702891	 12.83411764	 21.65312015
No	 9.45788163	 12.50741193	 25.44787660
Au	 9.37843697	 15.41238187	 26.87647931
Au	 10.59308465	 12.94687887	 27.82615434
No	 11.65961064	 14.27886922	 25.49991482
Au	 10.49108524	 15.90266744	 29.21636899
No	 11.49771681	 15.37965167	 20.87013286
No	 11.60951839	 18.16966593	 22.30862136
No	 12.74418247	 15.62871867	 23.19079587
No	 13.87545027	 17.02448108	 20.92582000
No	 10.47565009	 16.77371171	 24.57638955
No	 10.53616735	 19.66599743	 25.88440168
No	 11.64939333	 17.17415353	 26.89788937
No	 12.83250223	 18.46957632	 24.60192280
Au	 9.35120329	 18.37052185	 28.18227621
Au	 9.38116416	 21.37565318	 29.36538192
Au	 10.44662122	 18.91168010	 30.48400211
No	 11.69215147	 20.11727854	 28.17282133
Au	 10.46437030	 21.96723079	 31.62890025
Au	 12.81454476	 19.63048034	 20.10241408
Au	 13.02926534	 22.36474950	 21.39012754
No	 14.06888552	 19.81554828	 22.35389873
Au	 15.41823223	 21.26415597	 20.20535533
No	 11.75571844	 20.99253410	 23.61538229
No	 11.94598621	 23.84796040	 24.79656721
No	 12.96464993	 21.34791547	 25.88494800
No	 14.28538682	 22.62194031	 23.63815886
No	 10.64844276	 22.59907675	 27.06906301
Au	 10.81870152	 25.56873525	 28.13269806
Au	 11.79241215	 23.10164899	 29.32489339
No	 13.14652846	 24.25905000	 27.04227954
Au	 11.95537731	 26.12172304	 30.35553068
Au	 12.34119934	 4.80892289	 25.48461578
Au	 14.59842563	 3.83340194	 23.93399602
No	 13.19858862	 6.23449587	 23.12712236
No	 13.00841865	 8.98269966	 24.83711606
Au	 14.32597225	 6.55631925	 25.71571385
No	 15.25190804	 7.90027307	 23.33450968
Au	 12.05869513	 7.61599772	 27.19266746
Au	 11.82465605	 10.49681328	 28.78259418
Au	 14.10062490	 9.35732310	 27.38406117
No	 13.94973951	 10.34107532	 22.47294432
No	 13.90866877	 13.11196310	 24.08343164
No	 15.11877103	 10.64131002	 25.00965128
No	 16.11935494	 11.90804474	 22.61703035
No	 12.86666241	 11.80438819	 26.43301291
No	 12.77698884	 14.69143332	 27.91147049
Au	 13.92735732	 12.22992799	 28.93672977
No	 15.03891014	 13.45537068	 26.57460732
Au	 11.64390728	 13.44450086	 30.25235856
Au	 11.52106513	 16.45192966	 31.60039423
Au	 13.81058861	 15.16684987	 30.37142346
No	 14.95067512	 14.41953801	 21.73385037
No	 15.08081506	 17.22275550	 23.26609960
No	 16.14385656	 14.67422070	 24.20578305
No	 17.22935112	 15.87367415	 21.81723389
No	 13.91862625	 15.94688431	 25.57885730
No	 13.97985957	 18.83381069	 26.95331903
No	 15.01523499	 16.33351777	 28.02523612
No	 16.22655493	 17.50684770	 25.68561408
No	 12.74280420	 17.63537729	 29.26973868
Au	 12.76771730	 20.62814119	 30.50618966
Au	 13.75435676	 18.16032625	 31.68618485
No	 15.04983962	 19.26579545	 29.35750963
Au	 13.76257628	 21.20255190	 32.87974349
Au	 16.31380116	 18.56863080	 21.02156939
Au	 16.60546466	 21.37631484	 22.46010534
No	 17.45752423	 18.69977816	 23.36531547
Au	 18.80809345	 20.01168303	 21.16247486
No	 15.25012246	 20.06448079	 24.66764810
No	 15.45723359	 22.93151173	 25.93381038
No	 16.36341353	 20.38906304	 27.04597043
No	 17.72379040	 21.55807723	 24.77863372
No	 14.09408035	 21.76265401	 28.20376698
No	 14.26504202	 24.72605672	 29.33021772
No	 15.14495655	 22.24256717	 30.56866251
No	 16.55222271	 23.30637073	 28.28015790
Au	 12.85580606	 23.66244290	 31.62050238
Au	 13.01161570	 26.73182662	 32.61350695
Au	 13.83926337	 24.28605245	 33.95173761
No	 15.30367111	 25.25550617	 31.65782407
Au	 13.98864163	 27.40386809	 34.90274163
Au	 3.41487399	 19.16134131	 -0.99346665
Au	 3.20418463	 19.57727949	 2.58565485
Au	 0.83797759	 20.05670383	 4.20308259
Au	 2.84343235	 20.15026934	 6.11215755
Au	 3.58261016	 21.85825571	 3.88952045
Au	 0.46627692	 20.71545508	 7.67737562
Au	 2.35341746	 20.89370999	 9.58662903
Au	 3.18477574	 22.55599877	 7.35503631
Au	 1.75649006	 21.82457710	 13.01125374
Au	 2.66769461	 23.42886331	 10.76467739
Au	 7.96097633	 18.61489981	 -0.62099780
Au	 5.58162447	 19.09948192	 0.97989227
Au	 5.97324937	 21.28989680	 2.33615456
No	 7.65512969	 19.04772860	 3.03639036
Au	 8.36971109	 20.71880935	 0.79067614
No	 5.24172799	 19.59677544	 4.56641405
Au	 5.58916764	 21.90818634	 5.86051119
No	 7.18310756	 19.62671471	 6.62031973
Au	 8.00979635	 21.26708042	 4.38216870
No	 4.75420798	 20.25118641	 8.09041643
Au	 5.07178002	 22.69182560	 9.32215678
No	 6.56646094	 20.36222378	 10.13195072
No	 7.49973232	 21.97030092	 7.90160672
No	 4.14663854	 21.08189770	 11.55816793
Au	 4.44435846	 23.65643646	 12.72370775
Au	 5.84326174	 21.28324335	 13.58668301
No	 6.86237388	 22.84111123	 11.35124657
Au	 8.81390619	 22.88126248	 2.12232998
Au	 8.40880119	 23.54639470	 5.64667309
Au	 5.98353850	 24.27866970	 7.07030582
Au	 7.86796887	 24.37377660	 9.09886377
Au	 8.85599242	 25.88095174	 6.82819216
Au	 5.44075323	 25.18866970	 10.46443470
Au	 7.21297676	 25.37549516	 12.48003456
Au	 8.29031934	 26.83082610	 10.20941537
Au	 10.33259928	 18.11625798	 -2.22462396
Au	 10.76341936	 20.13803443	 -0.75334280
Au	 12.47398175	 17.91624316	 -0.01758684
No	 10.07042002	 18.49104123	 1.51211858
Au	 10.43792620	 20.62406716	 2.91395849
No	 12.08562016	 18.38788519	 3.73134996
Au	 12.86147403	 19.96917798	 1.44648013
No	 9.63343731	 19.01167484	 5.17238650
No	 9.94977212	 21.26039622	 6.50301519
No	 11.51486328	 18.99685302	 7.38403236
No	 12.41007983	 20.55023680	 5.11799715
No	 9.02446676	 19.67020573	 8.74144267
No	 9.31087403	 22.04781312	 10.00704903
No	 10.76044972	 19.72841468	 10.92189961
No	 11.79068092	 21.27427132	 8.69378436
No	 8.27567185	 20.48493377	 12.22965085
No	 8.55337834	 23.00654359	 13.43630771
Au	 9.87653843	 20.61938641	 14.37500249
No	 11.01826638	 22.14257044	 12.16972400
Au	 13.28161166	 22.07868381	 2.82933286
Au	 10.84463151	 22.81581510	 4.23530204
Au	 11.29568677	 25.06284629	 5.47551768
No	 12.77799218	 22.77176343	 6.42424304
Au	 13.74050686	 24.24218503	 4.13125468
No	 10.31580071	 23.57050395	 7.75336282
Au	 10.73476536	 25.93665014	 8.92119967
No	 12.12317396	 23.61586263	 9.92585540
Au	 13.19481836	 25.04921670	 7.64976040
No	 9.65429286	 24.48669827	 11.18956969
Au	 10.05598396	 26.97925301	 12.28527542
No	 11.33923488	 24.62003876	 13.33611180
No	 12.51438742	 26.01511862	 11.07688392
Au	 14.24358880	 26.45646132	 5.35219853
Au	 13.66484459	 27.37822173	 8.79355265
Au	 11.20964182	 28.35309907	 10.00452313
Au	 12.96621112	 28.46521754	 12.14393058
Au	 14.19169611	 29.75372505	 9.85446516
Au	 14.85889191	 17.31968531	 -1.55918753
Au	 15.27119706	 19.29619352	 -0.02820409
Au	 16.92756834	 17.06301081	 0.81066169
No	 14.51957008	 17.73956725	 2.28004916
No	 14.86283803	 19.82484270	 3.73217662
No	 16.46979800	 17.59426089	 4.66680297
Au	 17.29563478	 19.07571452	 2.33438562
No	 14.00705801	 18.31325413	 6.03507001
No	 14.28563334	 20.50384945	 7.39977792
No	 15.83725047	 18.27665787	 8.42332496
No	 16.76788266	 19.71263275	 6.10174571
No	 13.29799534	 19.00872177	 9.66728154
No	 13.52945712	 21.31219278	 10.94854441
No	 14.98169597	 19.05265348	 12.01789921
No	 16.06516352	 20.49218651	 9.75695297
No	 12.38223990	 19.79844260	 13.14987831
No	 12.61589472	 22.25412295	 14.38033995
Au	 13.87316252	 19.86848326	 15.40511069
No	 15.16135689	 21.37555985	 13.25925073
Au	 15.71013130	 21.32785083	 1.42100117
Au	 16.18185041	 23.41214504	 2.78886554
Au	 17.69186018	 21.14192795	 3.77359994
No	 15.24119854	 21.96567866	 5.10145263
Au	 15.66158351	 24.16008984	 6.38902850
No	 17.10294529	 21.88488155	 7.45177847
Au	 18.12295106	 23.25947041	 5.12946067
No	 14.61264238	 22.75455740	 8.68504887
No	 14.99419094	 25.06263914	 9.89110346
No	 16.34751233	 22.76955560	 11.01343073
No	 17.48335735	 24.11016828	 8.71953815
No	 13.82765624	 23.68541250	 12.15779642
No	 14.19201485	 26.11938856	 13.28908278
No	 15.42448241	 23.78012472	 14.44090688
No	 16.69191905	 25.10735156	 12.19421599
Au	 18.59536870	 25.42591954	 6.40309009
Au	 16.12992000	 26.40518922	 7.59538943
Au	 16.65114827	 28.69718959	 8.72046288
No	 17.91598096	 26.38633575	 9.90643194
Au	 19.11501115	 27.63834854	 7.59533688
No	 15.43430565	 27.42342300	 11.01668882
Au	 15.93599889	 29.83123324	 12.06013303
No	 17.10186773	 27.50036264	 13.29741163
Au	 18.40605914	 28.70978717	 11.01269915
Au	 19.68707399	 29.89320919	 8.70671548
Au	 18.95763171	 31.07583266	 12.03790460
Au	 19.70595796	 18.30313417	 0.92116987
Au	 21.29361409	 16.05301798	 1.85254434
No	 18.89609615	 16.83768834	 3.27100866
No	 19.22058661	 18.88891356	 4.78376546
No	 20.76419966	 16.65119144	 5.81941811
Au	 21.64383229	 18.03573919	 3.44392317
No	 18.32628798	 17.48931355	 7.14213930
No	 18.57840355	 19.64125280	 8.55428014
No	 20.09193930	 17.43490593	 9.70672475
No	 21.04664401	 18.74365217	 7.31797149
No	 17.58270642	 18.29127259	 10.89995748
No	 17.75147244	 20.52436992	 12.18898748
No	 19.25829569	 18.37849384	 13.47745132
No	 20.29839852	 19.62134716	 11.09089400
No	 16.56510466	 19.13392197	 14.43147202
No	 16.67655595	 21.46018358	 15.61237563
Au	 18.04763975	 19.25769044	 16.90341846
No	 19.35298247	 20.61473846	 14.70066122
Au	 20.12324292	 20.29687927	 2.43401750
Au	 20.56979780	 22.34121323	 3.86292546
Au	 22.01866259	 20.06987803	 4.94745021
No	 19.57410068	 20.99123301	 6.20860280
No	 19.96404340	 23.14294296	 7.54762099
No	 21.35791053	 20.88363787	 8.72406345
Au	 22.42401962	 22.15253016	 6.36393513
No	 18.86795222	 21.84394438	 9.87823555
No	 19.20591364	 24.09875771	 11.11933936
No	 20.53935472	 21.85218376	 12.38044482
No	 21.70612704	 23.06997918	 10.04090490
No	 17.98181036	 22.82201309	 13.40492520
No	 18.28555094	 25.18662337	 14.55276999
No	 19.51502436	 22.91706943	 15.85490486
No	 20.83045679	 24.13291734	 13.58567887
Au	 21.05162885	 24.43337510	 5.20872935
Au	 21.57467209	 26.57050876	 6.47243013
Au	 22.86623752	 24.28110088	 7.69479966
No	 20.39778475	 25.34229208	 8.80300300
Au	 20.88202423	 27.58694804	 9.97647957
No	 22.10003610	 25.30202887	 11.27229033
Au	 23.35177807	 26.45307765	 8.94177643
No	 19.60104917	 26.40513931	 12.28081017
No	 20.05924355	 28.75999607	 13.36344391
No	 21.18468246	 26.46671791	 14.71384828
No	 22.54775442	 27.57860521	 12.42145414
Au	 23.88684482	 28.66572029	 10.10656322
Au	 21.42244221	 29.87369893	 11.06910751
Au	 22.02371133	 32.19846071	 12.08137870
No	 23.05588464	 29.89722605	 13.49038796
Au	 24.47706402	 30.91580319	 11.19057936
Au	 25.12734185	 33.19950345	 12.19490335
Au	 3.44520760	 22.11012787	 14.97528751
Au	 3.72687507	 24.81663433	 16.06536359
Au	 8.07510058	 25.59547912	 19.44009413
Au	 6.12721955	 23.90106088	 14.73904574
Au	 7.15688528	 27.05045803	 22.73117137
Au	 8.39087838	 28.36551513	 20.45103559
Au	 6.46707390	 26.56720853	 15.79278847
Au	 7.62101047	 27.95880916	 13.51616568
Au	 7.44112482	 21.50096433	 15.66678383
Au	 7.71476644	 24.16651101	 16.80584553
Au	 11.93224262	 24.84339095	 20.35648140
Au	 10.14153714	 23.19014503	 15.57070287
Au	 9.53683319	 25.93973006	 21.53648259
Au	 9.84718332	 28.75692049	 22.52764353
No	 10.90754096	 26.31746466	 23.67651270
Au	 12.24044714	 27.58170937	 21.42090539
Au	 8.53997550	 27.51552104	 24.80689583
Au	 9.83821594	 28.02045078	 26.92352246
Au	 11.21429500	 29.18393944	 24.64600908
No	 8.88845159	 25.58220024	 14.55080233
Au	 9.28339278	 28.20493620	 15.57092368
Au	 10.46505542	 25.81181074	 16.67107194
No	 11.72267324	 27.15120503	 14.41560340
Au	 8.04541581	 26.87688245	 17.84307473
Au	 8.43783956	 29.62702367	 18.77875975
Au	 12.60954697	 30.35602144	 22.37985542
Au	 10.84998790	 28.47762731	 17.67446097
Au	 11.58683179	 32.08080712	 25.50562578
Au	 13.04508918	 33.16204587	 23.23504404
Au	 10.51816912	 29.51863361	 13.29180489
Au	 12.16989880	 29.72821738	 15.40514028
Au	 13.48088382	 30.95953637	 13.12489063
Au	 11.29993829	 31.18153924	 18.58034337
Au	 12.68333865	 32.34422319	 16.30317347
Au	 11.36374125	 20.76473815	 16.55864359
Au	 11.62405650	 23.39372315	 17.74759333
Au	 15.68061099	 23.95801266	 21.45267218
Au	 14.09502257	 22.37840927	 16.62627233
Au	 13.28372991	 25.12774578	 22.55451784
Au	 13.59029478	 27.92225626	 23.60396932
No	 14.54055479	 25.44989569	 24.79173870
Au	 15.98450760	 26.67782956	 22.57948550
No	 12.18938536	 26.73517324	 25.85763058
Au	 12.49374221	 29.65213976	 26.80285563
No	 13.38520968	 27.19990509	 28.07774527
No	 14.84702749	 28.30262909	 25.82420797
Au	 11.05315772	 28.57091611	 29.07791216
Au	 12.18651775	 29.17249527	 31.26685066
Au	 13.68767309	 30.16748451	 28.99523316
No	 12.91884028	 24.77515306	 15.53101312
No	 13.28777358	 27.34915842	 16.59404764
Au	 14.38836378	 24.95187547	 17.76543808
No	 15.76390507	 26.25109660	 15.55030915
Au	 11.94118448	 26.06730722	 18.83513128
Au	 12.31984325	 28.78041342	 19.82161631
Au	 16.34361375	 29.42770108	 23.59555013
Au	 14.74859002	 27.57488894	 18.81365607
Au	 13.95750354	 30.74708315	 24.54320915
Au	 14.39200564	 33.59908990	 25.37540180
No	 15.21431997	 31.18005848	 26.74188988
Au	 16.76617564	 32.20616486	 24.50547140
Au	 12.86578666	 32.59570420	 27.63565151
Au	 14.06034554	 33.15830480	 29.79828884
Au	 15.64986480	 34.07992935	 27.54919938
No	 14.62239445	 28.60531648	 14.33759989
Au	 15.11977730	 31.13529342	 15.30019167
No	 16.17549597	 28.77577381	 16.57886567
No	 17.57917185	 29.94175681	 14.32021130
No	 13.72316651	 29.96728959	 17.56574807
Au	 14.22718463	 32.62230530	 18.44451273
Au	 15.17641269	 30.23861917	 19.76765624
No	 16.65827721	 31.34426141	 17.52169305
Au	 12.76459373	 31.52784152	 20.70768772
Au	 13.27982893	 34.30427985	 21.49426420
Au	 17.25834070	 35.00967206	 25.31216106
Au	 15.67436818	 32.93604815	 20.62640984
Au	 16.15978222	 36.99866901	 28.24956345
Au	 17.82524184	 37.83372749	 26.01795978
Au	 16.50197769	 32.28003956	 13.01999676
Au	 18.12544321	 32.42442770	 15.26023833
Au	 19.57404499	 33.47913725	 12.98145408
Au	 15.68606834	 33.70220879	 16.17508049
Au	 17.21322950	 33.94845492	 18.37632205
Au	 18.74260234	 34.94150051	 16.11595796
Au	 16.24567572	 35.66088611	 21.39000907
Au	 17.84241099	 36.58127610	 19.14179823
Au	 15.20269720	 19.91056386	 17.65211193
Au	 15.44452940	 22.50759078	 18.89150280
Au	 19.24289364	 22.87934060	 22.65995494
Au	 18.04692632	 21.54265683	 17.97572768
Au	 16.89172421	 24.16461815	 23.72584682
Au	 17.20701396	 26.95970769	 24.85217073
No	 18.01291429	 24.42038053	 26.03978770
Au	 19.58672290	 25.63617317	 23.89959746
No	 15.70898776	 25.82036545	 27.06903163
No	 16.01461124	 28.73055386	 28.08009872
No	 16.79514685	 26.24976315	 29.38735340
No	 18.33498436	 27.28695287	 27.15829876
No	 14.49794005	 27.71866422	 30.33472826
Au	 14.79854897	 30.73604629	 31.22028957
Au	 15.53004199	 28.29777473	 32.62588782
No	 17.09760297	 29.21436599	 30.37063904
Au	 15.82879253	 31.36362474	 33.47496375
No	 16.90541569	 23.89687671	 16.76301841
No	 17.22461728	 26.40955195	 17.85093839
Au	 18.25432858	 24.02360325	 19.10357463
No	 19.77095655	 25.30160900	 16.95835192
Au	 15.74303514	 25.14907524	 20.02976260
Au	 16.10288646	 27.82991633	 21.06732020
Au	 19.94930386	 28.38536580	 24.99137618
Au	 18.56596780	 26.59041547	 20.17807090
Au	 17.57147240	 29.77273583	 25.85653530
Au	 17.99706747	 32.60626550	 26.74793740
No	 18.70513255	 30.16390811	 28.14789853
Au	 20.36246055	 31.14981846	 25.96429366
No	 16.38273904	 31.66110646	 28.97309368
Au	 16.82076310	 34.60979594	 29.75292856
No	 17.46619083	 32.19693105	 31.23448815
No	 19.13556195	 33.05429617	 29.01875643
Au	 15.17262525	 33.77394905	 31.99016169
Au	 16.20490638	 34.44787152	 34.20783578
Au	 17.90741970	 35.19429817	 31.98342290
No	 18.66487092	 27.61175132	 15.62899292
No	 19.11896826	 30.08808227	 16.62818566
No	 20.11915009	 27.75830291	 18.00281101
No	 21.60943749	 28.85179990	 15.76699921
No	 17.62213321	 28.97768839	 18.85993486
No	 18.09434097	 31.58864710	 19.78274157
Au	 18.95811992	 29.21060375	 21.17170366
No	 20.55223618	 30.27157508	 18.97624955
Au	 16.52859406	 30.54489467	 22.00488425
Au	 17.02449675	 33.28868442	 22.84344181
Au	 20.83949221	 33.93340387	 26.82871888
Au	 19.42583579	 31.86992482	 22.07612443
Au	 18.49193321	 35.45888583	 27.53172679
Au	 19.06228597	 38.32726939	 28.21169198
No	 19.63534875	 35.95786288	 29.77780670
Au	 21.38822678	 36.73445812	 27.58987700
Au	 17.33496335	 37.57328699	 30.42364203
Au	 18.42723743	 38.20283362	 32.62161814
Au	 20.21146989	 38.87219345	 30.43008019
No	 20.58427433	 31.15834171	 14.36655143
Au	 21.17886839	 33.59422535	 15.28902142
No	 22.10796335	 31.28263013	 16.74379852
Au	 23.62939410	 32.25399888	 14.47990248
No	 19.64741926	 32.60653780	 17.54610376
Au	 20.25087362	 35.15897704	 18.38016174
No	 21.06579435	 32.82846294	 19.87062816
No	 22.68178683	 33.75210559	 17.64199754
No	 18.64135270	 34.23334048	 20.61626099
Au	 19.26494362	 36.90431607	 21.35949297
Au	 19.96944083	 34.55932326	 22.88867401
No	 21.65849748	 35.41884912	 20.68163508
Au	 17.59475116	 36.05586534	 23.58425648
Au	 18.24332191	 38.84093525	 24.22886582
Au	 22.01436899	 39.54925769	 28.25129715
Au	 20.59105867	 37.27158394	 23.60893357
Au	 20.86956934	 41.79357657	 30.97961878
Au	 22.72258596	 42.37316186	 28.81593128
Au	 24.27202134	 34.64397279	 15.39012485
Au	 21.84541051	 36.06137751	 16.12997598
Au	 23.33218894	 36.25289111	 18.45977919
Au	 24.98678132	 37.06158705	 16.22101795
Au	 20.93086663	 37.73808220	 19.12915880
Au	 22.33093752	 38.03443766	 21.40738129
Au	 24.06072103	 38.77791889	 19.19617090
Au	 21.29347152	 40.00024881	 24.23760057
Au	 23.08475327	 40.66798814	 22.04749391
Au	 20.08530952	 -0.16257208	 4.54676255
Au	 19.50403429	 0.25277322	 9.08482218
Au	 18.97207483	 -1.32657244	 11.46548225
Au	 18.77277872	 0.90003804	 13.58657266
Au	 21.00251245	 0.13133231	 11.90101758
Au	 18.14332205	 -0.61635575	 15.97917473
Au	 17.88935106	 1.77291605	 18.02572508
Au	 20.12915287	 0.90146947	 16.39531550
Au	 16.85170737	 2.85998574	 22.37423465
Au	 19.10708683	 1.89647482	 20.81345169
Au	 20.53315989	 3.41104254	 4.30966789
Au	 20.02197656	 1.82943537	 6.69633806
No	 19.97022970	 3.90370537	 8.75206494
Au	 21.61628125	 1.65020195	 9.49946472
Au	 22.22039861	 3.17058876	 7.09506471
No	 19.38053280	 2.40456206	 11.17523633
No	 19.27924655	 4.64149205	 13.17086806
Au	 20.83467397	 2.35010322	 13.97910630
Au	 21.52215592	 3.79156634	 11.54898093
No	 18.59838482	 3.21623810	 15.61131492
No	 18.45690708	 5.62048329	 17.54022283
Au	 19.91168351	 3.28280658	 18.39799616
No	 20.69288753	 4.65372128	 15.95999988
No	 17.66833039	 4.25157258	 19.97164152
No	 17.48771483	 6.81711395	 21.81673178
Au	 18.84477915	 4.43762660	 22.72784023
No	 19.72945353	 5.74980722	 20.30075623
Au	 21.04597430	 5.00439516	 1.93414590
Au	 21.13886192	 6.92946351	 3.92428516
Au	 22.82180543	 4.69893439	 4.69639784
No	 20.55231931	 5.40867998	 6.33066952
No	 20.58334221	 7.47856056	 8.25499058
Au	 22.19780726	 5.23382194	 9.11416761
Au	 22.87157412	 6.68628830	 6.68675409
No	 19.93564763	 6.05653381	 10.71206856
No	 19.92374399	 8.28401217	 12.57474384
No	 21.45042512	 6.01269649	 13.50194351
No	 22.19278547	 7.37093301	 11.03621641
No	 19.20797971	 6.96187560	 15.07227818
No	 19.17622076	 9.36570067	 16.88206321
No	 20.58473678	 7.04012523	 17.84415046
No	 21.40759868	 8.31051925	 15.35789413
No	 18.35731627	 8.11217687	 19.37499904
No	 18.30977374	 10.69192471	 21.11862288
No	 19.59030238	 8.30044683	 22.10426981
No	 20.51890310	 9.50835022	 19.63343452
Au	 21.73708299	 8.46980071	 1.53897526
Au	 21.91564486	 10.39334169	 3.41152127
Au	 23.55204770	 8.15501698	 4.27549748
No	 21.24047564	 8.92285106	 5.81923546
No	 21.35356631	 10.97859419	 7.61522630
No	 22.93491969	 8.74283075	 8.58064086
Au	 23.68867356	 10.13677456	 6.14706561
No	 20.62931902	 9.61469695	 10.07885054
No	 20.69139415	 11.80915154	 11.79696967
No	 22.20973948	 9.57695455	 12.85879392
No	 23.01503573	 10.86274835	 10.37470345
No	 19.93995471	 10.58203681	 14.33875848
No	 19.98962561	 12.94631865	 16.00305574
No	 21.40093284	 10.68263093	 17.11749058
No	 22.25213173	 11.84590020	 14.57891372
No	 19.19712294	 11.85675435	 18.60681055
No	 19.29206120	 14.44746599	 20.26146499
No	 20.50600602	 12.05945497	 21.33193004
No	 21.43952098	 13.12844410	 18.78361610
Au	 22.88031469	 13.80490793	 2.79384962
Au	 24.45792506	 11.55275892	 3.73730268
No	 22.10544935	 12.37828877	 5.18971738
No	 22.30969901	 14.41928346	 6.87095697
No	 23.84008596	 12.17957162	 7.92182545
Au	 24.68714518	 13.52472940	 5.49937943
No	 21.47966398	 13.08953271	 9.30781113
No	 21.61881121	 15.24710763	 10.89175984
No	 23.11374578	 13.03887553	 12.06469085
No	 24.00894865	 14.27736129	 9.59667104
No	 20.76664299	 14.05006282	 13.40060636
No	 20.84322863	 16.31712224	 14.87315695
No	 22.32133322	 14.16967420	 16.19191139
No	 23.23057191	 15.26187433	 13.64466273
No	 20.07800011	 15.37239332	 17.56685657
Au	 20.21020728	 17.85563155	 19.02966116
No	 21.53767073	 15.65268933	 20.36477343
No	 22.41312336	 16.53470202	 17.68804113
Au	 23.78609645	 2.96742571	 9.95072784
Au	 22.95217847	 3.71876213	 14.40543907
Au	 22.16921666	 2.33728567	 16.83923231
Au	 21.98657386	 4.70798348	 18.79958208
Au	 24.26095361	 3.69160304	 17.31705568
Au	 21.10995875	 3.39606336	 21.23486892
Au	 20.88831837	 5.92719948	 23.10722434
Au	 23.16246343	 4.81154196	 21.68668245
Au	 24.48428700	 6.48254278	 9.52179053
Au	 23.72149039	 5.09791948	 11.96309014
No	 23.67973325	 7.30337691	 13.87763984
Au	 25.12266805	 5.00637116	 14.87165871
Au	 25.97504928	 6.32306211	 12.42269069
No	 22.84195480	 6.00819019	 16.34493619
No	 22.76541444	 8.37472448	 18.18621773
Au	 24.11179523	 6.04967745	 19.23716081
Au	 25.04355319	 7.28087109	 16.77302891
No	 21.84068326	 7.15994609	 20.66005848
No	 21.73939090	 9.69117045	 22.42180185
Au	 22.97937824	 7.32958811	 23.51826990
No	 24.00027176	 8.48416605	 21.05692089
Au	 25.24879394	 7.87950184	 7.09096958
Au	 25.34524232	 9.92301135	 8.95910691
Au	 26.82490295	 7.64822855	 9.97875617
No	 24.51021285	 8.60496253	 11.41124344
No	 24.55877453	 10.79216275	 13.20070607
Au	 25.96387435	 8.51327931	 14.30339315
Au	 26.88253636	 9.75646489	 11.84036526
No	 23.66625121	 9.57963730	 15.69311148
No	 23.68637528	 11.92235830	 17.40851642
No	 24.99805336	 9.62699536	 18.57476639
No	 25.98114949	 10.76952472	 16.08401067
No	 22.73018208	 10.81623562	 19.93046578
No	 22.74554424	 13.33229314	 21.58089726
No	 23.93377022	 10.99257381	 22.77741844
No	 24.99247571	 12.04124768	 20.27703867
Au	 26.19188826	 11.26120541	 6.52751530
Au	 26.38087770	 13.29004468	 8.28433543
Au	 27.80795138	 11.01650096	 9.39285983
No	 25.46084858	 12.02768824	 10.72877534
No	 25.59819078	 14.18717179	 12.39677423
No	 26.96429581	 11.92634711	 13.60249838
Au	 27.95910795	 13.10586193	 11.14229386
No	 24.63288730	 13.03773734	 14.88699187
No	 24.73349231	 15.33335958	 16.46541347
No	 26.03108318	 13.08641654	 17.76273823
No	 27.07318430	 14.15166416	 15.26238906
No	 23.74532913	 14.32702621	 19.02314465
No	 23.84821721	 16.78896662	 20.53656617
No	 25.03384566	 14.52082609	 21.88113260
No	 26.11691174	 15.45757917	 19.33720474
Au	 27.34287682	 6.21295596	 15.38316722
Au	 26.28488087	 7.30908545	 19.71716335
Au	 25.26179693	 6.14381988	 22.17486784
Au	 25.11532328	 8.64628926	 23.96727687
Au	 27.40506213	 7.39397195	 22.70532825
Au	 28.29842962	 9.64147989	 14.78346082
Au	 27.29475045	 8.47232328	 17.25017626
No	 27.28045098	 10.79842087	 19.01662814
Au	 28.50286203	 8.48713029	 20.24545559
Au	 29.59171768	 9.58254755	 17.78128685
No	 26.20642460	 9.72472670	 21.49867988
No	 26.17275205	 12.20853027	 23.17982433
Au	 27.29360170	 9.87911092	 24.46067087
Au	 28.45676821	 10.88343465	 21.99200033
Au	 29.30397892	 10.82351067	 12.32652577
Au	 29.41944151	 12.97664148	 14.06602760
Au	 30.67830588	 10.68689693	 15.32143485
No	 28.34757793	 11.87900176	 16.53458913
No	 28.42980001	 14.17298159	 18.18361175
Au	 29.60896894	 11.88931458	 19.51701329
Au	 30.75982191	 12.90646945	 17.04782515
No	 27.30518442	 13.18668325	 20.68188233
No	 27.37403268	 15.63238837	 22.24557895
No	 28.45511415	 13.34235231	 23.63709866
No	 29.66517283	 14.25341369	 21.15084836
Au	 30.76215163	 9.58439987	 20.82719850
Au	 29.51143596	 11.02982598	 25.00461773
Au	 31.97888025	 12.89931461	 20.07992546
Au	 30.74805229	 11.96142140	 22.54252631
No	 30.77833612	 14.39610787	 24.15580601
Au	 31.76556561	 12.09992807	 25.60470424
Au	 33.07615819	 12.95925233	 23.15489157
Au	 34.05213608	 13.09056896	 26.26579496
Au	 16.58574596	 5.49377524	 24.22460448
Au	 16.36516463	 8.20929047	 25.96637376
Au	 17.63521791	 5.80304186	 26.94411591
Au	 18.62477728	 7.06218222	 24.53696298
Au	 15.10035817	 9.79173254	 29.97739730
Au	 17.37997079	 8.57664915	 28.64395365
No	 17.35485368	 9.46673631	 23.56078568
No	 17.27639949	 12.19658992	 25.20289832
No	 18.45384356	 9.76647011	 26.24031200
No	 19.50250605	 10.93306814	 23.80978943
No	 16.19573775	 11.00134508	 27.59787402
No	 16.08244350	 13.86358668	 29.11695419
Au	 17.17858765	 11.42359980	 30.23056790
No	 18.33828288	 12.54608755	 27.83707036
Au	 14.89914578	 12.71822258	 31.48474196
Au	 14.75845395	 15.70727992	 32.87307964
Au	 17.03636423	 14.33784605	 31.70254888
No	 18.32514285	 13.36092944	 22.77455338
No	 18.41213221	 16.11763880	 24.34343585
No	 19.47438983	 13.64589085	 25.41859499
No	 20.55981127	 14.69781872	 22.94691450
No	 17.25735720	 15.00060972	 26.74054223
No	 17.30024750	 17.86954309	 28.16902292
No	 18.28347918	 15.39532418	 29.32567896
No	 19.51309293	 16.43550570	 26.93058139
No	 16.02935072	 16.78841151	 30.52105128
No	 16.03978127	 19.76727460	 31.80758679
Au	 16.95796647	 17.31246624	 33.05833238
No	 18.29344490	 18.30664194	 30.70355130
Au	 14.68275834	 18.75162853	 34.14112984
Au	 14.67627987	 21.84377560	 35.28808353
Au	 16.94745415	 20.33977873	 34.29637905
No	 19.49753107	 17.16613147	 21.87521313
Au	 19.84204106	 20.03180625	 23.46496620
No	 20.69742412	 17.43123399	 24.48846755
Au	 21.72812672	 18.27904970	 21.88826141
No	 18.57114428	 18.95067467	 25.81699456
No	 18.79155488	 21.83594130	 27.17692399
No	 19.62232380	 19.29421857	 28.34206794
No	 20.93177151	 20.26238027	 25.96085738
No	 17.40537505	 20.79142069	 29.48232211
No	 17.57255490	 23.75385669	 30.67532770
No	 18.37074174	 21.27068427	 31.96731287
No	 19.80070885	 22.20824470	 29.64481316
No	 16.11673657	 22.79135847	 32.97457513
Au	 16.26337508	 25.85228485	 34.02113822
Au	 17.00845468	 23.41167177	 35.41549141
No	 18.51704442	 24.27713867	 33.11371160
Au	 17.14442682	 26.52004433	 36.41515052
Au	 19.65636448	 7.36330007	 27.30101321
Au	 21.93556892	 6.15961657	 25.95657785
No	 20.71169819	 8.53861037	 24.87598593
No	 20.58736788	 11.22732944	 26.54161324
Au	 21.72394925	 8.83373986	 27.68730689
No	 22.84330113	 9.92410812	 25.24735773
Au	 19.45124860	 10.12565022	 28.96197685
Au	 19.30351837	 12.95934448	 30.51271602
Au	 20.34752192	 10.54895153	 31.72065222
Au	 21.56655750	 11.58129140	 29.31082358
Au	 17.89927901	 14.88048495	 34.32447404
Au	 20.17174135	 13.43986965	 33.22371259
No	 21.69148455	 12.30061669	 24.08714094
No	 21.70693804	 14.98845319	 25.65968010
No	 22.76186246	 12.59264234	 26.87526422
No	 23.92075494	 13.57352388	 24.40115902
No	 20.52247302	 13.99009276	 28.10455988
No	 20.52343909	 16.82259212	 29.56460651
No	 21.46991562	 14.39815999	 30.82730007
No	 22.74311570	 15.33310814	 28.40388977
No	 19.21868347	 15.85874752	 31.95227587
No	 19.20141332	 18.81708037	 33.27924067
Au	 20.06152606	 16.39294875	 34.61303054
No	 21.44006065	 17.27951419	 32.23661595
Au	 17.79945575	 17.90749554	 35.62990903
Au	 17.77147094	 20.98513699	 36.81695558
Au	 20.02183578	 19.40174270	 35.88793068
No	 22.82444083	 15.92628679	 23.14471021
No	 22.98805295	 18.61025589	 24.63743334
No	 23.97161767	 16.22768006	 25.93284330
No	 25.13100017	 17.06477078	 23.39056023
No	 21.79643402	 17.75543080	 27.14351085
No	 21.96850162	 20.59950415	 28.53995109
No	 22.79515356	 18.14329912	 29.83517300
No	 24.09990459	 18.95902952	 27.38036038
No	 20.59500470	 19.71830801	 30.91994645
No	 20.73935770	 22.66755733	 32.16664848
No	 21.48207187	 20.21922847	 33.53793198
No	 22.92486559	 21.01936852	 31.16969591
No	 19.25541432	 21.82634716	 34.49180203
No	 19.38358735	 24.87766020	 35.58814510
Au	 20.05695461	 22.45896405	 37.04759643
No	 21.59960531	 23.20937431	 34.72940852
Au	 17.81937800	 24.10579962	 37.88508908
Au	 17.94693285	 27.26170515	 38.83425101
Au	 20.17051097	 25.55660796	 38.09124301
Au	 24.00350357	 7.55622344	 26.41591402
Au	 23.83433480	 10.21504699	 28.10811040
Au	 26.11338316	 8.86799806	 26.91405662
Au	 22.44170487	 12.00055096	 32.11317193
Au	 24.71520276	 10.57058330	 31.00072728
No	 25.01706905	 11.22076097	 25.65760782
No	 24.97464354	 13.86482734	 27.24764233
Au	 25.98427890	 11.50867596	 28.56903139
No	 27.23094681	 12.43133544	 26.11382644
No	 23.72178502	 12.94412478	 29.69513469
No	 23.67286799	 15.74008027	 31.17811229
Au	 24.57433447	 13.36176591	 32.54364561
No	 25.91345256	 14.21577186	 30.12029255
Au	 22.31752056	 14.87455345	 33.58155166
Au	 22.26208894	 17.80870589	 34.93953403
Au	 23.06636910	 15.42355968	 36.36194690
Au	 24.49902513	 16.21557078	 33.97882657
Au	 20.75391081	 20.06258255	 38.52249465
Au	 22.98977539	 18.41327749	 37.66702072
No	 26.19124111	 14.75797926	 24.76241312
No	 26.27091076	 17.37228030	 26.25029358
No	 27.22422061	 15.04777266	 27.66651919
No	 28.50393806	 15.86001979	 25.18155420
No	 24.99658389	 16.57706019	 28.74034811
No	 25.09260915	 19.35724547	 30.13996671
No	 25.90825729	 16.98644867	 31.56981306
No	 27.28160470	 17.72669073	 29.12189241
No	 23.69445447	 18.59924819	 32.55817301
No	 23.79267066	 21.51692343	 33.83579363
No	 24.49548571	 19.12750899	 35.30713097
No	 25.97645633	 19.81825706	 32.92015022
No	 22.28058187	 20.79698977	 36.18688521
No	 22.37728713	 23.83226939	 37.32292784
Au	 22.98968900	 21.45325709	 38.85930926
No	 24.56941467	 22.09238516	 36.52914096
Au	 20.77430999	 23.16996590	 39.62733443
Au	 20.87698692	 26.31542940	 40.61589719
Au	 23.07066284	 24.53672534	 39.93887099
Au	 28.26210363	 10.09641757	 27.45671345
Au	 28.17086407	 12.71670003	 29.07607531
Au	 30.44648362	 11.24312500	 28.04950371
Au	 26.83872581	 11.86310336	 31.50856186
Au	 26.74151550	 14.63384561	 33.01688108
Au	 28.99596609	 13.07110947	 32.06311227
Au	 25.22384679	 16.76476955	 36.80156142
Au	 27.46217775	 15.12522714	 35.93385845
No	 29.48284064	 13.55868094	 26.62305960
No	 29.50962340	 16.14595680	 28.14027645
Au	 30.39126902	 13.84150554	 29.63535893
Au	 31.77009172	 14.60518724	 27.19167423
No	 28.13878540	 15.39890010	 30.59250234
No	 28.17317436	 18.14026454	 32.00842430
Au	 28.93976655	 15.81881302	 33.53815669
No	 30.39547912	 16.49686359	 31.11851599
No	 26.71190732	 17.46403591	 34.41985126
No	 26.75659143	 20.34994968	 35.71926945
Au	 27.41124218	 18.01609758	 37.28715624
No	 28.95247545	 18.62213789	 34.90965364
Au	 25.19967114	 19.73212414	 38.07658040
Au	 25.25483501	 22.74776155	 39.24248231
Au	 25.80870663	 20.41693837	 40.86098067
Au	 27.43646424	 20.95808853	 38.53361971
Au	 23.67950796	 25.32426407	 42.56996598
Au	 25.84978357	 23.48571305	 41.96932696
Au	 32.64246152	 14.88544067	 30.25272749
Au	 31.18357510	 14.19664520	 32.66976434
Au	 31.16594598	 16.91931350	 34.11312993
Au	 33.39814386	 15.24191826	 33.33380022
Au	 29.63112185	 16.31385286	 36.50016632
Au	 29.62445977	 19.17934984	 37.82318258
Au	 31.82511819	 17.41931959	 37.12050006
Au	 28.01894835	 21.64740411	 41.35857529
Au	 30.19309043	 19.81760906	 40.74531385
Au	 23.16828591	 15.78065510	 4.46843331
Au	 23.47679778	 17.80906201	 6.05131134
Au	 24.93467452	 15.55207001	 7.16733299
Au	 25.88143804	 16.85039847	 4.76378781
No	 22.53158362	 16.51089057	 8.45315013
No	 22.77497623	 18.64823018	 9.93540587
No	 24.19725510	 16.42346238	 11.16841891
No	 25.20425902	 17.62989094	 8.73972437
No	 21.77013006	 17.44191972	 12.36182454
No	 21.93506636	 19.66670534	 13.71602145
No	 23.36141959	 17.51908137	 15.10595455
No	 24.40677846	 18.61099796	 12.63434791
No	 20.89313625	 18.57482405	 16.18416403
No	 20.89691644	 20.79606659	 17.31570346
No	 22.50406042	 18.90875301	 19.03924873
No	 23.49840869	 19.79445123	 16.43751441
Au	 24.86101821	 21.13913760	 5.16485618
Au	 26.23456640	 18.86136559	 6.33799442
No	 23.81079619	 19.88634907	 7.54239788
No	 24.17600082	 22.00934811	 8.94266671
No	 25.50001742	 19.75359022	 10.21595156
Au	 26.61594340	 20.91976654	 7.82253471
No	 23.04553609	 20.82795802	 11.31899673
No	 23.35162499	 23.04907545	 12.60798606
No	 24.64049946	 20.83419555	 13.99362496
No	 25.82697504	 21.91932859	 11.59671405
No	 22.12427071	 21.92257102	 14.96184476
No	 22.36041662	 24.22152114	 16.11764208
No	 23.63815222	 22.07631605	 17.63452256
No	 24.90515629	 23.09065685	 15.24957654
Au	 25.31480705	 23.19912168	 6.57496095
Au	 25.80633353	 25.30208430	 7.90026865
Au	 27.03071832	 23.02200154	 9.21802097
No	 24.57897926	 24.17557988	 10.25412735
No	 25.02686179	 26.38302603	 11.47946953
No	 26.19155164	 24.12445601	 12.88435420
Au	 27.48453781	 25.16486373	 10.52583338
No	 23.70385610	 25.31254366	 13.80848238
No	 24.11292223	 27.61939692	 14.92644156
No	 25.21300974	 25.38289385	 16.41082970
No	 26.60156357	 26.36751511	 14.08268245
Au	 26.34134347	 27.44495740	 9.14218242
Au	 26.92549612	 29.62459351	 10.30227136
Au	 27.98344876	 27.34546910	 11.74797021
No	 25.52673543	 28.62962853	 12.62146587
Au	 26.08500906	 30.91276245	 13.68243033
No	 27.06543773	 28.64756890	 15.19609868
Au	 28.53361121	 29.56102822	 12.88674271
Au	 29.14091516	 31.80853871	 13.94442446
Au	 27.60667777	 16.58631071	 7.52083376
Au	 28.96933455	 14.30794255	 8.70545956
No	 26.59101953	 15.37306595	 9.94412003
No	 26.82530930	 17.50456032	 11.50481982
No	 28.13507485	 15.24865572	 12.79250245
Au	 29.21887004	 16.37451513	 10.35261883
No	 25.75859381	 16.39394084	 13.95922317
No	 25.94185716	 18.63912183	 15.41144969
No	 27.21080649	 16.42488426	 16.81637141
No	 28.33829647	 17.43848833	 14.34094618
No	 24.85743346	 17.66681863	 17.92781007
No	 24.99260789	 20.01752445	 19.25812548
No	 26.23975308	 17.87455522	 20.80336052
No	 27.37643600	 18.73634331	 18.25907966
Au	 27.92042067	 18.64717187	 9.08453179
Au	 28.26382951	 20.75310156	 10.55499006
Au	 29.49617998	 18.48883375	 11.90381379
Au	 30.67497652	 19.56310413	 9.49229367
No	 27.08669261	 19.67877768	 12.96490404
No	 27.37875766	 21.89055793	 14.32404668
No	 28.57051235	 19.66837064	 15.78500339
No	 29.80475950	 20.64569998	 13.35816485
No	 26.14680890	 20.91306061	 16.74875482
No	 26.37452983	 23.20830182	 17.96971149
No	 27.56569364	 21.07310991	 19.58240196
No	 28.83320087	 21.93116307	 17.12251038
Au	 29.91876366	 23.92422558	 9.55677275
Au	 31.06219784	 21.64831142	 10.95816715
No	 28.64158388	 22.90002214	 11.93268712
No	 29.05910853	 25.08448706	 13.21917004
No	 30.14844195	 22.84023444	 14.71563282
Au	 31.48628684	 23.77303845	 12.33366936
No	 27.70683874	 24.13630279	 15.58409931
No	 28.07894345	 26.41476690	 16.74972614
No	 29.12899874	 24.22087613	 18.35319511
No	 30.53193312	 25.06834728	 15.97748727
Au	 30.41970500	 26.04107342	 10.86286126
Au	 30.96636431	 28.19273672	 12.08433546
Au	 31.95209410	 25.93342036	 13.61997638
No	 29.52265388	 27.30375181	 14.41703080
No	 30.03901894	 29.55554104	 15.52954736
No	 30.96130413	 27.32715528	 17.14665245
Au	 32.46494376	 28.12600360	 14.81903755
Au	 31.56417226	 30.37589552	 13.22316552
Au	 32.21845776	 32.58716717	 14.28148606
Au	 33.03054151	 30.34767231	 15.93342424
Au	 30.50293209	 14.09498421	 11.61744267
Au	 30.71650990	 16.22034579	 13.25315213
Au	 31.91755256	 13.94101550	 14.59349410
No	 29.56417953	 15.18294988	 15.70493276
No	 29.74053707	 17.43572835	 17.24062138
No	 30.87565541	 15.17931972	 18.67291618
Au	 32.09793587	 16.12851298	 16.21556489
No	 28.54777184	 16.51664660	 19.72794807
No	 28.70216936	 18.90133464	 21.16351136
No	 29.76427519	 16.66910340	 22.68160936
No	 31.02855653	 17.49889166	 20.19453934
Au	 32.20377748	 19.37583713	 12.36895764
Au	 33.33561041	 17.10077091	 13.78110535
No	 30.96079596	 18.39189962	 14.79025992
No	 31.23852174	 20.60363780	 16.22727991
No	 32.31275680	 18.36108330	 17.73714292
Au	 33.61881993	 19.25265193	 15.30928214
No	 29.94957550	 19.72714666	 18.66978565
No	 30.19079661	 22.04807016	 19.98831190
No	 31.21985120	 19.85734125	 21.60961971
No	 32.56418293	 20.63203807	 19.15625998
Au	 32.55574653	 21.51248605	 13.81864174
Au	 32.94606011	 23.68597356	 15.17463747
Au	 33.93883795	 21.44397469	 16.74076489
Au	 35.33431341	 22.28013597	 14.35067494
No	 31.55233386	 22.84954891	 17.56324155
No	 31.90548312	 25.12424917	 18.79837999
No	 32.85364551	 22.93413467	 20.47085620
No	 34.29885443	 23.66928623	 18.07523366
Au	 34.86698326	 26.67451951	 14.09300922
Au	 35.76716614	 24.42995369	 15.70630658
No	 33.37907760	 25.89197926	 16.43798629
No	 33.85987588	 28.12683584	 17.61080392
No	 34.70236507	 25.92348609	 19.31320804
Au	 36.24498788	 26.61082628	 16.97193049
Au	 35.42513792	 28.83814698	 15.29510478
Au	 36.03640395	 31.02797584	 16.41380670
Au	 36.77227898	 28.81868095	 18.14928090
Au	 33.21181678	 13.85056183	 17.62638675
Au	 33.36150998	 16.10312746	 19.23222315
Au	 34.38481731	 13.82789963	 20.70867072
No	 32.06741760	 15.24082347	 21.68767774
No	 32.19900206	 17.62971170	 23.19242959
Au	 33.13849104	 15.37068200	 24.74087377
Au	 34.50593612	 16.14787409	 22.29505630
Au	 34.66731233	 16.98665148	 16.79614516
Au	 34.91933274	 19.19855610	 18.30686897
Au	 35.88046041	 16.94294382	 19.86340793
No	 33.55015580	 18.40014254	 20.73651382
No	 33.77980612	 20.73460736	 22.13722331
No	 34.67107904	 18.51203703	 23.77952524
Au	 36.10440211	 19.21788749	 21.35447414
Au	 36.66514549	 22.18955326	 17.32862350
Au	 37.55316190	 19.94726890	 18.95180587
No	 35.21114429	 21.44799717	 19.71856406
No	 35.54516045	 23.72872288	 21.03030612
No	 36.37189222	 21.52889493	 22.74494588
Au	 37.88298435	 22.17410117	 20.35841849
Au	 37.06731864	 24.39171890	 18.66258679
Au	 37.51595995	 26.62195702	 19.90350417
Au	 38.25810547	 24.43149422	 21.66872783
Au	 39.85220450	 25.01846382	 19.32920600
Au	 39.69483143	 29.40657454	 18.76785602
Au	 40.34165823	 27.22245676	 20.57406141
Au	 35.53059815	 16.26627477	 25.39599740
Au	 36.97443200	 16.97376026	 22.97532311
Au	 37.17314547	 19.31433459	 24.44413053
Au	 37.94907159	 17.08292098	 26.12414509
Au	 38.68395521	 19.95099995	 22.04990381
Au	 38.98779323	 22.23838941	 23.43332517
Au	 39.69811284	 20.03570405	 25.18774528
Au	 40.98600563	 25.04322358	 22.38884304
Au	 41.62025240	 22.86279234	 24.20394192
Au	 19.92374385	 19.92374385	 19.92374385
Au	 19.16622703	 21.51773705	 20.23790890
Au	 22.12295242	 21.11270162	 23.45972163
Au	 22.48885831	 21.18042123	 20.13934479
Au	 20.24863935	 22.95029856	 24.93981343
Au	 20.63603601	 25.82372626	 26.21687256
No	 21.25034238	 23.16538420	 27.34164128
Au	 22.81966769	 24.24135841	 25.15597525
No	 19.06166940	 24.74843229	 28.40689966
No	 19.37954443	 27.67477399	 29.50298727
No	 20.04376526	 25.16034172	 30.82909002
No	 21.61738084	 26.08912300	 28.58874751
No	 17.80301124	 26.74649554	 31.74574457
No	 18.09999202	 29.76177757	 32.69429687
No	 18.73410819	 27.31608584	 34.14074219
No	 20.34874639	 28.13576677	 31.88898819
Au	 16.48329395	 28.94252656	 34.94768083
Au	 16.78053885	 32.05542666	 35.75573375
Au	 17.35889602	 29.65717890	 37.29572851
No	 19.02450655	 30.37898360	 35.04826119
No	 20.94692272	 23.05973690	 18.35858904
No	 21.13891665	 25.44785000	 19.39709851
Au	 22.27755456	 23.25488905	 20.91105504
No	 23.80483545	 24.37864129	 18.71965540
Au	 19.44117918	 24.13199113	 21.42695268
Au	 19.77735919	 26.78550950	 22.51550429
Au	 23.34991956	 27.16951141	 26.49750822
Au	 22.36187002	 25.60164965	 21.83654114
Au	 21.02752605	 28.66670976	 27.32270337
Au	 21.45706019	 31.50538012	 28.29120207
No	 22.01692567	 29.00531577	 29.68559109
Au	 23.79827471	 29.97583516	 27.58313366
No	 19.75148261	 30.61136736	 30.47028487
No	 20.18621671	 33.55760261	 31.31619450
No	 20.71726042	 31.12536013	 32.82439285
No	 22.45844795	 31.91423047	 30.64230757
No	 18.46818724	 32.79418350	 33.52371178
Au	 18.91286681	 35.83914059	 34.23762743
Au	 19.39177137	 33.45882922	 35.83785395
No	 21.15418603	 34.12413513	 33.63903684
No	 22.66671960	 26.57605755	 17.20072150
No	 23.05481076	 28.98818673	 18.21669681
No	 24.04728032	 26.73800085	 19.73646748
No	 25.57936757	 27.71609507	 17.48834036
No	 21.45705310	 27.93661237	 20.40639535
No	 21.87411100	 30.49124678	 21.35449985
Au	 22.66299823	 28.13430333	 22.81895491
No	 24.39185119	 29.17000444	 20.70381184
Au	 20.17923000	 29.47305152	 23.50434146
Au	 20.65107860	 32.18927496	 24.39451942
Au	 24.27400577	 32.76355858	 28.52323149
Au	 23.07695818	 30.74242889	 23.74981710
Au	 21.94434683	 34.35074897	 29.14039773
Au	 22.50091405	 37.20522094	 29.87988538
No	 22.95656768	 34.82192540	 31.47319611
Au	 24.80851958	 35.55543126	 29.34737183
No	 20.69190255	 36.51237951	 32.04740712
Au	 21.27544743	 39.47334598	 32.66944420
No	 21.66560112	 37.12874323	 34.33801568
No	 23.52300647	 37.73135340	 32.18900468
No	 24.58731109	 29.96875215	 15.96568542
No	 25.13262785	 32.35721549	 16.92759020
No	 26.01691249	 30.09309085	 18.48999531
No	 27.59097711	 30.96314992	 16.22843674
No	 23.52664906	 31.45111600	 19.16260010
No	 24.08115379	 33.95526003	 20.03357237
No	 24.83676808	 31.66419681	 21.61404912
No	 26.53277339	 32.51177772	 19.41843549
No	 22.37775845	 33.09099035	 22.22575768
No	 22.96400083	 35.72299951	 23.01347929
Au	 23.57967941	 33.39332129	 24.60217662
No	 25.37440739	 34.20472611	 22.45567732
Au	 21.19700605	 34.92874828	 25.18736865
Au	 21.82091778	 37.68596307	 25.88449213
Au	 25.41467158	 38.35517041	 30.06652297
Au	 24.16580699	 36.07255006	 25.36827799
Au	 23.13443519	 40.06723982	 30.51562083
Au	 23.85064368	 42.93335653	 31.05199712
No	 24.16635401	 40.64215675	 32.79725756
Au	 26.09982119	 41.16097862	 30.68651209
Au	 26.70706025	 33.22894563	 14.66399277
Au	 27.39724021	 35.57385266	 15.56720787
No	 28.18446796	 33.31150741	 17.18227328
Au	 29.81066075	 34.08453222	 14.92300360
No	 25.75234601	 34.77954027	 17.81203119
Au	 26.44885497	 37.22955667	 18.61845352
No	 27.12989369	 34.96635504	 20.27289327
Au	 28.85054787	 35.68850951	 18.05898809
No	 24.71756421	 36.49132250	 20.82592411
Au	 25.43614745	 39.05098412	 21.53763082
No	 26.00000650	 36.77842482	 23.22120414
No	 27.80946198	 37.44950478	 21.05167320
No	 23.63253898	 38.37801167	 23.71515351
Au	 24.38470787	 41.04842830	 24.33036648
Au	 24.83522894	 38.77090044	 26.04605872
No	 26.71184015	 39.37501380	 23.90687772
Au	 22.52651433	 40.45534672	 26.48776193
Au	 23.31728250	 43.23127510	 26.99931538
Au	 26.86918222	 43.96902702	 31.21146459
Au	 25.58960681	 41.48102718	 26.63569218
No	 24.00001307	 19.30335535	 21.94863158
Au	 24.20554802	 21.86522970	 23.25947229
No	 25.29797213	 19.67746644	 24.81444492
No	 26.39510930	 20.32344191	 22.15206530
No	 23.27278656	 21.41204478	 26.08879433
Au	 23.70724446	 24.34997767	 27.51634139
No	 24.32253985	 21.77493671	 28.75439911
Au	 25.56724331	 22.38227198	 26.18067254
No	 22.22330108	 23.50876750	 29.84149494
No	 22.54979160	 26.45867071	 31.03070785
No	 23.13566291	 23.95317868	 32.40451873
No	 24.65230883	 24.67754837	 30.05990196
No	 20.95638108	 25.65800166	 33.29948512
No	 21.24538614	 28.67697851	 34.31412464
No	 21.79480054	 26.24025028	 35.80843805
No	 23.42577505	 26.93054009	 33.53220157
No	 19.58845923	 27.96191978	 36.56704115
Au	 19.87267330	 31.07052740	 37.42834745
Au	 20.36565281	 28.68629086	 39.01842418
No	 22.06884274	 29.30126635	 36.77253561
No	 25.11065521	 22.34984010	 20.42637902
No	 25.19152259	 24.63679708	 21.41511682
No	 26.55924199	 22.77173868	 23.35583150
No	 27.77035432	 23.41896184	 20.77580816
Au	 23.99912913	 23.99912913	 23.99912913
Au	 23.33396324	 25.65741863	 24.16524111
Au	 26.05081958	 25.28396576	 27.59534033
Au	 26.62651473	 25.10800498	 24.30885462
Au	 24.21419882	 27.32900698	 28.83029555
Au	 24.71135650	 30.25121373	 29.94881461
No	 25.07643126	 27.64038683	 31.27529976
Au	 26.84685846	 28.46892661	 29.13596627
No	 22.93568251	 29.42395511	 32.09211373
No	 23.37839496	 32.39116225	 33.02249848
No	 23.79019811	 29.93391499	 34.54383390
No	 25.55852368	 30.61197353	 32.35950414
No	 21.60704691	 31.71394661	 35.20900782
No	 22.04405048	 34.76122353	 35.98554246
No	 22.42294568	 32.38230188	 37.62043867
No	 24.22558545	 32.94840015	 35.43426575
No	 26.63523302	 25.52578199	 19.08242148
No	 26.95115255	 27.87726239	 20.10591489
No	 27.98657009	 25.76217047	 21.83500027
No	 29.46424960	 26.53492279	 19.48096730
No	 25.32676473	 26.95723607	 22.31599786
No	 25.61194513	 29.39246626	 23.21420378
Au	 26.50585218	 27.23828639	 24.93411008
No	 28.23794121	 28.11664346	 22.78329748
Au	 23.70740604	 28.32268458	 25.20478237
Au	 24.15069019	 31.01656130	 26.14587149
Au	 27.48589793	 31.44101717	 30.32477408
Au	 26.68809376	 29.63153333	 25.71518373
Au	 25.22123281	 33.13147128	 30.89898509
Au	 25.77726231	 35.99593959	 31.71519048
No	 26.08184516	 33.56403732	 33.29670005
Au	 28.05122585	 34.27988301	 31.26088468
No	 23.88364875	 35.35665422	 33.82758187
No	 24.45963879	 38.31977163	 34.51535340
No	 24.73293713	 35.96476615	 36.20406012
No	 26.65521394	 36.49692857	 34.09759349
No	 28.50532426	 28.72665228	 17.82765560
No	 28.99632729	 31.07271860	 18.82446482
No	 29.85079284	 28.87561413	 20.51507632
No	 31.44400468	 29.61497342	 18.22753303
No	 27.34516007	 30.27489690	 21.05819168
No	 27.82862199	 32.72033221	 21.94549010
No	 28.57280390	 30.51865564	 23.66503911
No	 30.30353497	 31.24789159	 21.46712644
No	 26.03125057	 31.91812972	 24.08543052
No	 26.55725437	 34.49916448	 24.89818878
Au	 27.09505224	 32.20017894	 26.55577529
No	 29.01727585	 32.98336236	 24.49977926
Au	 24.66786344	 33.73360361	 26.98990593
Au	 25.26277433	 36.46829457	 27.73855408
Au	 28.65164430	 37.08885172	 32.05504982
Au	 27.62259889	 34.83352992	 27.34782534
Au	 26.39868019	 38.85555484	 32.41600850
Au	 27.09652877	 41.71263112	 33.01161047
No	 27.29270115	 39.41671981	 34.77701823
Au	 29.31809935	 39.89058685	 32.73738647
No	 30.61495185	 31.83754807	 16.56007992
Au	 31.25651634	 34.14691342	 17.51152208
No	 31.98809036	 31.93063607	 19.22512888
Au	 33.65469251	 32.59541851	 16.96602113
No	 29.56010825	 33.45181173	 19.74457867
No	 30.20193784	 35.86029421	 20.58995148
No	 30.83480280	 33.65430781	 22.34563805
No	 32.60099544	 34.27245059	 20.14386775
No	 28.40322269	 35.20648466	 22.76540782
No	 29.06755173	 37.72355321	 23.51363124
No	 29.56936562	 35.49995512	 25.28044327
No	 31.45139135	 36.09249948	 23.15384576
No	 27.17727139	 37.11462194	 25.63736314
No	 27.88688695	 39.75151626	 26.29682643
Au	 28.24626901	 37.49872575	 28.06493258
No	 30.22114450	 38.05235857	 25.99605775
Au	 25.93906311	 39.21505818	 28.39375169
Au	 26.70015316	 41.96827218	 28.95769764
Au	 30.06295682	 42.68871820	 33.31943994
Au	 28.96025415	 40.18121412	 28.69991676
No	 27.49194207	 18.13066878	 23.70763915
No	 27.66371203	 20.67652299	 25.06826499
No	 28.60996986	 18.43329472	 26.62728977
No	 29.90922296	 19.12967549	 24.10754720
No	 26.42442400	 20.05448135	 27.65128248
No	 26.67270663	 22.81628417	 28.98150139
No	 27.41319897	 20.46841574	 30.48527632
No	 28.78172727	 21.06090419	 27.97844972
No	 25.27315265	 22.20573737	 31.45123565
No	 25.54649007	 25.12005535	 32.67616144
No	 26.12584142	 22.70862454	 34.17390971
No	 27.63226685	 23.27659874	 31.76517890
No	 23.97191485	 24.48619840	 35.00989591
No	 24.23396728	 27.49703277	 36.07731345
No	 24.72551546	 25.10372710	 37.64473977
No	 26.36298166	 25.65332991	 35.33236845
No	 22.55547710	 26.90623109	 38.34660532
No	 22.81756315	 30.00972286	 39.25685664
Au	 23.23652986	 27.65610397	 40.90563126
No	 24.96701673	 28.15328928	 38.65283214
No	 28.88954660	 21.31453996	 22.48272561
No	 29.09748304	 23.73544513	 23.67007965
No	 30.10081977	 21.62636901	 25.42523004
No	 31.44850816	 22.24473332	 22.91336750
No	 27.89398423	 23.26482714	 26.32793863
Au	 28.18723198	 25.89034699	 27.48742103
No	 29.03290793	 23.74694680	 29.24477877
No	 30.33423195	 24.14501184	 26.62612272
No	 27.05201170	 25.68512495	 30.27123902
Au	 27.59094765	 28.67863615	 31.53872971
No	 27.95548569	 26.15822961	 32.97291037
Au	 29.39567373	 26.51451401	 30.45475010
No	 25.91245747	 28.08783446	 33.80802158
No	 26.35951472	 31.08415591	 34.83024953
No	 26.69091642	 28.64386151	 36.39333239
No	 28.39542255	 29.11497822	 34.11410840
No	 24.57821729	 30.53679937	 37.03360120
No	 25.00340751	 33.59264341	 37.87518837
No	 25.29556699	 31.23110408	 39.55156781
No	 27.10740323	 31.66570478	 37.35015870
No	 30.46268458	 24.38864561	 21.19204414
No	 30.76590926	 26.74128650	 22.28009738
No	 31.70981249	 24.64792399	 24.09821903
No	 33.18227719	 25.26002735	 21.67931978
No	 29.29723574	 26.12833581	 24.69605278
No	 29.46813052	 28.46644490	 25.54361107
No	 30.58537248	 26.65289072	 27.68329897
No	 31.99515135	 27.05057113	 25.15415185
Au	 28.07765955	 28.07765955	 28.07765955
Au	 27.51480911	 29.78124415	 28.09531973
Au	 29.98191837	 29.46802163	 31.71493567
Au	 30.74822976	 29.03857807	 28.49131650
Au	 28.21188445	 31.70101033	 32.69535657
Au	 28.83146265	 34.65442341	 33.66024878
No	 28.93893449	 32.11983988	 35.16809348
Au	 30.89030232	 32.69252615	 33.10367287
No	 26.87470795	 34.08360325	 35.72819014
No	 27.45477503	 37.07272107	 36.49930959
No	 27.60684873	 34.70111448	 38.19473378
No	 29.54892818	 35.12108616	 36.09473701
No	 32.30292723	 27.42394600	 19.93511762
No	 32.75226724	 29.74721037	 20.97870888
No	 33.55232270	 27.60356922	 22.78192806
No	 35.15370529	 28.20229267	 20.45651972
No	 31.11019888	 29.10682763	 23.26115998
No	 31.51729126	 31.49686093	 24.15492764
No	 32.30018122	 29.44094894	 26.07736068
No	 33.96968392	 29.96204864	 23.78315713
No	 29.70087085	 30.82867285	 26.30520495
No	 30.09071981	 33.29569830	 27.06694706
Au	 30.73066201	 31.20906494	 28.97327170
No	 32.64787587	 31.83298670	 26.89176957
Au	 27.99903433	 32.48124242	 28.98934623
Au	 28.56084372	 35.19884125	 29.78818801
Au	 31.65010909	 35.69144864	 34.14488145
Au	 31.02250612	 33.63291082	 29.61414388
Au	 29.47140512	 37.55408422	 34.46094984
Au	 30.16460399	 40.42624599	 35.13229239
No	 30.20783894	 38.09055534	 36.87893826
Au	 32.34339836	 38.54550177	 34.93784340
No	 34.39433559	 30.38759311	 18.69625779
No	 34.98887216	 32.67177947	 19.69820571
No	 35.65854727	 30.50265086	 21.50866373
Au	 37.35399062	 31.04987641	 19.24086788
No	 33.26334059	 32.09454985	 21.93649170
No	 33.84609122	 34.46651352	 22.81565597
No	 34.44572852	 32.33764420	 24.69286058
No	 36.22392347	 32.82271129	 22.47462637
No	 32.00964940	 33.92326112	 24.98008813
No	 32.59831332	 36.38737457	 25.74350641
No	 33.08601911	 34.26274381	 27.64248573
No	 34.99490656	 34.73511935	 25.52327709
No	 30.62182531	 35.84263469	 27.80510081
No	 31.26650641	 38.43418186	 28.48866936
Au	 31.54607986	 36.22138435	 30.31829226
No	 33.64040909	 36.74498508	 28.34977330
Au	 29.20381938	 37.92845881	 30.49384479
Au	 29.93132337	 40.66447224	 31.10857738
Au	 33.07848706	 41.35816543	 35.59364334
Au	 32.19706315	 38.86355838	 30.97808263
No	 30.85792405	 16.88354597	 25.66702997
No	 30.99158557	 19.41869285	 27.07647158
No	 31.82935162	 17.16329140	 28.67667211
No	 33.24977017	 17.83000960	 26.22440511
No	 29.59885111	 18.78880828	 29.55872410
No	 29.75921291	 21.48613917	 30.88288256
No	 30.46590918	 19.20600915	 32.50134414
No	 31.94905167	 19.77007042	 30.06113997
No	 28.28225288	 20.93903656	 33.32745274
No	 28.47542123	 23.79467945	 34.55447065
No	 29.04110397	 21.47793189	 36.18023315
No	 30.61039596	 21.96691680	 33.78762508
No	 26.88209616	 23.28758399	 36.91694552
No	 27.09417994	 26.27190339	 38.01405440
No	 27.54367724	 23.94640008	 39.67479836
No	 29.21306112	 24.38344224	 37.35311027
No	 25.39410345	 25.80535063	 40.29975278
No	 25.62131453	 28.89747325	 41.24844659
Au	 25.97741421	 26.59228184	 42.96730931
No	 27.73817451	 26.97554218	 40.71197410
No	 32.37600924	 20.05889651	 24.59221076
No	 32.59879130	 22.51943812	 25.88353593
No	 33.41361721	 20.33119314	 27.60492760
No	 34.88268430	 20.91354423	 25.16050900
No	 31.18392792	 21.99638795	 28.38468412
No	 31.43938573	 24.61136505	 29.59249922
No	 32.13556527	 22.42210356	 31.34763551
No	 33.63263011	 22.86725253	 28.88131301
No	 30.00303484	 24.24071540	 32.12118759
No	 30.35092906	 27.06395786	 33.29035526
No	 30.83868705	 24.77963636	 34.98331762
No	 32.39703205	 25.11786806	 32.54093108
No	 28.76279781	 26.70721085	 35.69486701
No	 29.15233414	 29.67377838	 36.75134434
No	 29.47577301	 27.33579493	 38.43155773
No	 31.16370343	 27.64754285	 36.09754820
No	 27.39683099	 29.29568340	 39.01024477
No	 27.79135230	 32.34860417	 39.90310704
No	 28.02421719	 30.03876883	 41.64574630
No	 29.83542146	 30.33046200	 39.41754656
No	 34.05120368	 23.09843836	 23.43161577
No	 34.36350164	 25.48229656	 24.61613047
No	 35.14174266	 23.34429739	 26.43552212
No	 36.68476751	 23.86903975	 24.03342372
No	 32.86355757	 24.99859405	 27.05941054
No	 33.15752213	 27.47537640	 28.10485929
No	 33.90724081	 25.42918515	 30.05074285
No	 35.44686539	 25.79414860	 27.60034498
No	 31.76221092	 27.25826453	 30.70102456
Au	 32.15646303	 29.93164582	 31.71164116
No	 32.74675809	 27.86123973	 33.65138567
No	 34.23222576	 28.00261176	 31.10527899
No	 30.83893434	 29.98294311	 34.42124823
Au	 31.49557599	 33.01465995	 35.53282757
No	 31.60181310	 30.57730983	 37.14225274
Au	 33.21653239	 30.67510267	 34.70805277
No	 29.64346414	 32.68163206	 37.71796731
No	 30.22407187	 35.70557470	 38.57902359
No	 30.29460435	 33.35863209	 40.30962388
No	 32.16529069	 33.57019205	 38.12377642
No	 35.92367792	 26.03451748	 22.24167893
No	 36.34956163	 28.35983269	 23.35346795
No	 37.04410039	 26.23088343	 25.21840256
No	 38.68135963	 26.71379781	 22.88296688
No	 34.71479469	 27.87618794	 25.68714169
No	 35.10530096	 30.27245701	 26.64428517
No	 35.79295498	 28.24979976	 28.64795077
No	 37.45063111	 28.60693313	 26.29881009
No	 33.45152731	 29.91404812	 28.99079890
No	 33.72426736	 32.28810930	 29.70055983
No	 34.58310164	 30.55466630	 32.01854423
No	 36.17097283	 30.69484719	 29.56880431
Au	 32.14995045	 32.14995045	 32.14995045
Au	 31.70748559	 33.88864545	 32.02999194
Au	 33.91808327	 33.66355019	 35.81799221
Au	 34.85346153	 32.97398152	 32.68543128
Au	 32.24270059	 36.06264651	 36.53765425
Au	 32.99583265	 39.02930416	 37.35574803
No	 32.84054171	 36.59874169	 39.02233446
Au	 34.95043318	 36.91034500	 37.06047317
No	 38.01505879	 28.87576285	 21.05297151
No	 38.56929549	 31.14930866	 22.11366148
No	 39.15585674	 29.01574947	 24.00220299
Au	 40.88356356	 29.44859444	 21.73033666
No	 36.82734583	 30.70074386	 24.36865115
No	 37.36417777	 33.05570357	 25.29305516
No	 37.90616943	 30.99094607	 27.27545448
No	 39.68551566	 31.33293705	 25.02881497
No	 35.54422257	 32.67190643	 27.49680749
No	 36.05275042	 35.08603461	 28.26504481
No	 36.57605143	 33.11763154	 30.35955787
No	 38.41613372	 33.38015172	 28.15335425
No	 34.06555275	 34.67662551	 30.32732039
No	 34.57024749	 37.15972802	 30.95813965
Au	 34.95015695	 35.16856452	 33.02902718
No	 37.03050443	 35.53218279	 31.04469492
Au	 32.31340394	 36.60666349	 32.78430555
Au	 33.00368206	 39.33105245	 33.44788847
Au	 35.84148138	 39.91865929	 37.96104851
Au	 35.36191364	 37.60674046	 33.53565672
Au	 34.08918691	 15.57255857	 27.82500453
No	 34.18062386	 18.10242892	 29.28194722
Au	 34.92094592	 15.85056712	 30.93343488
Au	 36.43577360	 16.46192237	 28.52735611
No	 32.68119911	 17.51309846	 31.70503361
No	 32.78527100	 20.18875968	 33.05657598
Au	 33.41702178	 17.93830562	 34.74755609
Au	 34.99305980	 18.45057318	 32.35807021
No	 31.21775707	 19.69311819	 35.45406257
No	 31.34595050	 22.51502380	 36.69563890
Au	 31.85983828	 20.25710843	 38.41453955
No	 33.50525966	 20.68090910	 36.05943993
No	 29.69563036	 22.09283774	 39.04207639
No	 29.85093660	 25.05031016	 40.15931380
Au	 30.25014775	 22.78955304	 41.90954520
No	 31.97332545	 23.13911571	 39.60657581
Au	 28.11261168	 24.68864676	 42.44186724
Au	 28.29528915	 27.76578009	 43.41875962
Au	 28.59118886	 25.51767904	 45.21250777
Au	 30.39309692	 25.80056346	 42.96926210
No	 35.67420003	 18.69935914	 26.85710965
No	 35.87023346	 21.17010134	 28.21555854
Au	 36.55928143	 18.96482271	 29.96069266
Au	 38.12501960	 19.49111147	 27.56748544
No	 34.33102146	 20.67498010	 30.63724843
No	 34.54477729	 23.28491132	 31.89181139
No	 35.12954245	 21.09302042	 33.68150225
No	 36.74109569	 21.50556640	 31.29227279
No	 32.96137269	 22.90931387	 34.31044693
No	 33.21780536	 25.67342582	 35.47175346
No	 33.66926503	 23.46628611	 37.27246133
No	 35.33570962	 23.77349643	 34.90580601
No	 31.55837236	 25.38300870	 37.84211113
No	 31.86404403	 28.29627732	 38.89899997
No	 32.17218853	 26.06194037	 40.69989012
No	 33.91647195	 26.29218279	 38.39103310
No	 30.09650098	 28.04749443	 41.17738026
No	 30.43765027	 31.07909543	 42.09814202
No	 30.62733157	 28.84559995	 43.92669415
No	 32.46342256	 29.02259321	 41.69834785
No	 37.41992775	 21.69000072	 25.81163370
No	 37.71648390	 24.09352498	 27.07637792
No	 38.35409261	 21.93379333	 28.90950537
Au	 39.97940157	 22.38631343	 26.54579874
No	 36.12071633	 23.67116919	 29.46998100
No	 36.42562243	 26.19340653	 30.61748640
No	 36.98445629	 24.07787389	 32.52215777
No	 38.63836165	 24.40389471	 30.14923117
No	 34.82610211	 25.92683327	 33.04681462
No	 35.17901044	 28.59528063	 34.10370893
No	 35.61752164	 26.48836766	 36.03416505
No	 37.29155688	 26.67455734	 33.64983143
No	 33.56650217	 28.48364273	 36.54954294
No	 34.02770726	 31.35116481	 37.56112011
No	 34.25621967	 29.15843755	 39.42173381
No	 35.98268589	 29.23592774	 37.07196755
No	 32.27270742	 31.25457507	 39.87234318
No	 32.79192315	 34.25474570	 40.76553800
No	 32.85402801	 32.01796709	 42.60588057
No	 34.70103127	 32.06821295	 40.37430027
No	 39.33991901	 24.55410140	 24.71843510
No	 39.74237819	 26.89169834	 25.90486292
No	 40.31271940	 24.76344071	 27.80432292
Au	 42.00904554	 25.15328428	 25.48792418
No	 38.06318690	 26.51662935	 28.23619156
No	 38.45879472	 28.94982985	 29.28805410
No	 38.97843014	 26.89312411	 31.28475791
No	 40.69952243	 27.15998091	 28.96247764
No	 36.78076589	 28.72389520	 31.65165107
No	 37.17295221	 31.24153594	 32.55801966
No	 37.66240503	 29.28643737	 34.67307642
No	 39.37250368	 29.39118196	 32.31242333
No	 35.60731142	 31.28472484	 35.06421373
Au	 36.11460026	 33.98958684	 35.93031290
No	 36.44406547	 32.01989591	 38.03017211
No	 38.09133794	 31.89899242	 35.58453615
No	 34.63718634	 34.30276197	 38.53792736
Au	 35.42329395	 37.35483549	 39.49968407
No	 35.26690671	 35.02792836	 41.26129060
Au	 37.03302810	 34.86301149	 38.93839824
Au	 41.44973492	 27.29981814	 23.60682127
Au	 41.96739982	 29.57529218	 24.73347913
Au	 42.45097787	 27.46499010	 26.67710955
Au	 44.22316894	 27.79479202	 24.41666337
No	 40.19707088	 29.24481960	 26.99273384
No	 40.70643254	 31.60781372	 27.98336601
No	 41.14047815	 29.56835963	 30.01929860
No	 42.94848206	 29.79212198	 27.77227029
No	 38.90097179	 31.38305175	 30.22885078
No	 39.38944939	 33.80863360	 31.05871016
No	 39.81506010	 31.88467602	 33.22571939
No	 41.63589269	 31.98099780	 30.97423384
No	 37.57258194	 33.71062398	 33.30791840
No	 37.95771547	 36.10498903	 33.88498199
No	 38.55343329	 34.47926545	 36.35836342
No	 40.29660237	 34.35720023	 34.01557172
Au	 36.22717679	 36.22717679	 36.22717679
Au	 35.91056618	 37.97925911	 35.97104769
Au	 37.86108562	 37.86908935	 39.90420070
Au	 38.94187368	 36.91599616	 36.88975449
Au	 17.65557014	 32.81591969	 38.05851151
Au	 19.84009304	 36.54974446	 36.51229352
Au	 19.43927757	 38.89227068	 34.83993774
Au	 20.37391659	 39.64644076	 37.07500633
Au	 22.25749629	 40.13593241	 34.92646207
Au	 21.94263202	 42.43705774	 33.18695261
Au	 22.93529320	 43.14199097	 35.40915501
Au	 24.89308446	 43.55183040	 33.30357867
Au	 25.70831999	 46.45659546	 33.71259923
Au	 27.72691020	 46.77459959	 31.64491931
Au	 20.64531862	 31.83969551	 39.82935754
Au	 20.23928644	 34.19578998	 38.17317493
Au	 20.69178989	 37.33092797	 38.80373140
Au	 21.01248326	 35.00894159	 40.52512857
No	 22.85911357	 35.47468036	 38.35270741
Au	 21.47028364	 38.18675757	 41.10771014
No	 22.56053077	 37.81320200	 36.64709975
Au	 23.16120539	 40.86524177	 37.19793768
Au	 23.38029960	 38.57131352	 38.97159142
No	 25.31654775	 38.97799117	 36.85756909
Au	 23.99011345	 41.66627079	 39.48049679
No	 25.11399718	 41.27935539	 35.09308662
Au	 25.85310231	 44.23299982	 35.56688547
No	 25.98193009	 41.98470057	 37.40047938
No	 28.00550645	 42.32633565	 35.34627245
Au	 23.85076595	 43.91291477	 37.64255527
Au	 24.69241691	 44.75423637	 39.88346041
Au	 26.73451409	 44.98162373	 37.83850294
Au	 27.87797513	 44.56553650	 33.50853421
Au	 28.74822611	 47.41077097	 33.91175026
No	 28.80169142	 45.22538476	 35.81344215
Au	 30.89306319	 45.48138460	 33.80761411
Au	 26.68219259	 47.17722365	 35.94197613
Au	 27.57915464	 47.96504423	 38.17699032
Au	 29.68718657	 48.11134291	 36.18471405
Au	 21.06550522	 29.49110769	 41.48840379
Au	 21.34309208	 32.68901698	 42.24552995
Au	 23.49042044	 30.80314328	 41.75954821
No	 23.16553353	 33.13344378	 40.05319286
Au	 23.60145820	 36.26865695	 40.73618300
Au	 23.83494026	 33.96926883	 42.50090877
No	 25.71179765	 34.32638656	 40.33921048
Au	 24.27244941	 37.14602934	 43.13064292
No	 25.50960591	 36.65392186	 38.60122357
No	 26.09889032	 39.71291037	 39.21376578
No	 26.21632368	 37.42889866	 41.01521389
No	 28.18525080	 37.73511560	 38.92263495
Au	 24.12780101	 39.40758468	 41.30761565
Au	 24.74745072	 42.54340484	 41.77034370
Au	 24.80531921	 40.32546411	 43.65052011
No	 26.81052958	 40.52991230	 41.58080947
Au	 25.43606754	 43.50026749	 44.06316632
No	 28.10481401	 40.04791031	 37.14991051
No	 28.83244433	 43.00853475	 37.68853474
No	 28.84295706	 40.75849216	 39.53506418
No	 30.92380481	 41.02875838	 37.53192279
No	 26.77479495	 42.76399149	 39.71679609
Au	 27.54144428	 45.80253330	 40.11515726
Au	 27.49674519	 43.62233420	 42.03887515
No	 29.58363953	 43.76626490	 40.03695357
Au	 28.27795903	 46.70025989	 42.39341210
Au	 30.92978401	 43.28183571	 35.69337381
Au	 31.77746183	 46.12314587	 36.15491266
No	 31.71031801	 43.94185176	 38.06901941
Au	 33.88582261	 44.15208249	 36.14291757
No	 29.64473632	 45.95344799	 38.12300487
Au	 30.54750185	 48.88026264	 38.45997311
No	 30.41220968	 46.75510766	 40.43454270
No	 32.57802224	 46.83280100	 38.50204131
Au	 28.40293601	 48.82413285	 40.41391713
Au	 29.15741221	 49.75842336	 42.64902811
Au	 31.33350181	 49.72180472	 40.73408423
Au	 23.83746416	 28.49087038	 43.47802577
Au	 24.08712861	 31.68254839	 44.27338652
Au	 26.19567884	 29.72962004	 43.85571028
No	 25.93924045	 32.01557628	 42.08824678
No	 26.34974060	 35.15032506	 42.81882699
Au	 26.50789567	 32.88993719	 44.63518223
No	 28.40454092	 33.12759489	 42.47575233
Au	 24.43151380	 34.89125811	 44.95699479
Au	 24.87326095	 38.10889283	 45.53023523
Au	 26.91663654	 36.06482010	 45.30640528
No	 28.27657362	 35.41783368	 40.68896055
No	 28.85061117	 38.49041165	 41.36496647
No	 28.88024035	 36.23186856	 43.20087997
No	 30.85053791	 36.40554925	 41.10192954
No	 26.85420746	 38.29230099	 43.44041172
Au	 27.45408644	 41.43271236	 43.95424935
Au	 27.42390874	 39.24558674	 45.87037238
No	 29.45133583	 39.34069501	 43.82011385
Au	 28.03144312	 42.42373574	 46.32869280
No	 30.88048138	 38.72012865	 39.32064132
No	 31.60870794	 41.71192921	 39.94091854
No	 31.49697839	 39.45335131	 41.78711729
No	 33.58968948	 39.61108946	 39.79872241
No	 29.51287851	 41.55567848	 41.93094436
No	 30.26480338	 44.60594928	 42.38956381
No	 30.11779359	 42.44380414	 44.33358849
No	 32.22922080	 42.48708090	 42.36144964
Au	 28.15120301	 44.56377918	 44.36276915
Au	 28.94780297	 47.67871727	 44.66942902
Au	 28.74096203	 45.59130934	 46.68378206
No	 30.88033576	 45.53249973	 44.74316585
Au	 29.55432391	 48.74104990	 46.93887754
Au	 33.77589969	 41.93025553	 38.01503396
Au	 34.61523190	 44.79191035	 38.55075012
No	 34.39431180	 42.57928140	 40.43848932
Au	 36.67212536	 42.77035559	 38.61901258
No	 32.41319673	 44.67749351	 40.44669459
No	 33.30096123	 47.61628091	 40.84702167
No	 33.04692415	 45.49761857	 42.82672069
No	 35.26184767	 45.50406531	 40.95332301
No	 31.10928412	 47.63567433	 42.74537408
Au	 32.04981869	 50.64030582	 43.00376033
Au	 31.74063198	 48.59976406	 45.05230850
No	 33.95310716	 48.48010470	 43.18839614
Au	 32.70101683	 51.63979691	 45.26556728
Au	 26.69044020	 30.65077607	 46.46727174
Au	 28.76695330	 28.64478218	 46.12783811
No	 28.57127514	 30.87223472	 44.29044700
No	 28.94389546	 34.00038794	 45.05770096
Au	 29.03829686	 31.79679870	 46.93665980
No	 30.95767844	 31.91895077	 44.78381158
Au	 27.00157310	 33.85471726	 47.18481995
Au	 27.41271841	 37.07042608	 47.79466902
Au	 29.40876743	 34.96653093	 47.64046080
No	 30.87789801	 34.13764696	 42.92196419
No	 31.41800618	 37.21263078	 43.64717655
No	 31.38789542	 35.01367235	 45.54191455
No	 33.34973742	 35.04329875	 43.42514385
No	 29.41536229	 37.14152843	 45.72092278
No	 29.98692740	 40.28622284	 46.28049241
Au	 29.88111118	 38.14605746	 48.24059645
No	 31.92016561	 38.12112034	 46.20135219
Au	 27.92628298	 40.28977121	 48.29846251
Au	 28.54427219	 43.50460711	 48.69825971
Au	 30.45728795	 41.32688506	 48.73843893
No	 33.42065007	 37.28373313	 41.57343031
No	 34.14612708	 40.31615561	 42.28113748
No	 33.95264289	 38.08955514	 44.15541229
No	 35.96575774	 38.03849039	 42.08976103
No	 32.05618609	 40.29109657	 44.27083520
No	 32.78987750	 43.36006659	 44.79079520
No	 32.55497387	 41.23104305	 46.76172195
No	 34.65935687	 41.14182564	 44.79158419
No	 30.65933771	 43.42501987	 46.73731258
Au	 31.43337077	 46.54915729	 47.09327009
Au	 31.13865795	 44.50030871	 49.13565119
No	 33.29167988	 44.33252220	 47.22269261
Au	 31.92627982	 47.65786151	 49.43448034
Au	 36.30723859	 40.41038263	 40.36013013
Au	 37.20339287	 43.37215797	 41.04008399
No	 36.78345504	 41.07209747	 42.84081534
Au	 39.02747692	 41.12064320	 41.00788122
No	 34.95390634	 43.32657147	 42.87552354
No	 35.83925019	 46.30179340	 43.35526211
No	 35.46293232	 44.18222313	 45.32704155
No	 37.68127494	 44.07685027	 43.47612614
No	 33.61779942	 46.40895008	 45.20750184
No	 34.54069680	 49.43018255	 45.52418711
No	 34.12955926	 47.41534138	 47.58503558
No	 36.35792281	 47.19589711	 45.75868143
Au	 32.31017623	 49.65093510	 47.35139001
Au	 33.29132443	 52.72368723	 47.51568761
Au	 32.82118955	 50.79167196	 49.63794193
No	 35.06863739	 50.47091927	 47.85119468
Au	 33.82455402	 53.89461192	 49.74983541
Au	 30.54741260	 36.38496782	 15.82411823
Au	 29.59260296	 38.08900146	 18.85926455
Au	 27.22416772	 39.70081441	 19.34653188
Au	 28.57237973	 39.95372178	 21.75350773
Au	 30.41326854	 40.50725540	 19.58361237
Au	 26.23802103	 41.62678211	 22.16805448
Au	 27.51006432	 41.98606920	 24.51137295
Au	 29.41978287	 42.47180632	 22.37797163
Au	 26.43123872	 44.19637213	 27.13846005
Au	 28.39585314	 44.60425383	 25.03487835
Au	 34.34292119	 34.86603649	 17.91967066
Au	 31.96873474	 36.47994276	 18.38607115
Au	 32.75558713	 38.83212771	 19.18533590
No	 33.28863679	 36.63745729	 20.98690457
Au	 35.10015138	 37.15587431	 18.79692089
No	 30.92493428	 38.29271657	 21.36101663
Au	 31.73110167	 40.74274892	 22.05776458
No	 32.15589423	 38.55645575	 23.89154202
Au	 34.05527226	 39.02134432	 21.75617888
No	 29.82046368	 40.26208245	 24.18701469
Au	 30.66179792	 42.81363650	 24.78407797
No	 30.96746144	 40.62725876	 26.63966525
No	 32.94911446	 41.03870232	 24.55757317
No	 28.68534410	 42.40047512	 26.87463494
Au	 29.57349321	 45.05382092	 27.37093853
Au	 29.76395908	 42.87168856	 29.25129046
No	 31.80614911	 43.21427746	 27.20805511
Au	 35.93055823	 39.46073234	 19.59995809
Au	 34.90388888	 41.41881283	 22.45291727
Au	 32.62203634	 43.20382079	 22.68040689
Au	 33.83153009	 43.53162485	 25.15120430
Au	 35.83669866	 43.82402849	 23.07815918
Au	 31.59221123	 45.37067159	 25.30472480
Au	 32.73688566	 45.80492805	 27.70044276
Au	 34.80382044	 46.02795454	 25.67253584
Au	 36.70584617	 33.24049257	 17.45164456
Au	 37.43841363	 35.47213849	 18.41130887
Au	 37.99543757	 33.30112521	 20.24982529
No	 35.64984313	 34.97690078	 20.62058593
Au	 36.38291682	 37.29992402	 21.46686101
No	 36.85746712	 35.16114364	 23.35999454
Au	 38.70202136	 35.56926194	 21.17959884
No	 34.50828867	 36.86173807	 23.62122191
No	 35.25481833	 39.27640272	 24.35571249
No	 35.62913256	 37.15681444	 26.28355165
No	 37.56619338	 37.51609343	 24.16977697
No	 33.28463939	 38.88188252	 26.44334325
No	 34.06684052	 41.39682593	 27.07581973
No	 34.30878519	 39.26860090	 29.00712793
No	 36.35481481	 39.60016769	 26.97750410
No	 32.01168032	 41.04926408	 29.10306207
No	 32.85246954	 43.67481735	 29.64269275
Au	 32.95055408	 41.52647858	 31.56764467
No	 35.08286704	 41.81734750	 29.60409628
Au	 39.47885342	 37.85093900	 22.03358591
Au	 37.19271236	 39.63700338	 22.23978291
Au	 38.08279356	 41.98350820	 22.94149897
No	 38.35560136	 39.88445436	 24.90769294
Au	 40.33043579	 40.14238221	 22.81487857
No	 36.08839639	 41.70491519	 25.02010589
Au	 37.01059868	 44.14084647	 25.61492002
No	 37.17414970	 42.05901785	 27.60547445
Au	 39.22952393	 42.26179614	 25.57622539
No	 34.94334374	 43.92265102	 27.63831606
Au	 35.91352080	 46.45086862	 28.12987298
No	 35.95707377	 44.37782483	 30.13423685
No	 38.08751217	 44.52579505	 28.16683274
Au	 41.26051107	 42.43929463	 23.52619296
Au	 40.19050726	 44.64273741	 26.17712431
Au	 38.02256515	 46.57756800	 26.14088086
Au	 39.09491815	 46.99283797	 28.66135312
Au	 41.24030177	 47.02139937	 26.71193518
Au	 40.31954695	 31.60631433	 19.86727840
Au	 41.00408817	 33.82329784	 20.88555049
Au	 41.48202353	 31.69265590	 22.80031141
No	 39.18413297	 33.43950070	 23.08930282
No	 39.86555548	 35.74373438	 23.98431749
No	 40.27556431	 33.66219706	 25.96685049
Au	 42.14157045	 33.95087337	 23.78704109
No	 37.96943068	 35.42509208	 26.13460938
No	 38.65259583	 37.80931455	 26.90110033
No	 38.99137543	 35.77666624	 28.94294163
No	 40.93257248	 36.00158110	 26.82185754
No	 36.65287916	 37.52650944	 28.96836006
No	 37.35526480	 39.99444019	 29.61423932
No	 37.58150339	 37.97443124	 31.67006402
No	 39.64583878	 38.18514641	 29.65706781
No	 35.22239034	 39.71204398	 31.56987650
No	 35.99400063	 42.29808456	 32.13202243
Au	 36.01143380	 40.19863072	 34.11044194
No	 38.25445806	 40.45881986	 32.25663955
Au	 41.75310786	 36.05387874	 21.82574670
Au	 42.57113049	 38.29438366	 22.69109684
Au	 42.86708343	 36.21985024	 24.69420440
No	 40.61948315	 38.05939157	 24.80320511
Au	 41.45114356	 40.38332889	 25.54997940
No	 41.66370534	 38.34966012	 27.59998985
Au	 43.66351660	 38.49632676	 25.52578878
No	 39.42100723	 40.20686294	 27.59812849
No	 40.27911894	 42.61379568	 28.22876892
No	 40.39097466	 40.60778835	 30.30548564
No	 42.47551366	 40.70448320	 28.30681691
No	 38.16088637	 42.48233182	 30.20139697
No	 39.06753789	 44.98012691	 30.72657138
No	 39.04678421	 42.97399387	 32.79848593
No	 41.23275662	 43.04189558	 30.89258440
Au	 44.53552613	 40.77687660	 26.28572560
Au	 42.36470973	 42.71161163	 26.22792729
Au	 43.36328923	 45.03954909	 26.83971243
No	 43.37303571	 43.06286154	 28.94660140
Au	 45.48715199	 43.05766630	 26.97762828
No	 41.22920341	 45.02443956	 28.79452450
Au	 42.27237049	 47.43232854	 29.29641614
No	 42.17294138	 45.48121825	 31.41923238
Au	 44.35963941	 45.42030951	 29.52234654
Au	 46.52166657	 45.33436411	 27.60471797
Au	 45.43739380	 47.77142579	 30.03629939
Au	 44.39296318	 32.13717321	 23.57387560
Au	 44.77948763	 30.04184959	 25.55158919
No	 42.54257441	 31.86501723	 25.77095150
No	 43.17949880	 34.16506753	 26.72244931
No	 43.50423896	 32.12931653	 28.77500372
Au	 45.39502850	 32.30180757	 26.60040858
No	 41.27453233	 33.97668779	 28.88027072
No	 41.90802209	 36.34984277	 29.68982163
No	 42.18710315	 34.39161957	 31.82859726
No	 44.12170985	 34.47209389	 29.68821393
No	 39.93286878	 36.22741590	 31.78740181
No	 40.55183015	 38.65088057	 32.43586912
No	 40.81171707	 36.79722446	 34.67904931
No	 42.79900877	 36.79746186	 32.58791906
No	 38.41723960	 38.50396507	 34.38304399
No	 39.04552561	 40.98722602	 34.89011353
Au	 39.16257615	 39.11826555	 37.10165696
No	 41.38203233	 39.21895726	 35.24114256
Au	 45.09275732	 34.36190781	 24.57322455
Au	 45.85832870	 36.59469652	 25.49466127
Au	 46.07345511	 34.57035847	 27.56592726
No	 43.88317539	 36.47226965	 27.59224145
No	 44.65911512	 38.78395088	 28.38529135
No	 44.80563863	 36.81724705	 30.51647619
Au	 46.81884031	 36.84367086	 28.45172374
No	 42.61576747	 38.72760038	 30.42051429
No	 43.40676224	 41.11029025	 31.08070821
No	 43.48190670	 39.20064929	 33.26317731
No	 45.56209276	 39.16279509	 31.26587327
No	 41.26780593	 41.09056354	 33.02412918
No	 42.09101529	 43.54740315	 33.56027587
No	 42.05405523	 41.65828774	 35.74840569
No	 44.24919220	 41.60580460	 33.86780621
Au	 46.69387701	 38.83182263	 26.34178366
Au	 47.60346267	 41.06956084	 27.11833747
Au	 47.63558811	 39.11830278	 29.26199718
No	 45.51275928	 41.09743422	 29.10663633
Au	 46.44885489	 43.40953041	 29.76081655
No	 46.39772942	 41.50727750	 31.94309840
Au	 48.52816712	 41.39096439	 30.00125064
No	 44.28786090	 43.49632593	 31.67656183
No	 45.26304560	 45.88170910	 32.21167884
No	 45.11180701	 44.01504956	 34.41214209
No	 47.31859564	 43.84871346	 32.55425467
Au	 49.50074165	 43.65821477	 30.67392191
Au	 47.47109148	 45.71627957	 30.35162761
Au	 48.58208614	 48.01299389	 30.88222071
No	 48.32923137	 46.18389686	 33.10412043
Au	 50.55685512	 45.91622485	 31.28411659
Au	 51.69927789	 48.16069108	 31.83552968
Au	 27.54924279	 44.72228098	 29.43284921
Au	 28.48929752	 47.47140869	 29.82191677
Au	 31.81309925	 48.26472243	 34.20660215
Au	 30.65853959	 45.56274235	 29.71979424
Au	 30.66655328	 50.98043559	 36.46527581
Au	 32.82666952	 51.03401159	 34.52049799
Au	 31.64576869	 48.24778660	 30.10726561
Au	 33.76034113	 48.39184322	 28.11755097
Au	 30.74648979	 43.40123057	 31.63490262
Au	 31.65221729	 46.13306779	 32.07558790
Au	 34.77724150	 46.93086453	 36.59775893
Au	 33.80024872	 44.19553786	 32.08034845
Au	 32.71425911	 48.94853929	 36.52399744
Au	 33.74481892	 51.75453646	 36.80614196
No	 33.53441595	 49.70125153	 38.83960085
Au	 35.75903923	 49.69265717	 36.96511550
Au	 31.54540074	 51.78553284	 38.70520879
Au	 32.35177045	 52.66270820	 40.94146054
Au	 34.58485195	 52.54473126	 39.08841032
No	 33.78761863	 46.30142629	 30.10615925
Au	 34.81745498	 48.92140220	 30.49414548
Au	 34.74502861	 46.86140665	 32.51525284
No	 36.92875749	 46.93961945	 30.59485474
Au	 32.65116206	 48.85431588	 32.43364504
Au	 33.74573139	 51.55931788	 32.71232371
Au	 36.83532812	 52.43363312	 37.25021258
Au	 35.78550650	 49.51668623	 32.87363345
Au	 35.73329877	 55.35954195	 39.25417397
Au	 38.00912911	 55.14913939	 37.45766060
Au	 36.97753054	 48.97391900	 28.55090809
Au	 37.99708269	 49.49424794	 30.98567583
Au	 40.19655494	 49.45287238	 29.08963349
Au	 36.92289582	 52.15482675	 33.15784832
Au	 39.16218214	 52.03437990	 31.30792328
Au	 33.78139173	 42.05616345	 34.02331780
Au	 34.64936666	 44.77633780	 34.51341852
Au	 37.55018829	 45.56911778	 39.14573976
Au	 36.79416482	 42.83311541	 34.64617393
Au	 35.53201271	 47.62525280	 38.98247802
Au	 36.53619978	 50.43262296	 39.32144763
No	 36.20518749	 48.39175014	 41.35900155
Au	 38.50558729	 48.33763371	 39.57235168
No	 34.27847897	 50.52722917	 41.15023104
Au	 35.35096473	 53.40804077	 41.36348210
No	 34.95205127	 51.43133563	 43.45322314
No	 37.23439201	 51.24541106	 41.66781149
Au	 33.08987956	 53.61554059	 43.17031583
Au	 33.76408108	 54.64745841	 45.38807419
Au	 36.04796760	 54.34822331	 43.62794985
No	 36.87155846	 44.89670708	 32.63049093
No	 37.84968653	 47.49483446	 33.06020864
Au	 37.68473008	 45.47720932	 35.11748793
No	 39.94980774	 45.50359821	 33.28565487
Au	 35.61019570	 47.48592003	 34.92125725
Au	 36.66621663	 50.17927099	 35.25013536
Au	 39.54959640	 51.07956616	 39.91145240
Au	 38.67629429	 48.11631820	 35.51827254
Au	 37.63383698	 53.21244896	 39.57525990
Au	 38.82897347	 55.96134291	 39.74993096
No	 38.35636850	 54.06480011	 41.88884972
Au	 40.68792900	 53.79313800	 40.17049490
Au	 36.52247067	 56.25537726	 41.49304444
Au	 37.24448422	 57.22726086	 43.71894410
Au	 39.57586524	 56.84756807	 42.02931023
No	 40.07318134	 47.47823529	 31.18764418
Au	 41.17668681	 49.96817848	 31.58414710
No	 40.95748186	 48.03420813	 33.71219546
No	 43.21143861	 47.91815272	 31.88529863
No	 38.92659640	 50.08307550	 33.42028226
Au	 40.10206067	 52.65379848	 33.71189351
Au	 39.76718239	 50.74115840	 35.84809731
No	 42.06664565	 50.55543936	 34.07589667
Au	 37.81951043	 52.85078088	 35.50358167
Au	 39.07189611	 55.49488224	 35.68534464
Au	 41.92410058	 56.47462886	 40.35519439
Au	 40.95743357	 53.34440851	 36.10873410
Au	 40.89623323	 59.59016385	 42.09536760
Au	 43.26052320	 59.11952324	 40.47063265
Au	 43.40926978	 49.83083883	 29.73565540
Au	 44.34776921	 50.34505353	 32.29103650
Au	 46.60755519	 50.11034965	 30.49048148
Au	 42.37768418	 52.44244601	 31.91697744
Au	 43.27592052	 53.05887754	 34.37695842
Au	 45.58159918	 52.75470472	 32.63750692
Au	 42.24767415	 55.91962701	 36.30301974
Au	 44.58487544	 55.53729573	 34.61706415
Au	 36.64757126	 40.69835971	 36.59319201
Au	 37.47466001	 43.41252218	 37.13019079
Au	 40.05860454	 44.12079209	 41.77654256
Au	 39.70306054	 41.55432403	 37.48167625
Au	 38.13189602	 46.25627112	 41.56777205
Au	 39.12450372	 49.08934959	 41.97878906
No	 38.63991459	 47.02509826	 43.98181968
Au	 41.03428423	 46.95261682	 42.30934248
No	 36.80592793	 49.23853054	 43.72767637
No	 37.86032415	 52.13640909	 44.00228058
No	 37.34327112	 50.17390646	 46.08883582
No	 39.66610377	 49.91789936	 44.36998286
No	 35.56080384	 52.41835907	 45.74591962
Au	 36.68096640	 55.36909063	 45.87857780
Au	 36.10989503	 53.49239336	 48.02516614
No	 38.42132012	 53.11158691	 46.32345097
Au	 37.25498825	 56.47414449	 48.11199828
No	 39.82643414	 43.52896112	 35.38366556
No	 40.73164315	 46.09354477	 35.83366971
Au	 40.48628818	 44.13317723	 37.93579106
No	 42.85274314	 44.12940976	 36.22251458
Au	 38.39435564	 46.11610099	 37.58516635
Au	 39.40892814	 48.80347217	 37.96147267
Au	 42.06184297	 49.72005443	 42.71789845
Au	 41.40743556	 46.74355606	 38.35721255
Au	 40.19883403	 51.88250038	 42.29315912
Au	 41.36425923	 54.63817975	 42.52258139
No	 40.77211576	 52.76178174	 44.65679168
Au	 43.17064250	 52.44590282	 43.03377735
No	 39.00829999	 54.99452130	 44.18786789
Au	 40.25444998	 57.81073009	 44.29205754
No	 39.59570037	 56.00592970	 46.46972998
No	 41.96740853	 55.55999746	 44.85495856
Au	 37.90400824	 58.27824731	 45.92823043
Au	 38.50583591	 59.41123375	 48.11729402
Au	 40.86997997	 58.85404568	 46.53486511
No	 43.02201528	 46.01378911	 34.04356077
No	 44.05814403	 48.47962650	 34.47121566
No	 43.77513785	 46.62078231	 36.65809385
No	 46.07524731	 46.42561845	 34.90112084
No	 41.74716153	 48.65982833	 36.22651661
No	 42.86708150	 51.21478691	 36.55761123
Au	 42.44061981	 49.35250771	 38.72104982
No	 44.81213428	 49.11599761	 37.04567893
Au	 40.52038885	 51.46904627	 38.26268787
Au	 41.73048553	 54.10728129	 38.49260617
Au	 44.37136836	 55.13394481	 43.27005179
Au	 43.57844503	 51.94551828	 39.02167173
Au	 42.62622021	 57.35495094	 42.67512469
Au	 43.98814949	 60.02958765	 42.75726019
No	 43.25827760	 58.31247378	 44.97401694
Au	 45.66912788	 57.78254994	 43.43463408
Au	 41.60219712	 60.58187503	 44.32157022
Au	 42.24714233	 61.65263966	 46.52565719
Au	 44.64884734	 61.01705348	 45.02159272
No	 46.33410880	 48.26074844	 32.68806023
Au	 47.50166254	 50.62700348	 33.10719914
No	 47.14079320	 48.83123567	 35.33611313
Au	 49.43250546	 48.50835045	 33.59618955
No	 45.19686673	 50.93535117	 34.84159292
Au	 46.43652403	 53.37255914	 35.15467923
No	 45.95718949	 51.60166793	 37.37977803
No	 48.30785770	 51.22432611	 35.71745615
No	 44.08905372	 53.74912037	 36.82653008
Au	 45.41227106	 56.25532140	 37.03491020
Au	 44.81865312	 54.51341842	 39.25911656
No	 47.20660346	 54.06750212	 37.65862609
Au	 43.04069801	 56.71269558	 38.65522939
Au	 44.45223436	 59.27988058	 38.75475804
Au	 47.06681880	 60.38817407	 43.53368096
Au	 46.16068631	 57.04903243	 39.43560744
Au	 46.14183430	 63.67040174	 45.00427864
Au	 48.56622662	 62.94650788	 43.57269461
Au	 50.62997953	 50.81671580	 34.03317365
Au	 48.76583817	 52.97391801	 33.47075782
Au	 49.57543994	 53.59732273	 36.04584657
Au	 51.92238936	 53.10321258	 34.41753438
Au	 47.77619246	 55.78385383	 35.41181134
Au	 48.55843183	 56.50521995	 37.88285469
Au	 50.94266179	 55.94313088	 36.32276815
Au	 47.60456364	 59.54609504	 39.55441222
Au	 50.01166033	 58.90776320	 38.05456179
Au	 37.22265720	 16.73859515	 31.68199765
Au	 35.68976626	 18.87870503	 35.44690839
Au	 34.04063248	 18.44422880	 37.79987336
Au	 34.11407248	 21.25257929	 39.06648764
Au	 36.27408763	 19.39134229	 38.54318241
Au	 32.39672198	 20.90382813	 41.37934092
Au	 32.49806907	 23.84573458	 42.51793853
Au	 34.61641150	 21.90926291	 42.07401342
Au	 30.84300613	 26.63842667	 45.77824496
Au	 32.92473756	 24.64007289	 45.42595289
Au	 38.96014738	 19.75122777	 30.71624517
Au	 37.32734366	 19.31155812	 33.08259822
No	 37.49574120	 21.92202072	 34.38198809
Au	 37.98050804	 19.74313164	 36.21605824
Au	 39.67952289	 20.09773321	 33.88254598
No	 35.81246929	 21.58952304	 36.73208886
No	 36.00970060	 24.33738082	 37.91827524
Au	 36.38398108	 22.16927993	 39.78437249
Au	 38.13633495	 22.42249551	 37.47762273
No	 34.26644172	 24.10072285	 40.23252326
No	 34.50426019	 26.98540865	 41.30169437
Au	 34.75893268	 24.81907364	 43.18822994
No	 36.57236202	 24.98215305	 40.92584362
No	 32.68659925	 26.82366673	 43.55502851
No	 32.96816949	 29.83340607	 44.49373499
Au	 33.10650164	 27.67346543	 46.40402892
No	 34.98918481	 27.76123585	 44.20334632
Au	 40.59575947	 20.20501223	 28.35749366
Au	 40.85767175	 22.62107200	 29.68761683
Au	 41.37747650	 20.46222389	 31.55118728
No	 39.17380283	 22.26233450	 32.02928148
No	 39.44856838	 24.80085584	 33.24121912
Au	 39.87953644	 22.67777192	 35.16223845
Au	 41.62279663	 22.94534472	 32.85022517
No	 37.73202088	 24.56456127	 35.58141786
No	 38.04015356	 27.23368711	 36.68240933
No	 38.36538643	 25.13339094	 38.64003775
No	 40.14646638	 25.28510431	 36.34211419
No	 36.28772860	 27.11896924	 39.00918565
No	 36.65441317	 29.93278094	 40.01054053
No	 36.84519516	 27.82633428	 41.97123303
No	 38.67253374	 27.87123063	 39.70599768
No	 34.83494219	 29.90441726	 42.27888274
No	 35.26707492	 32.85676134	 43.17023507
No	 35.31331893	 30.73216900	 45.12328109
No	 37.20945909	 30.69940925	 42.92556950
Au	 42.55362878	 23.00191622	 27.36406397
Au	 42.92201341	 25.35279130	 28.61945310
Au	 43.37375863	 23.23158193	 30.55097160
No	 41.17609438	 25.06235302	 30.91786476
No	 41.55233533	 27.52144885	 32.04735262
No	 41.92962338	 25.45277288	 34.04974504
Au	 43.72546811	 25.64513324	 31.77566239
No	 39.78605126	 27.35927381	 34.35129144
No	 40.18579710	 29.92827988	 35.35718838
No	 40.48311813	 27.91327920	 37.42284061
No	 42.29960999	 27.97727223	 35.14935531
No	 38.42390105	 29.92384735	 37.68675160
No	 38.88680767	 32.62944577	 38.59649656
No	 39.06327274	 30.63223641	 40.67929519
No	 40.89123083	 30.55496770	 38.40449713
No	 37.12124359	 32.78121037	 40.93198387
No	 37.70804622	 35.67530004	 41.79139592
No	 37.67403375	 33.60107245	 43.79603483
No	 39.54482982	 33.41458695	 41.56591441
Au	 45.16333334	 27.95211449	 27.53737441
Au	 45.53702105	 25.86183653	 29.52287909
No	 43.34649026	 27.72233171	 29.77838354
No	 43.82869184	 30.10397458	 30.84102302
No	 44.13695155	 28.07523881	 32.90304267
Au	 45.99640748	 28.20390294	 30.68469359
No	 41.98635128	 29.98994835	 33.07445819
No	 42.47646338	 32.45828360	 33.99668169
No	 42.73292511	 30.51042157	 36.14771549
No	 44.60923928	 30.51467666	 33.93281505
No	 40.64317920	 32.49484351	 36.25303946
No	 41.14455642	 35.03781449	 37.02488691
No	 41.37034020	 33.20088077	 39.28544785
No	 43.22732560	 33.04183254	 37.04170082
No	 39.43219234	 35.34485372	 39.41395393
Au	 40.06314108	 38.06442324	 40.14168568
No	 40.12957914	 36.22191293	 42.37739142
No	 41.91430038	 35.83642114	 40.05889499
Au	 40.28503132	 20.53384190	 37.05912678
Au	 38.66620261	 23.01067854	 40.57324853
Au	 36.84849997	 22.83705733	 42.83392735
Au	 37.02933242	 25.71331821	 43.92523879
Au	 39.08930366	 23.69050980	 43.66354887
Au	 35.15189054	 25.62664967	 46.13610083
Au	 35.37736123	 28.62566777	 47.09346318
Au	 37.38589007	 26.53580701	 46.91274075
Au	 42.27561507	 23.36157003	 36.02518521
Au	 40.47299570	 23.18264937	 38.30060493
No	 40.73320183	 25.85810787	 39.44319030
Au	 40.95695160	 23.77993651	 41.43755980
Au	 42.81780949	 23.87220059	 39.20454200
No	 38.88845685	 25.78797743	 41.69239691
No	 39.19355648	 28.59094291	 42.71560727
Au	 39.30600098	 26.53252448	 44.73385802
Au	 41.21157317	 26.52227978	 42.53735025
No	 37.29767458	 28.61760813	 44.91915513
No	 37.65957199	 31.54653047	 45.82001075
Au	 37.65174986	 29.49867834	 47.85055806
No	 39.60939180	 29.39781547	 45.70790143
Au	 44.08149549	 23.55487698	 33.75664289
Au	 44.41999726	 26.03295786	 34.94815547
Au	 44.67813344	 23.97452186	 36.97298236
No	 42.57343980	 25.93617332	 37.19055570
No	 42.94023907	 28.52755396	 38.25760031
Au	 43.10870572	 26.51408371	 40.33150738
Au	 45.00650374	 26.51835324	 38.12825953
No	 41.06936534	 28.55464153	 40.48874313
No	 41.48498086	 31.26663431	 41.43938483
No	 41.54738553	 29.28487519	 43.54130439
No	 43.47427079	 29.17234727	 41.36181682
No	 39.58729243	 31.41613621	 43.64720485
No	 40.07703546	 34.26194675	 44.49350244
No	 40.00494848	 32.28264057	 46.58992342
No	 41.96876713	 32.06303013	 44.45271479
Au	 46.27893328	 26.15220769	 32.72321799
Au	 46.72378885	 28.55377772	 33.85144124
Au	 46.91241692	 26.54157768	 35.93706756
No	 44.82267101	 28.52599962	 36.04239152
No	 45.29038231	 31.02648636	 37.03901812
No	 45.40393858	 29.07594793	 39.18700479
Au	 47.34674294	 29.00456247	 37.02970833
No	 43.37716171	 31.12807417	 39.22613063
No	 43.88328063	 33.72833894	 40.09439579
No	 43.91682827	 31.84043654	 42.29672313
No	 45.87162793	 31.63997086	 40.14938874
No	 41.98331433	 33.98844295	 42.29749272
No	 42.56739573	 36.71441004	 43.06569423
No	 42.48070373	 34.85289180	 45.27595882
No	 44.43761818	 34.51095000	 43.13687747
Au	 43.25192301	 24.47983730	 42.38098969
Au	 41.58550649	 27.28069146	 45.61868173
Au	 39.62301495	 27.37120906	 47.76001064
Au	 39.92622439	 30.29676189	 48.67965313
Au	 41.85953776	 28.13666668	 48.68190789
Au	 45.48651057	 27.10313480	 41.30747495
Au	 43.53776938	 27.18841490	 43.46481572
No	 43.90348758	 29.91246266	 44.45329976
Au	 43.86401243	 27.96149842	 46.58368706
Au	 45.86235158	 27.78911166	 44.47783885
No	 41.92165663	 30.10696309	 46.57496146
No	 42.34798874	 32.94726040	 47.43960751
Au	 42.19749581	 31.02448637	 49.58515130
Au	 44.23127864	 30.74965752	 47.52501703
Au	 47.43902673	 27.03243503	 39.15630360
Au	 47.86655383	 29.55829949	 40.21100727
Au	 47.86073639	 27.62687044	 42.37278084
No	 45.88157096	 29.72591725	 42.32743062
No	 46.35255822	 32.35457838	 43.25300674
Au	 46.25737445	 30.47677423	 45.45489813
Au	 48.28479957	 30.21643570	 43.38663124
No	 44.35229145	 32.64632008	 45.34888847
No	 44.88715585	 35.38431771	 46.15427644
No	 44.68671301	 33.54656019	 48.37504193
No	 46.73386446	 33.16967651	 46.33964391
Au	 46.13718718	 28.57823012	 47.63208270
Au	 44.46212607	 31.68635315	 50.57115046
Au	 48.60364687	 30.98011940	 46.54810405
Au	 46.53429936	 31.32975834	 48.56169230
No	 47.01791771	 34.08538300	 49.40069929
Au	 46.71629134	 32.28652941	 51.64112717
Au	 48.82603603	 31.85047777	 49.68753828
Au	 48.95569636	 32.82876925	 52.79778439
Au	 31.07086968	 29.73317220	 46.67383378
Au	 31.39638922	 32.85104574	 47.46714390
Au	 31.42996967	 30.71303464	 49.41312136
Au	 33.38290596	 30.73346825	 47.28129827
Au	 29.80001339	 36.02655692	 50.21666769
Au	 31.75575933	 33.87701069	 50.14155357
No	 33.34843819	 32.87048150	 45.33720598
No	 33.83224190	 35.92941211	 46.08798372
No	 33.75884798	 33.81487412	 48.06065358
No	 35.73786165	 33.72871743	 45.95253454
No	 31.82333036	 35.98531709	 48.16005940
No	 32.35445061	 39.12823933	 48.75404443
Au	 32.18502011	 37.05276690	 50.76871834
No	 34.23863215	 36.91182530	 48.74473334
Au	 30.27803307	 39.24547946	 50.75234778
Au	 30.86313947	 42.46273581	 51.18668823
Au	 32.72071427	 40.23301340	 51.29678150
No	 35.80996680	 35.84198173	 43.98242714
No	 36.47072574	 38.85669010	 44.71954101
No	 36.26933302	 36.74761212	 46.69568053
No	 38.25099386	 36.53434020	 44.59296043
No	 34.42256077	 39.00256813	 46.74713026
No	 35.11955882	 42.07931662	 47.31368807
No	 34.82545846	 40.01725941	 49.33551446
No	 36.91295989	 39.78392899	 47.35604114
No	 32.99134915	 42.27102622	 49.25018815
No	 33.73462213	 45.40423087	 49.64953966
Au	 33.36496582	 43.40978069	 51.72776858
No	 35.52090482	 43.12245523	 49.83402809
Au	 31.55708682	 45.67018774	 51.52199214
Au	 32.36120271	 48.85973547	 51.76095083
Au	 34.11907670	 46.57457995	 52.06370529
No	 38.45025834	 38.64156998	 42.62079735
Au	 39.37597816	 41.69589743	 43.44068791
No	 38.95591718	 39.50544302	 45.32951547
Au	 40.84842407	 39.07687339	 43.14389038
No	 37.24776849	 41.88760703	 45.37718799
No	 38.12762757	 44.90926223	 45.94128036
No	 37.67027069	 42.82849401	 47.93359562
No	 39.80028673	 42.51501063	 46.01346180
No	 35.92077770	 45.14667687	 47.78541328
No	 36.82293916	 48.19174205	 48.16080808
No	 36.32479805	 46.21714673	 50.24054410
No	 38.53721901	 45.86633057	 48.42396712
No	 34.58432919	 48.51845474	 49.95363624
Au	 35.54054497	 51.60504891	 50.16495428
Au	 34.98371954	 49.71876809	 52.30688023
No	 37.23579569	 49.29047887	 50.55537013
Au	 35.95924605	 52.83399675	 52.46012887
Au	 33.71165568	 31.72645800	 50.05631408
Au	 35.67390678	 29.58334078	 49.96826578
No	 35.69836872	 31.64838741	 47.95328837
No	 36.12027077	 34.69045035	 48.71933943
Au	 35.99553682	 32.65779083	 50.76541834
No	 38.01329798	 32.48171807	 48.69350093
Au	 34.08840770	 34.85365426	 50.77056371
Au	 34.57031698	 37.99100441	 51.38800748
Au	 34.34050108	 35.98907862	 53.46129597
Au	 36.41946059	 35.74614822	 51.46681368
Au	 33.02030369	 41.43543076	 53.82225356
Au	 34.82978339	 39.16801234	 54.01127786
No	 38.12195664	 34.49773755	 46.63329799
No	 38.69293159	 37.47011969	 47.36577005
No	 38.47617792	 35.48123778	 49.44610333
No	 40.49914697	 35.18449495	 47.38554592
No	 36.64820913	 37.74726082	 49.39540572
No	 37.28647776	 40.81322832	 49.98468164
No	 36.95002905	 38.84311449	 52.07598213
No	 39.04639921	 38.49398742	 50.11347699
No	 35.16056899	 41.13169686	 51.91119100
No	 35.86130387	 44.26794242	 52.34223809
Au	 35.42919699	 42.34550425	 54.46655412
No	 37.59097526	 41.94276347	 52.59620206
Au	 33.67683971	 44.64679435	 54.18697625
Au	 34.44621872	 47.84309566	 54.45799913
Au	 36.14107258	 45.51425417	 54.82993241
No	 40.67378552	 37.13068417	 45.26471815
No	 41.39690656	 40.03329818	 45.97928744
No	 41.10036272	 38.10299840	 48.10252992
No	 43.08989793	 37.65259392	 46.01758933
No	 39.38132027	 40.46308338	 48.02472203
No	 40.19372168	 43.47308288	 48.61490230
No	 39.72995274	 41.51660933	 50.70081361
No	 41.82017715	 41.04108908	 48.75177826
No	 38.03747133	 43.88063977	 50.48889807
No	 38.90070637	 46.93883253	 50.90777461
No	 38.34489352	 45.03799414	 53.03009467
No	 40.53150954	 44.54409506	 51.21207542
No	 36.67346254	 47.39096410	 52.68288687
No	 37.59694569	 50.49138686	 52.93481010
Au	 36.96686969	 48.66632801	 55.10406738
No	 39.21271153	 48.12009177	 53.37933485
Au	 35.32950348	 51.01627406	 54.63823917
Au	 36.32731028	 54.15835951	 54.73096922
Au	 37.90719468	 51.79332571	 55.29159154
Au	 37.91312191	 30.47428183	 50.76198729
Au	 38.27728323	 33.51040178	 51.54355717
Au	 40.14986988	 31.29211650	 51.62720145
Au	 36.63997667	 36.89890952	 54.19029156
Au	 38.45716726	 34.63662886	 54.36646722
No	 40.32450843	 33.23830573	 49.50637369
No	 40.82339185	 36.19236947	 50.24510188
Au	 40.55306820	 34.28842565	 52.39424241
No	 42.62932953	 33.92368994	 50.39683922
No	 38.74423421	 36.55769379	 52.23286650
No	 39.31878641	 39.61173406	 52.83429009
Au	 38.93207879	 37.73123353	 54.99018368
No	 41.05880650	 37.29255589	 53.07190459
Au	 37.17844925	 40.03709979	 54.73182664
Au	 37.82834630	 43.17242014	 55.18331242
Au	 37.33734063	 41.33087850	 57.35740653
Au	 39.51574723	 40.82695415	 55.52447109
Au	 36.36200697	 46.86080918	 57.28992186
Au	 38.00154481	 44.50266817	 57.73961061
No	 42.86977179	 35.79808562	 48.21752608
No	 43.49384571	 38.65779517	 48.91559377
No	 43.15997555	 36.83049191	 51.12179501
No	 45.23415892	 36.34747934	 49.13762380
No	 41.42927977	 39.15654837	 50.90191404
No	 42.14974721	 42.12968134	 51.48414278
No	 41.67217734	 40.30078386	 53.66530782
No	 43.79536633	 39.74236800	 51.76620351
No	 40.00551883	 42.66787741	 53.35222943
No	 40.80813720	 45.72050138	 53.79049915
No	 40.21193356	 43.91847789	 55.97346422
No	 42.39863097	 43.30983833	 54.18014431
No	 38.59222896	 46.29805803	 55.54791986
No	 39.47157864	 49.40626443	 55.82839129
Au	 38.78122558	 47.65987015	 58.03490962
No	 41.02375738	 46.99988846	 56.34104495
Au	 37.20646340	 50.04216775	 57.49672916
Au	 38.16812926	 53.19527270	 57.61866155
Au	 39.67804406	 50.79525598	 58.24670911
Au	 42.38043064	 32.04100041	 52.56755358
Au	 42.81947596	 34.99661227	 53.32130119
Au	 44.60109649	 32.72522637	 53.58653947
Au	 40.69683491	 35.43713299	 55.25017312
Au	 41.21252487	 38.48988244	 55.86358487
Au	 42.92473547	 36.16973825	 56.20946411
Au	 39.64230486	 42.14214022	 58.17948268
Au	 41.29066317	 39.78778168	 58.61656849
No	 44.92509692	 34.54347885	 51.36975541
No	 45.48451429	 37.40286674	 52.08222563
Au	 45.07326042	 35.64000799	 54.32861508
Au	 47.20864787	 35.10276962	 52.42928571
No	 43.36005090	 37.95605312	 53.98783381
No	 44.00711965	 40.91584972	 54.57264384
Au	 43.47756009	 39.17944559	 56.81348058
No	 45.64536882	 38.55419609	 54.98504378
No	 41.83706609	 41.54122538	 56.39125302
No	 42.57468374	 44.58674738	 56.83812944
Au	 41.93036082	 42.88138680	 59.07649838
No	 44.13858519	 42.18461640	 57.33481539
Au	 40.35331397	 45.26973070	 58.55908100
Au	 41.18070259	 48.38154016	 58.85658611
Au	 40.43396988	 46.72268206	 61.10372373
Au	 42.68400770	 45.96338756	 59.45452723
Au	 39.83430550	 52.28589799	 60.62728451
Au	 41.28234445	 49.86531503	 61.33091411
Au	 47.31104165	 36.22358187	 55.41975616
Au	 45.13721342	 36.83905687	 57.24746436
Au	 45.72386008	 39.80512008	 57.84315926
Au	 47.33064391	 37.44982701	 58.36714141
Au	 43.51916807	 40.50417516	 59.59554780
Au	 44.19733563	 43.55287445	 60.05053210
Au	 45.72673569	 41.15870678	 60.65324538
Au	 42.73205337	 47.44162668	 62.02499770
Au	 44.18991243	 45.02342373	 62.71642718
Au	 45.69920343	 30.25137161	 28.64054929
Au	 46.29572728	 32.56000297	 29.65519089
Au	 46.51602620	 30.55748690	 31.75431442
Au	 48.44355756	 30.62535115	 29.60046561
No	 44.37007997	 32.49127569	 31.80801867
No	 44.97262237	 34.87854294	 32.68119696
No	 45.14255281	 32.95579823	 34.86453535
No	 47.09786710	 32.91672444	 32.73303278
No	 43.01987039	 34.91636030	 34.81139363
No	 43.61578767	 37.35657409	 35.51918138
No	 43.77682780	 35.55808014	 37.82529757
No	 45.73672783	 35.39100019	 35.69814630
No	 41.65986600	 37.52157494	 37.64443339
No	 42.16654004	 39.92034252	 38.09555393
No	 42.49771283	 38.42860368	 40.69949565
No	 44.37144931	 38.04281510	 38.48985992
Au	 48.95365066	 34.88311621	 28.50199511
Au	 49.07617159	 32.90382589	 30.62767893
No	 46.95602363	 34.87331854	 30.58395097
No	 47.68385413	 37.18735815	 31.43055336
No	 47.74414409	 35.27621361	 33.62295151
Au	 49.77398197	 35.18573778	 31.57227490
No	 45.63988733	 37.26177986	 33.46457365
No	 46.37799580	 39.63940323	 34.16503747
No	 46.39259709	 37.81403681	 36.43543607
No	 48.45782549	 37.63147054	 34.42747164
No	 44.27226792	 39.77987287	 36.13029570
No	 45.00928412	 42.19779923	 36.66624649
No	 45.00521569	 40.48469761	 39.03282753
No	 47.11451142	 40.22221876	 37.08240951
Au	 49.73610521	 37.12141651	 29.40511797
Au	 50.58945155	 39.35846393	 30.23452101
Au	 50.54017609	 37.46675546	 32.43755928
No	 48.48372367	 39.49893358	 32.19977924
No	 49.36063356	 41.80536978	 32.89710401
No	 49.24313748	 39.97931002	 35.15166436
Au	 51.37833242	 39.74304751	 33.22760498
No	 47.19526883	 42.01174565	 34.79161766
No	 48.10016403	 44.37913065	 35.35321603
No	 47.91218258	 42.61774986	 37.65055086
No	 50.10561182	 42.31778563	 35.80211368
Au	 51.51740089	 41.59053472	 30.99429769
Au	 52.52351598	 43.81391498	 31.68868003
Au	 52.29234644	 42.01119096	 33.94710066
No	 50.31951087	 44.10399663	 33.52807234
Au	 51.36458820	 46.39164410	 34.09771955
No	 51.05136406	 44.64547297	 36.38601827
Au	 53.28616914	 44.26793050	 34.60103250
Au	 54.36344250	 46.50987499	 35.19431085
Au	 49.19589347	 30.93080400	 32.76087478
Au	 49.30548096	 28.95785555	 34.89315016
No	 47.23175164	 30.96403299	 34.88617088
No	 47.80400088	 33.37634740	 35.82809117
No	 47.84775541	 31.47384431	 38.02838330
Au	 49.84620323	 31.33876826	 35.93478252
No	 45.82263022	 33.52593681	 37.93694079
No	 46.41726286	 36.01476128	 38.73415454
No	 46.40926371	 34.20193627	 41.01461218
No	 48.41601908	 33.94214729	 38.93331461
No	 44.45348827	 36.31526998	 40.85705391
No	 45.07366428	 38.86772727	 41.50061626
No	 45.03566291	 37.17455747	 43.88119843
No	 47.01411655	 36.75143109	 41.78006133
Au	 49.81358967	 33.26042545	 33.75185921
Au	 50.49782472	 35.58972213	 34.65812428
Au	 50.45341503	 33.72127366	 36.88788883
Au	 52.51159838	 33.52569575	 34.86683020
No	 48.44152384	 35.78425542	 36.67834506
No	 49.14578815	 38.18208743	 37.43923670
No	 49.05127401	 36.40181133	 39.74455104
No	 51.12862796	 36.09949400	 37.75425237
No	 47.07098374	 38.48290719	 39.42848340
No	 47.78246964	 40.92288968	 40.02093382
No	 47.67971022	 39.27505921	 42.44018608
No	 49.75285499	 38.84527113	 40.46249821
Au	 53.37087951	 37.66101295	 33.54161953
Au	 53.22898697	 35.82354851	 35.78989092
No	 51.25122764	 37.91400545	 35.48281006
No	 52.07704938	 40.22934478	 36.23012148
No	 51.87355682	 38.46805158	 38.53645081
Au	 54.01667520	 38.11527422	 36.63479522
No	 49.91983158	 40.56590809	 38.11525116
No	 50.76921541	 42.93421723	 38.71375384
No	 50.52106494	 41.26637384	 41.08938120
No	 52.69064788	 40.82252225	 39.23834754
Au	 54.24254574	 39.90128070	 34.35356325
Au	 55.18931758	 42.13098728	 35.09688163
Au	 54.87734353	 40.39658062	 37.40531669
No	 52.97926650	 42.53260225	 36.90531774
No	 53.96234074	 44.82116621	 37.51435040
No	 53.58358225	 43.15980777	 39.86547184
Au	 55.81404731	 42.66369992	 38.10598768
Au	 56.21438845	 44.34646520	 35.77612965
Au	 57.32079593	 46.54407529	 36.39598976
Au	 56.83014638	 44.91329227	 38.74194942
Au	 49.86426876	 29.41344291	 38.11139729
Au	 50.39656626	 31.85228520	 39.11490635
Au	 50.32081460	 29.97526887	 41.32972870
No	 48.36503916	 32.08860257	 41.17217044
No	 48.93486603	 34.61578356	 42.03998721
No	 48.78456725	 32.80899173	 44.30808233
Au	 50.84892301	 32.47356242	 42.29327832
No	 46.90012067	 34.98142809	 44.08456775
No	 47.52281992	 37.59705180	 44.82089363
No	 47.29362195	 35.86122951	 47.13388648
No	 49.36072648	 35.39717114	 45.13783991
Au	 53.08425561	 33.99299992	 38.04506672
Au	 52.92949418	 32.16309452	 40.29864796
No	 50.99810905	 34.28963421	 40.02896225
No	 51.66958862	 36.71886337	 40.85473746
No	 51.44971182	 34.96773009	 43.16729111
Au	 53.56128085	 34.56964109	 41.22358207
No	 49.57504029	 37.13135491	 42.81386262
No	 50.28290670	 39.62576763	 43.49225434
No	 50.01245644	 37.97248953	 45.87561619
No	 52.12324616	 37.45050584	 43.95247898
Au	 53.79244312	 36.34030894	 38.92787227
Au	 54.57214817	 38.67752134	 39.73075163
Au	 54.26490042	 36.96775067	 42.06467642
Au	 56.42741866	 36.51051034	 40.20094533
No	 52.41148736	 39.13354848	 41.59383848
No	 53.22474659	 41.52810514	 42.24901054
No	 52.86875522	 39.91428080	 44.64935036
No	 55.04135664	 39.35159428	 42.82417341
Au	 57.64042379	 40.48707446	 38.68076374
Au	 57.23700420	 38.81546042	 41.02471179
No	 55.42548174	 41.00001288	 40.45729853
No	 56.35515823	 43.30394616	 41.11216124
No	 55.89183933	 41.71588101	 43.50508887
Au	 58.12105814	 41.10473751	 41.77569899
Au	 58.60674081	 42.71768691	 39.40771197
Au	 59.65142399	 44.92854458	 40.07196792
Au	 59.08172960	 43.37415095	 42.45811029
Au	 50.67733812	 30.64517498	 44.54000226
Au	 51.20521656	 33.20398980	 45.46140422
Au	 50.93645105	 31.42457918	 47.73410744
No	 49.10779711	 33.63516297	 47.42670873
No	 49.69382774	 36.28506103	 48.21600457
Au	 49.33713141	 34.56728412	 50.51938128
Au	 51.46765686	 34.04433152	 48.61062813
Au	 53.31578022	 32.79580730	 43.51227145
Au	 53.94540052	 35.25803452	 44.39507277
Au	 53.60730247	 33.54069096	 46.71256873
No	 51.80987946	 35.75659025	 46.29409246
No	 52.49119411	 38.29543604	 47.03875665
No	 52.08020639	 36.65620784	 49.39997708
Au	 54.23918997	 36.05972837	 47.55159540
Au	 56.83078703	 37.15136904	 43.37491618
Au	 56.41472352	 35.48843696	 45.72282618
No	 54.64945077	 37.70851836	 45.19348638
No	 55.42810626	 40.14069463	 45.90913856
No	 54.94875854	 38.56418124	 48.30654325
Au	 57.14616788	 37.90708537	 46.53600076
Au	 57.63700293	 39.50346837	 44.15490302
Au	 58.51874657	 41.83574819	 44.86067637
Au	 57.95380805	 40.30728736	 47.27098211
Au	 60.19304336	 39.59342639	 45.58715458
Au	 61.75989871	 43.37691133	 43.90620196
Au	 61.10109883	 41.89310460	 46.31772297
Au	 51.63900584	 34.99503295	 51.73258154
Au	 53.80690088	 34.39890020	 49.89146428
Au	 54.44520563	 36.97542137	 50.68473359
Au	 53.91777569	 35.37114548	 53.04096649
Au	 56.64128096	 36.30797623	 48.90935178
Au	 57.37689168	 38.77940950	 49.67695664
Au	 56.78175117	 37.24423722	 52.06932378
Au	 60.43962314	 40.41737919	 48.73481991
Au	 59.76856197	 38.94326910	 51.14890559
Au	 40.31130044	 40.31130044	 40.31130044
Au	 40.12249466	 42.05293099	 39.92019733
Au	 41.81261148	 42.08305226	 43.97346193
Au	 43.01333952	 40.86632038	 41.10271443
Au	 40.40566939	 44.74085911	 44.16597284
Au	 41.45253125	 47.67968614	 44.71816744
No	 40.76936169	 45.53498159	 46.62677458
Au	 43.12144858	 45.32177457	 44.94752820
No	 39.09504299	 47.89634692	 46.39936144
No	 40.14450319	 50.83593552	 46.75061697
No	 39.50611047	 48.87961885	 48.82121767
No	 41.82351830	 48.51353761	 47.13194544
No	 37.82403616	 51.20407476	 48.44089042
No	 38.92410663	 54.17631029	 48.62939954
No	 38.25244953	 52.33237409	 50.77986261
No	 40.57072786	 51.85370316	 49.12282032
Au	 36.60371431	 54.65647479	 50.28706225
Au	 37.77470805	 57.66626296	 50.32447826
Au	 37.04597711	 55.91256298	 52.52701335
No	 39.37406249	 55.33444749	 50.91699137
No	 42.75252253	 42.31381956	 38.47265657
No	 43.51160453	 44.78131835	 38.86469228
Au	 43.36624695	 43.05977059	 41.19123110
No	 45.69905270	 42.89819048	 39.47963897
Au	 40.99834585	 44.75616347	 40.41936366
Au	 41.96888159	 47.44321030	 40.84003110
Au	 44.29974729	 48.29630262	 45.59463927
Au	 44.04266939	 45.47729050	 41.45385094
Au	 42.53593153	 50.52904218	 45.12571547
Au	 43.68704607	 53.31583115	 45.42451515
No	 42.94256095	 51.42342360	 47.51559798
Au	 45.42633559	 51.09098877	 46.01366917
No	 41.27908707	 53.72500266	 47.00279511
No	 42.50453523	 56.56341053	 47.16581805
No	 41.72927904	 54.77990032	 49.33158404
No	 44.13250889	 54.26607695	 47.79015014
No	 40.12470070	 57.10326377	 48.73186806
Au	 41.42799465	 59.98077775	 48.75461244
Au	 40.60090639	 58.29006951	 50.97122863
No	 42.98341690	 57.65381457	 49.45387653
No	 45.84773916	 44.62183373	 37.14767576
No	 46.79736797	 47.05281203	 37.58326431
No	 46.49875900	 45.31923006	 39.87750960
No	 48.79842053	 45.00529189	 38.15384058
No	 44.42740183	 47.29664405	 39.24976493
No	 45.47121354	 49.82408793	 39.59830616
Au	 44.96569867	 48.02681537	 41.79749242
No	 47.42878123	 47.76183692	 40.24879933
Au	 43.03604501	 50.10849973	 41.18582824
Au	 44.20151413	 52.74651261	 41.46059624
Au	 46.60804798	 53.81006920	 46.31642866
Au	 46.03020546	 50.59697234	 42.11577637
Au	 44.92291046	 56.05134694	 45.63498613
Au	 46.25229256	 58.73822916	 45.76924864
No	 45.40501062	 57.04830902	 47.97211954
Au	 47.87367276	 56.47651560	 46.53488431
No	 43.82607648	 59.35047434	 47.24888836
Au	 45.24766967	 62.08428593	 47.26003200
No	 44.33610833	 60.47270212	 49.49729959
No	 46.76890908	 59.77361388	 48.07459159
No	 49.09901844	 46.73996057	 35.85651964
No	 50.19530755	 49.09024515	 36.30563083
No	 49.78361874	 47.38696305	 38.60316686
No	 52.08590442	 46.96042832	 36.90998104
No	 47.85826625	 49.48307108	 37.97277783
No	 49.02728490	 51.90253976	 38.31391153
No	 48.48574147	 50.21434511	 40.58867743
No	 50.87275936	 49.75999473	 39.00398252
No	 46.62854921	 52.34255642	 39.89715083
No	 47.89294645	 54.83914145	 40.14214173
Au	 47.20977536	 53.15490387	 42.38424810
No	 49.66007185	 52.66035330	 40.88813566
Au	 45.46669768	 55.35179516	 41.66838014
Au	 46.83273164	 57.91897166	 41.81341968
Au	 49.23328816	 59.09429806	 46.68252875
Au	 48.49642965	 55.68624290	 42.59771248
Au	 47.68001262	 61.37524424	 45.83578898
Au	 49.20887147	 63.95939543	 45.84148044
No	 48.22987499	 62.44216041	 48.10748293
Au	 50.69137913	 61.66200050	 46.76768227
Au	 52.49904026	 48.66439115	 34.61031725
Au	 53.72496551	 50.91761582	 35.06946941
No	 53.21324330	 49.25949357	 37.37926178
Au	 55.52718508	 48.73326334	 35.73149815
No	 51.39031361	 51.42433801	 36.70301585
Au	 52.68412521	 53.73588652	 37.05060344
No	 52.06661482	 52.11814874	 39.35812844
Au	 54.43572257	 51.53826356	 37.79780934
No	 50.30136682	 54.30174209	 38.60545191
Au	 51.67830202	 56.67241148	 38.84779890
No	 50.94470917	 55.08657207	 41.14210420
No	 53.36407629	 54.45394042	 39.66637325
No	 49.26147413	 57.30469972	 40.33328031
Au	 50.73272774	 59.73191414	 40.47261077
Au	 49.88730799	 58.18200137	 42.75662874
No	 52.33539499	 57.48286621	 41.34922048
Au	 48.30047622	 60.44275695	 41.90013981
Au	 49.87051348	 62.91796877	 41.93314073
Au	 52.25021243	 64.17632208	 46.79688932
Au	 51.38123970	 60.63521586	 42.86362061
No	 43.24001234	 39.43887708	 43.74686057
Au	 44.00370253	 42.15619757	 44.34409990
No	 43.80819521	 40.46574784	 46.68969044
No	 45.70429567	 39.81665347	 44.52341737
No	 42.28145623	 42.99611886	 46.66980058
Au	 43.35519401	 46.03456940	 47.35755009
No	 42.67369703	 44.00487632	 49.34705233
Au	 44.66599718	 43.31499774	 47.32294291
No	 41.12795019	 46.48670097	 49.13266235
No	 42.16977949	 49.47847605	 49.56466462
No	 41.45198347	 47.56721213	 51.64791472
No	 43.67191604	 46.99478770	 49.89680542
No	 39.87301205	 49.97488391	 51.23972190
No	 40.95035951	 52.97604535	 51.48383443
No	 40.19355793	 51.17886169	 53.64481926
No	 42.48662249	 50.57100740	 52.00463681
No	 38.63109251	 53.55994963	 53.10012802
Au	 39.77524843	 56.58819932	 53.18185040
Au	 38.96200057	 54.88675028	 55.39536701
No	 41.28535546	 54.20359803	 53.82744120
No	 45.71326686	 41.35023332	 41.99712415
No	 46.34911325	 43.73744719	 42.33062606
No	 46.41761041	 42.40428810	 45.03866366
No	 48.39555607	 41.75658663	 42.98673163
Au	 44.37710068	 44.37710068	 44.37710068
Au	 44.34160450	 46.10971818	 43.87905030
Au	 45.77424070	 46.30374703	 48.02588794
Au	 47.06794361	 44.82654899	 45.32263172
Au	 44.53774141	 49.05093153	 47.95857840
Au	 45.74111739	 51.94903033	 48.39498711
No	 44.79941287	 49.98259893	 50.38385605
Au	 47.23215217	 49.51220717	 48.88114201
No	 43.30310733	 52.42332733	 49.89906669
No	 44.52163699	 55.30867214	 50.13549655
No	 43.62695008	 53.53781982	 52.27692710
No	 46.01562180	 52.91668297	 50.77144657
No	 42.12999315	 55.93211550	 51.64164270
No	 43.41122856	 58.83600630	 51.71733161
No	 42.48590789	 57.18444544	 53.92908290
No	 44.86595850	 56.45327395	 52.46276890
No	 48.55916433	 43.33583221	 40.52218995
No	 49.42038493	 45.73341452	 40.95428039
No	 49.15511053	 44.18492269	 43.41745762
No	 51.35968393	 43.66256929	 41.63163647
No	 47.06819723	 46.10953495	 42.59601648
No	 47.96364934	 48.54554750	 42.88316832
Au	 47.55960580	 46.99478441	 45.29760844
No	 49.97858887	 46.57485687	 43.75818641
Au	 45.36233025	 48.78032964	 44.26596309
Au	 46.48116101	 51.42370974	 44.58200223
Au	 48.56287891	 52.44397838	 49.41858189
Au	 48.37748191	 49.37757573	 45.45350318
Au	 46.98394477	 54.74614370	 48.69535071
Au	 48.29682144	 57.46950708	 48.89581386
No	 47.29945343	 55.77026713	 51.04661197
Au	 49.84436739	 55.18472193	 49.73665421
No	 45.82775096	 58.13182071	 50.28206317
No	 47.22653885	 60.89293748	 50.34903749
No	 46.20111120	 59.30902094	 52.56538126
No	 48.65622406	 58.54523297	 51.22202895
No	 51.70168583	 45.28742771	 39.24426861
No	 52.72513233	 47.62592634	 39.71620204
No	 52.27781447	 46.03621026	 42.10120857
No	 54.55732930	 45.47806267	 40.42486916
No	 50.38642455	 48.12713899	 41.33843511
No	 51.46649250	 50.51780824	 41.68389357
No	 50.91104625	 48.96246064	 44.05674176
No	 53.28765227	 48.39207016	 42.51258057
No	 49.01877688	 51.01896451	 43.17081942
No	 50.20446735	 53.49404877	 43.42984150
Au	 49.44466415	 51.88184664	 45.69824568
No	 51.97636658	 51.36165925	 44.33614164
Au	 47.69943565	 54.03442995	 44.83125738
Au	 49.01821926	 56.60714472	 45.01800900
Au	 51.18296950	 57.83901543	 49.94731090
Au	 50.65568618	 54.39616717	 45.92585081
Au	 49.69619072	 60.13066305	 49.01713976
Au	 51.19020450	 62.73249942	 49.07181644
No	 50.09695753	 61.24873546	 51.31449620
Au	 52.60688915	 60.43006591	 50.08286761
No	 55.03065594	 47.09243914	 38.06323476
Au	 56.18790289	 49.34333510	 38.55746386
No	 55.61743616	 47.77596587	 40.92420328
Au	 57.92904844	 47.14220108	 39.31863262
No	 53.84534296	 49.94817173	 40.13673396
No	 55.06525814	 52.25024626	 40.51042913
No	 54.39901015	 50.73233447	 42.87715404
No	 56.76884974	 50.05167721	 41.37053682
No	 52.66018955	 52.89776951	 41.99090610
No	 53.96385408	 55.25703656	 42.25759554
No	 53.17071175	 53.76072468	 44.59207758
No	 55.61632598	 53.05429802	 43.20086260
No	 51.50570908	 55.94982219	 43.64747519
No	 52.91546781	 58.37355665	 43.81995518
Au	 51.98358348	 56.88783678	 46.11225707
No	 54.48402503	 56.14332116	 44.81596463
Au	 50.43830043	 59.13660396	 45.14671859
Au	 51.96018917	 61.61766522	 45.22201859
Au	 54.12558605	 62.96209570	 50.15718321
Au	 53.41977948	 59.34269988	 46.25265567
No	 45.51081012	 38.12079029	 46.87239959
No	 46.22573212	 40.85008975	 47.50642813
No	 45.87805279	 39.14855848	 49.81769308
No	 47.93734950	 38.54402852	 47.83881763
No	 44.23068176	 41.52868287	 49.54457321
No	 45.09914267	 44.42167170	 50.12342781
No	 44.54333383	 42.65893358	 52.33837362
No	 46.62453723	 41.94795702	 50.42233693
No	 42.99308713	 45.11111246	 51.99967608
No	 43.96533978	 48.09721518	 52.45390189
No	 43.24358694	 46.31634740	 54.62219133
No	 45.41492751	 45.58311764	 52.84974934
No	 41.72840597	 48.76189077	 54.15146243
No	 42.76515269	 51.78143875	 54.43547206
No	 41.95316715	 50.06412693	 56.63043824
No	 44.21111730	 49.31529575	 54.99601697
No	 40.46664098	 52.48835573	 56.02706681
No	 41.57658997	 55.53511314	 56.14618954
Au	 40.69276124	 53.90101000	 58.37824385
No	 43.00040338	 53.10256829	 56.84391647
No	 48.21503342	 40.18838882	 45.45713992
No	 48.96213509	 42.73437023	 45.98025249
No	 48.66352099	 41.20877115	 48.45387668
No	 50.73651004	 40.52457344	 46.51927550
No	 47.03414277	 43.56659828	 48.05975895
Au	 47.93800112	 46.26474124	 48.53600764
No	 47.48489577	 44.74933635	 50.96415137
No	 49.46491739	 43.84091137	 48.97328775
No	 46.13385991	 47.36296409	 50.68530167
Au	 47.36217612	 50.36760481	 51.25228258
No	 46.42474011	 48.52097750	 53.31465806
Au	 48.48899723	 47.57539144	 51.47429916
No	 45.06366441	 51.07452178	 52.84387732
No	 46.27303286	 54.01767638	 53.15696092
No	 45.30147807	 52.29747568	 55.30290656
No	 47.58322154	 51.47281588	 53.74222175
No	 43.91446014	 54.76636822	 54.64153950
No	 45.17152554	 57.70417438	 54.76928937
No	 44.16386514	 56.10517409	 56.98294964
No	 46.50917360	 55.24804669	 55.53979641
No	 51.05465013	 42.08907163	 44.07340257
No	 51.88839286	 44.51396246	 44.55868783
No	 51.52589361	 43.04011705	 47.06369486
No	 53.68504862	 42.35158952	 45.25873618
No	 49.73309431	 45.19971067	 46.36256934
No	 50.50413453	 47.55955865	 46.58824332
No	 50.31510014	 46.40759735	 49.37261467
No	 52.36959764	 45.50305865	 47.50096804
Au	 48.45487982	 48.45487982	 48.45487982
Au	 48.56613966	 50.14988823	 47.84909509
Au	 49.74742714	 50.52939785	 52.06180068
Au	 51.10598076	 48.79815332	 49.54774025
Au	 48.70278367	 53.33770985	 51.74150783
Au	 50.06652910	 56.17780823	 52.07554750
No	 48.87420946	 54.41034474	 54.11606366
Au	 51.35918309	 53.69054247	 52.81052579
No	 47.57648102	 56.90191853	 53.38185180
No	 48.96692551	 59.71508533	 53.51854485
No	 47.82492018	 58.14959599	 55.70193083
No	 50.25616605	 57.28223601	 54.40009928
No	 54.11185064	 43.89872318	 42.82516701
No	 55.07777926	 46.24405161	 43.33010562
No	 54.57188065	 44.75643368	 45.78325564
No	 56.81825000	 44.05630943	 44.11170824
No	 52.79095689	 46.90180513	 44.95917447
No	 53.78098304	 49.26449127	 45.29735552
No	 53.26050842	 47.90261238	 47.82912004
No	 55.53244532	 47.12646591	 46.22972845
No	 51.36130379	 49.89463352	 46.75256135
No	 52.39700008	 52.28382824	 46.94628685
Au	 51.74121767	 50.92509267	 49.42043832
No	 54.21813148	 50.25396282	 48.07428785
Au	 49.73596230	 52.77153248	 48.13587820
Au	 51.00608738	 55.35523914	 48.36029646
Au	 52.84569455	 56.56295386	 53.25154077
Au	 52.70429964	 53.25739835	 49.48161284
Au	 51.47132604	 58.90584466	 52.28301848
Au	 52.94720349	 61.54943706	 52.40025182
No	 51.70711829	 60.06228041	 54.58168383
Au	 54.28414368	 59.23362328	 53.48272657
No	 57.36460162	 45.58629810	 41.70103677
No	 58.45771089	 47.84458541	 42.23031104
No	 57.82370424	 46.36993224	 44.64997538
Au	 60.12152859	 45.62005944	 43.07689688
No	 56.12968066	 48.56465189	 43.77379960
No	 57.27485138	 50.86104280	 44.16611653
No	 56.57521969	 49.46425586	 46.61050775
No	 58.91258932	 48.65507025	 45.12735155
No	 54.87812201	 51.61362204	 45.59500461
No	 56.09102266	 53.95003699	 45.86188466
No	 55.28675267	 52.59340271	 48.28484327
No	 57.71176384	 51.77475977	 46.94052939
No	 53.59416233	 54.70035975	 47.14878873
No	 54.92323890	 57.10851729	 47.33135143
Au	 53.91818903	 55.70105383	 49.64026362
No	 56.48964816	 54.93484115	 48.48442816
Au	 52.37723281	 57.89579055	 48.52684962
Au	 53.84983747	 60.38808146	 48.64020405
Au	 55.78041571	 61.80750778	 53.61612235
Au	 55.27705559	 58.14461945	 49.79077913
No	 47.59071424	 36.83942950	 50.15210626
No	 48.25510692	 39.58624570	 50.81914738
No	 47.79507407	 37.91615910	 53.13183195
No	 49.93545328	 37.27810083	 51.26438077
No	 46.14508727	 40.26103135	 52.71401488
No	 46.91308985	 43.11636681	 53.27252798
No	 46.32178588	 41.46403392	 55.56119267
No	 48.47884272	 40.72200764	 53.75316170
No	 44.76652244	 43.87361208	 55.08235766
No	 45.64526898	 46.82819930	 55.52485305
No	 44.91231591	 45.18156576	 57.77913735
No	 47.10786646	 44.36704911	 56.06377227
No	 43.42935500	 47.62182978	 57.20919089
No	 44.40415905	 50.64089613	 57.50883254
No	 43.55473861	 49.02853364	 59.75535342
No	 45.80360796	 48.16707476	 58.15268089
No	 42.12637107	 51.47083550	 59.07575028
No	 43.19110902	 54.52998984	 59.21988550
Au	 42.25015943	 52.98045440	 61.48014152
No	 44.54502534	 52.07099697	 59.98341848
No	 50.36185075	 38.92213925	 48.91687651
No	 51.10988421	 41.53703071	 49.52860043
No	 50.62224398	 39.97637442	 51.92486954
No	 52.77425038	 39.25287547	 50.10336167
No	 49.01325448	 42.32021495	 51.40528058
No	 49.86705177	 45.03576894	 51.91417929
No	 49.26380847	 43.51652602	 54.29871985
No	 51.39763695	 42.65476639	 52.50254231
No	 47.79843184	 45.97122028	 53.76903572
No	 48.81944218	 48.83655441	 54.22299559
No	 48.01086690	 47.26292286	 56.50160127
No	 50.15552472	 46.29796957	 54.77608689
No	 46.65108287	 49.77896575	 55.90857705
No	 47.78940273	 52.72228171	 56.23952242
No	 46.81727449	 51.13783181	 58.46176938
No	 49.04127256	 50.15464412	 56.88662782
No	 45.50019321	 53.63631041	 57.74000555
No	 46.71556322	 56.59760632	 57.90364397
No	 45.65613838	 55.08384087	 60.14250308
No	 47.95675290	 54.08889229	 58.71153483
No	 53.24764361	 40.81209730	 47.69526691
No	 54.07604540	 43.29712762	 48.26250565
No	 53.54842566	 41.82591729	 50.72096922
No	 55.73554594	 41.04685693	 48.97857811
No	 51.93176290	 44.11675732	 50.04679194
No	 52.81233477	 46.64038139	 50.45879166
No	 52.25952930	 45.30407080	 52.99731872
No	 54.39894240	 44.36506326	 51.25110331
No	 50.81812564	 47.72740058	 52.34972378
Au	 51.86783144	 50.38967657	 52.71599199
No	 51.16468680	 49.07011857	 55.19832812
No	 53.20012528	 47.90986794	 53.40387329
No	 50.01028493	 51.73850786	 54.66808289
Au	 51.39781296	 54.69182733	 55.12717322
No	 50.21312560	 53.04828805	 57.23371203
Au	 52.32060630	 51.85578378	 55.59704775
No	 49.05668809	 55.64471683	 56.51540859
No	 50.43707597	 58.52111672	 56.72422747
No	 49.22160631	 57.01115623	 58.90384778
No	 51.53628445	 55.94411129	 57.55261342
No	 56.28132050	 42.54824252	 46.54406131
No	 57.20948886	 44.92572458	 47.10139883
No	 56.59824734	 43.50026004	 49.56862900
No	 58.83811666	 42.68332460	 47.93043307
No	 54.97204871	 45.74073896	 48.73908666
No	 55.93321232	 48.13586591	 49.12671491
No	 55.31827105	 46.85715811	 51.68902634
No	 57.53512957	 45.91708545	 50.07790931
No	 53.72007669	 49.07285904	 50.73718859
No	 54.63064681	 51.38987009	 50.86616960
No	 54.19243552	 50.43946570	 53.69816095
No	 56.29487314	 49.28636731	 52.02713388
Au	 52.54205090	 52.54205090	 52.54205090
Au	 52.79427645	 54.17391588	 51.83168065
Au	 53.73348058	 54.75816713	 56.08172796
Au	 55.12795227	 52.78246289	 53.77620917
Au	 52.89971415	 57.59859441	 55.51844279
Au	 54.42568510	 60.36414328	 55.76480646
No	 52.99379450	 58.81386197	 57.82771138
Au	 55.50193322	 57.85553274	 56.73753539
No	 59.47758910	 44.14371077	 45.49624328
No	 60.51568913	 46.42367441	 46.06665209
No	 59.79973921	 45.03005447	 48.51776553
Au	 62.08680500	 44.16770116	 46.98173849
No	 58.21452620	 47.26951821	 47.58644643
No	 59.30081609	 49.57848594	 48.00738446
No	 58.54538624	 48.29154910	 50.50938464
No	 60.84001661	 47.34335968	 49.03764138
No	 56.96573145	 50.48417801	 49.43677703
No	 58.08755853	 52.79785090	 49.69217041
No	 57.32107091	 51.64226167	 52.26365827
No	 59.63161737	 50.62156755	 50.87020476
No	 55.62916368	 53.67276987	 50.94131511
No	 56.80722982	 56.00039886	 51.05423649
Au	 55.90979397	 54.85253972	 53.55916497
No	 58.41566975	 53.94048432	 52.42497807
Au	 54.11555958	 56.73085718	 52.03170622
Au	 55.53809215	 59.23962760	 52.17865323
Au	 57.14564395	 60.65272135	 57.09657388
Au	 57.02002376	 57.11923208	 53.53880498
Au	 49.47607107	 35.60589313	 53.57853581
No	 50.08850784	 38.37568866	 54.27455351
Au	 49.52907206	 36.75195295	 56.59767291
Au	 51.72275773	 36.05650942	 54.81953493
No	 47.91217699	 39.09305834	 56.06784586
No	 48.61487326	 41.95305754	 56.63642585
Au	 47.94828577	 40.37239136	 58.95595637
Au	 50.15740515	 39.57818946	 57.23985858
No	 46.41730107	 42.76287794	 58.35850882
No	 47.22190707	 45.70892737	 58.79952877
Au	 46.43960903	 44.16160564	 61.10402159
No	 48.67075187	 43.28244914	 59.46615768
No	 44.98914922	 46.58769637	 60.42744890
No	 45.89821473	 49.60431068	 60.73178514
Au	 45.00384650	 48.09488761	 63.02426189
No	 47.26508165	 47.14775411	 61.47993122
Au	 43.62426405	 50.53715575	 62.25545587
Au	 44.63643531	 53.60426631	 62.41287724
Au	 43.64262635	 52.14811369	 64.70438563
Au	 45.93558649	 51.14225642	 63.25882957
No	 52.26274013	 37.66601743	 52.47566126
No	 52.97323532	 40.32084408	 53.13556394
Au	 52.36042444	 38.78546055	 55.51266181
Au	 54.56623815	 38.00516176	 53.78596660
No	 50.79510353	 41.13253788	 54.88935859
No	 51.59768910	 43.87087644	 55.42668446
No	 50.88455997	 42.39003980	 57.80321535
No	 53.08996628	 41.49724406	 56.12547454
No	 49.42324876	 44.80017754	 57.13145720
No	 50.34298348	 47.63292034	 57.56083082
No	 49.50180439	 46.17634399	 59.90361410
No	 51.71321030	 45.18292144	 58.29263032
No	 48.14292254	 48.64096481	 59.17335484
No	 49.18676156	 51.55794090	 59.48836886
No	 48.20704206	 50.11357860	 61.78714836
No	 50.44619369	 49.05172613	 60.27551803
No	 46.92787597	 52.59820087	 60.96904883
No	 48.08055507	 55.56391387	 61.14416879
No	 46.98761272	 54.16041859	 63.42534436
No	 49.26972362	 53.05598537	 62.03240463
No	 55.16508841	 39.53507725	 51.39514650
No	 55.96587315	 42.07041298	 52.02385067
No	 55.30061253	 40.62047647	 54.45005231
Au	 57.52612068	 39.76919497	 52.78994809
No	 53.77003790	 42.95192230	 53.71365631
No	 54.65059694	 45.54999943	 54.20966898
No	 53.91203971	 44.18541132	 56.66078692
No	 56.12048655	 43.20985826	 55.03489272
No	 52.49782576	 46.58520629	 55.89046795
No	 53.49680172	 49.27010833	 56.28483995
No	 52.64660387	 47.95318260	 58.71401788
No	 54.82618448	 46.84275859	 57.12075258
No	 51.38339999	 50.45375495	 57.93628289
No	 52.56226753	 53.27374964	 58.27772502
No	 51.51057551	 51.90841204	 60.59115348
No	 53.68968292	 50.69924361	 59.07540466
No	 50.36054665	 54.45929286	 59.75353616
No	 51.66907938	 57.34146548	 59.97541200
No	 50.45730559	 55.97179691	 62.22252318
No	 52.70484603	 54.74951901	 60.86292945
No	 58.19109889	 41.22890553	 50.36620109
No	 59.08353978	 43.65002452	 50.97912515
No	 58.35211631	 42.26920414	 53.43291257
Au	 60.60701490	 41.36033648	 51.85665263
No	 56.84549724	 44.57311955	 52.57114103
No	 57.80023334	 47.03391379	 53.03628155
No	 57.02393179	 45.76502231	 55.54110806
No	 59.25872725	 44.73720825	 53.99979549
No	 55.60818365	 48.10224400	 54.61963450
No	 56.62710633	 50.58790799	 54.93124350
No	 55.82969978	 49.46024385	 57.50572518
No	 58.00659749	 48.27586463	 55.96739685
No	 54.59562949	 51.92025482	 56.61411569
Au	 55.79504379	 54.53042157	 56.88278464
No	 54.85253573	 53.42507095	 59.39027681
No	 56.91419593	 52.02363904	 57.81078154
No	 53.91324737	 56.11904390	 58.61933441
Au	 55.46263578	 59.00417052	 58.98475721
Au	 54.04246713	 57.58120967	 61.10619887
Au	 56.16389920	 56.15365472	 59.69063392
Au	 61.35018244	 42.76131185	 49.41863004
Au	 62.33926120	 45.07587229	 50.03478765
Au	 61.52499170	 43.74909299	 52.49274283
Au	 63.81236987	 42.78685238	 51.00915208
No	 60.05362150	 46.03660984	 51.51814298
No	 61.10118070	 48.38343092	 51.98675065
No	 60.24409822	 47.16588600	 54.49190216
No	 62.52241724	 46.10399156	 53.06021553
No	 58.82518476	 49.44322722	 53.41821235
No	 59.91734481	 51.79428913	 53.71890921
No	 59.06040643	 50.72943881	 56.30936027
No	 61.30594232	 49.54815122	 54.91078078
No	 57.67535179	 52.97223535	 55.11728718
Au	 58.72804841	 55.23147247	 55.16191561
Au	 58.05212127	 54.50047135	 58.01221954
Au	 60.17328966	 53.11018955	 56.55964512
Au	 56.63261014	 56.63261014	 56.63261014
Au	 38.24436450	 58.94754802	 52.51183882
Au	 41.93394265	 61.19387663	 50.94806175
Au	 42.83614811	 62.80496680	 48.70412109
Au	 43.37440501	 64.04120318	 50.85350549
Au	 45.79026671	 63.23394144	 49.46943261
Au	 46.77209503	 64.76193134	 47.20636600
Au	 47.34822050	 65.93451706	 49.37745162
Au	 49.79139727	 65.05205010	 48.07879616
Au	 51.45554901	 67.60023084	 47.99548484
Au	 53.91093712	 66.63322573	 46.77601625
Au	 40.13090634	 57.93845452	 55.41876081
Au	 41.02913333	 59.56883805	 53.18402997
Au	 42.39290317	 62.49566922	 53.11162687
Au	 41.41349788	 60.94098417	 55.36582138
No	 43.79377894	 60.11329459	 53.95317781
Au	 42.80949726	 63.88770713	 55.24129695
No	 44.79492031	 61.68282548	 51.71683674
Au	 46.28256601	 64.46871700	 51.64685183
Au	 45.20852031	 62.98382369	 53.90461054
No	 47.63336553	 62.10100344	 52.59148903
Au	 46.73039124	 65.79099619	 53.78924360
No	 48.72258901	 63.59162626	 50.34597391
Au	 50.31921722	 66.22627348	 50.28124691
No	 49.16502027	 64.82680932	 52.54903045
No	 51.62987714	 63.88457277	 51.33741464
Au	 47.87565402	 67.19010813	 51.51422384
Au	 48.35993577	 68.53048861	 53.61343930
Au	 50.79833044	 67.48415008	 52.44591025
Au	 52.78305246	 65.27405137	 49.06869200
Au	 54.47689662	 67.75261680	 49.01498392
No	 53.26002361	 66.45321874	 51.30102597
Au	 55.74291422	 65.43396805	 50.17892963
Au	 52.01855521	 68.79427701	 50.16231016
Au	 52.53496750	 70.07035451	 52.28961717
Au	 54.99024680	 68.95309715	 51.21364958
Au	 39.24734566	 56.31222448	 57.65919656
Au	 40.44399294	 59.38526528	 57.62213080
Au	 41.82525885	 56.96890420	 58.43269888
No	 42.80002020	 58.53749612	 56.18840384
Au	 44.13553071	 61.48732745	 56.15718999
Au	 43.07474733	 59.99066998	 58.41345055
No	 45.44071686	 59.06147167	 57.04895616
Au	 44.44009619	 62.95844144	 58.32433403
No	 46.53283166	 60.58497157	 54.82069812
No	 47.99696531	 63.40202190	 54.80032926
No	 46.82799940	 61.96190848	 57.04427834
No	 49.24090970	 60.98811035	 55.78773130
Au	 45.58210525	 64.37762629	 56.05701981
Au	 47.13917849	 67.20254162	 55.89322915
Au	 45.92014563	 65.86509008	 58.16981772
No	 48.32352982	 64.79872649	 56.97274504
Au	 47.51388249	 68.70434414	 57.95502471
No	 50.44605513	 62.45488855	 53.57544116
No	 52.01830954	 65.12185736	 53.56309692
No	 50.75386095	 63.75564749	 55.80075496
No	 53.23169582	 62.75286281	 54.67367737
No	 49.56408279	 66.15079453	 54.71445520
Au	 51.23500235	 68.82780092	 54.57008156
Au	 49.92613738	 67.56598262	 56.83958454
Au	 52.36403886	 66.44855409	 55.74801506
Au	 54.51001010	 64.12043541	 52.44829801
Au	 56.16727794	 66.62203749	 52.43995493
Au	 54.84030573	 65.36153793	 54.69309553
Au	 57.36212643	 64.30810835	 53.68433789
Au	 53.68763661	 67.71594622	 53.49135635
Au	 40.87374368	 55.41517955	 60.69118709
Au	 42.03331347	 58.50338531	 60.68011473
Au	 43.33837666	 56.06102456	 61.55535795
No	 44.37443834	 57.55049582	 59.29187935
No	 45.67478425	 60.52337346	 59.29448494
Au	 44.54703319	 59.09940984	 61.56032206
No	 46.88760266	 58.05861214	 60.23542334
Au	 43.31261312	 61.54285838	 60.59804520
Au	 44.71077157	 64.52613287	 60.44923458
Au	 45.87526621	 62.08763541	 61.49871032
No	 48.04558076	 59.51223816	 57.99929894
No	 49.48465558	 62.36802731	 58.02705640
No	 48.23706538	 60.98551144	 60.26416206
No	 50.60556671	 59.88998355	 59.03621644
No	 47.08998181	 63.43988300	 59.23080535
Au	 48.61787582	 66.29219970	 59.10472263
Au	 47.32152976	 65.01774053	 61.37434758
Au	 49.70091858	 63.85438050	 60.23059562
No	 51.91273152	 61.32712961	 56.85514022
Au	 53.47579300	 64.05108400	 56.90842870
Au	 52.09852827	 62.70829607	 59.10437265
Au	 54.54312780	 61.60661501	 58.02350854
Au	 51.02850514	 65.15547958	 57.98926662
Au	 55.99297484	 63.00712964	 55.89483470
Au	 43.44475346	 57.69390665	 63.84357789
Au	 44.68212385	 55.23994079	 64.79125895
No	 45.76977853	 56.63638419	 62.50154413
No	 47.02436703	 59.62608507	 62.52528227
Au	 45.84359467	 58.29176925	 64.81014143
No	 48.16172283	 57.14371140	 63.52875656
Au	 44.68380394	 60.74968841	 63.78136797
Au	 46.04442754	 63.75210125	 63.65503472
Au	 47.12728038	 61.29675552	 64.76547326
No	 49.35665362	 58.49397312	 61.26063243
Au	 50.75353166	 61.37813588	 61.31989596
Au	 49.45848568	 60.08539904	 63.57334761
Au	 51.77256291	 58.85621605	 62.36315106
Au	 48.39897960	 62.56511857	 62.48746534
Au	 53.10808372	 60.19115320	 60.15232659
Au	 56.77963966	 50.93388282	 36.21672617
Au	 55.75437241	 53.79148499	 38.16876157
Au	 54.07633400	 56.01846398	 37.35046602
Au	 54.76360092	 56.75994279	 39.92981553
Au	 57.16938822	 56.01351930	 38.49497880
Au	 53.15659617	 59.00732841	 39.04268304
Au	 53.82960352	 59.84115296	 41.51049999
Au	 56.26375042	 59.02924397	 40.15031643
Au	 52.97762396	 63.03986304	 42.92233390
Au	 55.42572510	 62.15460600	 41.62840422
Au	 59.11384921	 49.34714871	 39.84138042
Au	 57.43671651	 51.57003542	 39.00174673
Au	 58.77865498	 53.76804608	 39.40009967
No	 58.01502635	 52.30215140	 41.76957090
Au	 60.38702063	 51.52450482	 40.31517112
No	 56.38562604	 54.52661102	 40.84018041
Au	 57.80599266	 56.77106241	 41.12831009
No	 56.93983985	 55.35182277	 43.48597937
Au	 59.35775948	 54.52311807	 42.12566792
No	 55.37388772	 57.58628256	 42.48314053
Au	 56.88751550	 59.87743951	 42.66830739
No	 55.90870537	 58.49631759	 45.00311249
No	 58.36790240	 57.61757528	 43.73366228
No	 54.43021702	 60.75632950	 43.94765764
Au	 56.04794457	 63.09107736	 44.03298073
Au	 54.96079998	 61.75201444	 46.34787368
No	 57.43992350	 60.80979558	 45.15251260
Au	 61.75025892	 53.67020903	 40.74453071
Au	 60.79753057	 56.70949007	 42.44234834
Au	 59.32539529	 58.97736356	 41.37725516
Au	 59.89841528	 59.84432854	 43.94536542
Au	 62.33398139	 58.85583014	 42.72282479
Au	 58.50266184	 62.12352594	 42.81516985
Au	 59.07456387	 63.07593076	 45.26551185
Au	 61.52937103	 62.02541262	 44.12327716
Au	 60.77712609	 47.11609896	 40.67850824
Au	 61.98633866	 49.27684792	 41.23242441
Au	 61.24325886	 47.83926932	 43.63760988
No	 59.63830443	 50.07634799	 42.70642741
Au	 60.90951050	 52.27864781	 43.13529353
No	 60.08986421	 50.91057155	 45.55191955
Au	 62.44976599	 50.02878570	 44.14608045
No	 58.51850580	 53.13180587	 44.51468699
No	 59.86302751	 55.37315991	 44.82449611
No	 58.95128487	 54.06030035	 47.23166344
No	 61.35989308	 53.13476475	 45.93115594
No	 57.41876339	 56.26615667	 46.09869511
No	 58.85715123	 58.55213967	 46.30394529
No	 57.82248494	 57.26655166	 48.66922742
No	 60.29765290	 56.31830151	 47.49028218
No	 56.36868140	 59.48749724	 47.48157783
Au	 57.92287367	 61.82481230	 47.59604367
Au	 56.75337287	 60.55561138	 49.90944308
Au	 59.27469740	 59.57232235	 48.83104107
Au	 63.74358224	 52.18550675	 44.60803935
Au	 62.27340606	 54.44783082	 43.52201177
Au	 63.73099410	 56.57959148	 43.87096516
No	 62.72556049	 55.32478071	 46.27115745
Au	 65.12661802	 54.30599399	 45.02883456
No	 61.30861338	 57.57973463	 45.09881945
Au	 62.85425449	 59.74553479	 45.34032589
Au	 61.75055764	 58.54278680	 47.71904756
Au	 64.18809701	 57.47654496	 46.57665350
Au	 60.40203422	 60.79886748	 46.47715912
Au	 66.60001081	 56.38639899	 45.41333885
Au	 62.82512564	 45.58636609	 44.55539795
Au	 63.97098537	 47.76710178	 45.14859933
Au	 63.15176180	 46.41318823	 47.58379080
No	 61.63590073	 48.67279386	 46.57799190
No	 62.84154394	 50.88877758	 47.03703583
No	 61.96148545	 49.62050605	 49.49637035
Au	 64.29791851	 48.62611228	 48.12920412
No	 60.47489318	 51.85340429	 48.37458467
No	 61.74344355	 54.09499105	 48.69832610
No	 60.80166611	 52.90999253	 51.17307466
No	 63.16793849	 51.86004385	 49.90177878
No	 59.31767723	 55.08866022	 49.91516121
Au	 60.66414818	 57.35755200	 50.11599414
Au	 59.62216997	 56.21763270	 52.55994598
Au	 62.06644351	 55.16203200	 51.43332749
Au	 58.14736058	 58.34577721	 51.18492303
Au	 65.19957389	 49.91575007	 45.69115933
Au	 66.51282257	 52.02900647	 46.18853195
Au	 65.52750928	 50.80348711	 48.62389167
No	 64.13585650	 53.06936596	 47.45060737
Au	 65.52139052	 55.21183085	 47.82498048
Au	 64.46373412	 54.06105409	 50.26231710
Au	 66.84280569	 52.94254045	 49.07403601
Au	 63.11109039	 56.30201584	 48.98664242
Au	 65.72879032	 46.34533910	 49.20363258
Au	 64.82394068	 45.06895526	 51.65378048
No	 63.40787561	 47.35674985	 50.58766769
No	 64.55761630	 49.60047910	 51.08267024
No	 63.59938016	 48.42009742	 53.56283163
Au	 65.91531831	 47.31682239	 52.23885395
No	 62.22755373	 50.68711275	 52.39057435
Au	 63.43652090	 52.94679309	 52.73812250
Au	 62.44288751	 51.87849116	 55.25969131
Au	 64.75665186	 50.69353661	 54.00557920
Au	 61.08228466	 54.08913278	 53.95001906
Au	 66.89595324	 48.52239754	 49.78328891
Au	 68.14499339	 50.66211370	 50.31432940
Au	 67.08754259	 49.52664797	 52.76930028
Au	 65.79075715	 51.80445339	 51.52622595
Au	 53.58411536	 64.04530574	 45.24870189
Au	 55.31002780	 66.41463416	 45.23171102
Au	 57.46050404	 67.84268948	 50.15498031
Au	 56.60485307	 64.10909321	 46.40087990
Au	 55.42405998	 62.82713088	 48.70518212
Au	 51.72315530	 37.22930683	 57.86453788
Au	 50.14757892	 40.88665571	 60.15489506
Au	 47.90983753	 41.75640484	 61.79224227
Au	 48.65401093	 44.71318144	 62.23969704
Au	 50.06499382	 42.30241079	 63.01495773
Au	 46.39577846	 45.66308140	 63.79478117
Au	 47.24534703	 48.68710136	 64.10304379
Au	 48.57178107	 46.24766847	 64.95398830
Au	 45.92154552	 52.78214420	 65.72973804
Au	 47.16961322	 50.32912622	 66.66577390
Au	 54.60558882	 39.14866503	 56.84711647
Au	 52.37725257	 40.01435230	 58.50364513
No	 53.12782009	 42.78073601	 59.06494391
Au	 52.31813075	 41.35294228	 61.44237489
Au	 54.56724639	 40.40561358	 59.86069211
No	 50.89650005	 43.74982566	 60.66150547
No	 51.75088269	 46.59194929	 61.09627467
Au	 50.83757202	 45.21348164	 63.46032983
Au	 53.09163146	 44.17096568	 61.94760606
No	 49.50898738	 47.64969730	 62.61475316
No	 50.47851861	 50.56269090	 62.92390369
Au	 49.45313028	 49.22363708	 65.26321889
No	 51.71860440	 48.10034574	 63.83515856
No	 48.21202980	 51.68503629	 64.34197840
No	 49.29878821	 54.65271389	 64.51755845
Au	 48.16506186	 53.35758319	 66.83510095
No	 50.45016104	 52.17093744	 65.50641850
Au	 56.83954197	 38.29765640	 55.19481698
Au	 57.59697134	 40.87641919	 55.86672006
Au	 56.81838528	 39.46821101	 58.27804137
No	 55.35791057	 41.81907146	 57.46218678
No	 56.20073983	 44.46245695	 58.00119656
Au	 55.34040533	 43.12955910	 60.42333238
Au	 57.59275663	 42.10039026	 58.89896962
No	 53.97635344	 45.52296667	 59.55242990
No	 54.92407372	 48.23563704	 59.97028924
No	 53.96749729	 46.96327009	 62.38179774
No	 56.20891936	 45.82534974	 60.91316579
No	 52.71423069	 49.40977836	 61.46562445
No	 53.79160943	 52.20199158	 61.77788363
No	 52.71122901	 50.95951751	 64.14576596
No	 54.94778204	 49.72545020	 62.75027981
No	 51.56722977	 53.45001575	 63.17474666
Au	 52.78091653	 56.31078422	 63.37612057
Au	 51.56612371	 55.08617882	 65.69021649
Au	 53.81957237	 53.78883893	 64.39977653
Au	 59.85015527	 39.95700681	 54.28619689
Au	 60.69910263	 42.42335251	 54.94555268
Au	 59.85542805	 41.09057893	 57.38405518
No	 58.43967992	 43.42780062	 56.46258162
No	 59.36642767	 45.94449517	 56.98396396
No	 58.45648010	 44.70321860	 59.44619260
Au	 60.71958022	 43.60655971	 57.99387381
No	 57.13303554	 47.07138147	 58.46594950
No	 58.15165940	 49.63677181	 58.85658415
No	 57.17283851	 48.48670972	 61.33343972
No	 59.40856074	 47.26963130	 59.92179549
No	 55.97192516	 50.91343628	 60.32288856
Au	 57.12057327	 53.55116201	 60.61476472
Au	 56.03510895	 52.45406009	 63.05938530
Au	 58.23109167	 51.10663701	 61.68671697
Au	 54.99173579	 54.97124683	 62.04520523
Au	 63.91661597	 43.80115628	 54.10880000
Au	 63.00004049	 42.53536288	 56.56008329
No	 61.62974306	 44.85775039	 55.53346206
No	 62.64116029	 47.25394557	 56.05233359
No	 61.66819876	 46.08745171	 58.53333255
Au	 63.95151885	 44.93718605	 57.17004911
No	 60.37459012	 48.41837643	 57.43154127
Au	 61.45988448	 50.84038305	 57.80491114
Au	 60.44648903	 49.79153929	 60.32678385
Au	 62.69970993	 48.52639557	 59.00437548
Au	 59.24930515	 52.14600532	 59.16950170
Au	 54.45590515	 41.77582500	 62.82001985
Au	 52.98721785	 45.66828387	 64.76837796
Au	 50.71457977	 46.78258361	 66.19607127
Au	 51.62424145	 49.71045141	 66.50694656
Au	 52.82090014	 47.27332435	 67.52288784
Au	 49.34164649	 50.90037957	 67.84636497
Au	 50.36940269	 53.87939869	 68.02144080
Au	 51.47524555	 51.42402314	 69.10891914
Au	 57.51725459	 43.44007589	 61.87878985
Au	 55.25251795	 44.55101927	 63.32646278
No	 56.14880653	 47.29645099	 63.76299248
Au	 55.09953931	 46.08298060	 66.16567801
Au	 57.37488286	 44.89441363	 64.79900559
No	 53.89170372	 48.50656864	 65.14430882
Au	 54.90428915	 51.31255267	 65.45701483
Au	 53.75594158	 50.15376876	 67.83642315
Au	 56.02558894	 48.87468384	 66.54468040
Au	 52.64740896	 52.60643104	 66.75434784
Au	 59.78829662	 42.34368129	 60.43478745
Au	 60.67206383	 44.90919301	 60.99360375
Au	 59.65296106	 43.71554120	 63.43088541
No	 58.40556413	 46.09339253	 62.37496216
Au	 59.38694723	 48.70910972	 62.80308640
Au	 58.29076580	 47.59626553	 65.24101548
Au	 60.56032386	 46.32980536	 63.93673729
Au	 57.14564654	 50.00682403	 64.13402944
Au	 62.95324133	 43.74825000	 59.62661765
Au	 63.92145866	 46.19527790	 60.18602125
Au	 62.84085679	 45.08260722	 62.64134816
Au	 61.64367291	 47.43707325	 61.48406600
Au	 57.17071981	 46.46248604	 67.65329416
Au	 47.00136381	 55.82454991	 65.82571195
Au	 48.20330515	 58.82633082	 65.85869290
Au	 46.97415095	 57.59037855	 68.16534617
Au	 49.28078943	 56.34983973	 66.94079332
Au	 50.50830904	 57.58579411	 64.63577252
Au	 64.93653284	 46.12406709	 54.70427439
Au	 66.03690513	 48.40834226	 55.23942375
Au	 64.98477279	 47.30110189	 57.71570284
Au	 67.29111942	 46.10181909	 56.45018581
Au	 63.73220454	 49.60600432	 56.50491547
