33 
{'Pt': 33}
Pt	 0.57708816	 6.48127712	 -10.12367960
Pt	 0.57708816	 4.57208881	 -12.03286791
Pt	 -1.33210015	 6.48127712	 -12.03286791
Pt	 -1.33210015	 4.57208881	 -10.12367960
Pt	 1.21348426	 3.93569271	 -9.48728350
Pt	 -0.27143998	 5.42061695	 -7.79022722
Pt	 -0.83712540	 2.80432186	 -8.14378062
Pt	 1.40204607	 3.53499887	 -6.82384796
Pt	 -1.01783047	 3.90426574	 -5.68462037
Pt	 -0.03049989	 1.40844070	 -5.97793873
Pt	 1.07293588	 3.09414834	 -4.18049076
Pt	 -1.38564239	 2.06957099	 -3.73818528
Pt	 0.78902620	 0.47717428	 -3.57978948
Pt	 0.34804635	 2.35215504	 -1.68770494
Pt	 -1.23864911	 0.17178519	 -1.82329571
Pt	 1.31792469	 -0.06882798	 -0.98900814
Pt	 -0.50414492	 1.15956723	 0.57978361
Pt	 -0.63129257	 -1.51047208	 0.19935811
Pt	 1.36030724	 -0.45160708	 1.68338477
Pt	 -1.16801152	 -0.46617998	 2.63069247
Pt	 0.21148035	 -2.77840666	 2.42917329
Pt	 0.90047662	 -0.95365706	 4.29614224
Pt	 -1.39767694	 -2.34722205	 4.55395390
Pt	 0.97753153	 -3.58667720	 4.88882048
Pt	 0.10874046	 -1.81329755	 6.73010446
Pt	 -1.10807992	 -4.21114081	 6.48577699
Pt	 1.38313833	 -4.06018832	 7.51584738
Pt	 -0.72166562	 -3.13640725	 8.93233207
Pt	 -0.40647860	 -5.79186003	 8.55919984
Pt	 1.27807598	 -4.44782960	 10.18580921
Pt	 -1.28318382	 -4.85720960	 10.93571336
Pt	 0.44727467	 -6.92819224	 10.85481620
Pt	 0.70125649	 -5.03029426	 12.75835934
