20073 
{'Co': 3068, 'No': 17005}
Co	 -40.72935060	 -40.72935060	 -40.72935060
Co	 -40.72935060	 -38.69288307	 -38.69288307
Co	 -38.69288307	 -40.72935060	 -38.69288307
Co	 -38.69288307	 -38.69288307	 -40.72935060
Co	 -40.72935060	 -40.72935060	 -36.65641554
Co	 -40.72935060	 -38.69288307	 -34.61994801
Co	 -38.69288307	 -40.72935060	 -34.61994801
No	 -38.69288307	 -38.69288307	 -36.65641554
Co	 -40.72935060	 -40.72935060	 -32.58348048
Co	 -40.72935060	 -38.69288307	 -30.54701295
Co	 -38.69288307	 -40.72935060	 -30.54701295
No	 -38.69288307	 -38.69288307	 -32.58348048
Co	 -40.72935060	 -40.72935060	 -28.51054542
Co	 -40.72935060	 -38.69288307	 -26.47407789
Co	 -38.69288307	 -40.72935060	 -26.47407789
No	 -38.69288307	 -38.69288307	 -28.51054542
Co	 -40.72935060	 -40.72935060	 -24.43761036
Co	 -40.72935060	 -38.69288307	 -22.40114283
Co	 -38.69288307	 -40.72935060	 -22.40114283
No	 -38.69288307	 -38.69288307	 -24.43761036
Co	 -40.72935060	 -40.72935060	 -20.36467530
Co	 -40.72935060	 -38.69288307	 -18.32820777
Co	 -38.69288307	 -40.72935060	 -18.32820777
No	 -38.69288307	 -38.69288307	 -20.36467530
Co	 -40.72935060	 -40.72935060	 -16.29174024
Co	 -40.72935060	 -38.69288307	 -14.25527271
Co	 -38.69288307	 -40.72935060	 -14.25527271
No	 -38.69288307	 -38.69288307	 -16.29174024
Co	 -40.72935060	 -40.72935060	 -12.21880518
Co	 -40.72935060	 -38.69288307	 -10.18233765
Co	 -38.69288307	 -40.72935060	 -10.18233765
No	 -38.69288307	 -38.69288307	 -12.21880518
Co	 -40.72935060	 -40.72935060	 -8.14587012
Co	 -40.72935060	 -38.69288307	 -6.10940259
Co	 -38.69288307	 -40.72935060	 -6.10940259
No	 -38.69288307	 -38.69288307	 -8.14587012
Co	 -40.72935060	 -40.72935060	 -4.07293506
Co	 -40.72935060	 -38.69288307	 -2.03646753
Co	 -38.69288307	 -40.72935060	 -2.03646753
No	 -38.69288307	 -38.69288307	 -4.07293506
Co	 -40.72935060	 -40.72935060	 -0.00000000
Co	 -40.72935060	 -38.69288307	 2.03646753
Co	 -38.69288307	 -40.72935060	 2.03646753
No	 -38.69288307	 -38.69288307	 -0.00000000
Co	 -40.72935060	 -40.72935060	 4.07293506
Co	 -40.72935060	 -38.69288307	 6.10940259
Co	 -38.69288307	 -40.72935060	 6.10940259
No	 -38.69288307	 -38.69288307	 4.07293506
Co	 -40.72935060	 -40.72935060	 8.14587012
Co	 -40.72935060	 -38.69288307	 10.18233765
Co	 -38.69288307	 -40.72935060	 10.18233765
No	 -38.69288307	 -38.69288307	 8.14587012
Co	 -40.72935060	 -40.72935060	 12.21880518
Co	 -40.72935060	 -38.69288307	 14.25527271
Co	 -38.69288307	 -40.72935060	 14.25527271
No	 -38.69288307	 -38.69288307	 12.21880518
Co	 -40.72935060	 -40.72935060	 16.29174024
Co	 -40.72935060	 -38.69288307	 18.32820777
Co	 -38.69288307	 -40.72935060	 18.32820777
No	 -38.69288307	 -38.69288307	 16.29174024
Co	 -40.72935060	 -40.72935060	 20.36467530
Co	 -40.72935060	 -38.69288307	 22.40114283
Co	 -38.69288307	 -40.72935060	 22.40114283
No	 -38.69288307	 -38.69288307	 20.36467530
Co	 -40.72935060	 -40.72935060	 24.43761036
Co	 -40.72935060	 -38.69288307	 26.47407789
Co	 -38.69288307	 -40.72935060	 26.47407789
No	 -38.69288307	 -38.69288307	 24.43761036
Co	 -40.72935060	 -40.72935060	 28.51054542
Co	 -40.72935060	 -38.69288307	 30.54701295
Co	 -38.69288307	 -40.72935060	 30.54701295
No	 -38.69288307	 -38.69288307	 28.51054542
Co	 -40.72935060	 -40.72935060	 32.58348048
Co	 -40.72935060	 -38.69288307	 34.61994801
Co	 -38.69288307	 -40.72935060	 34.61994801
No	 -38.69288307	 -38.69288307	 32.58348048
Co	 -40.72935060	 -40.72935060	 36.65641554
Co	 -40.72935060	 -38.69288307	 38.69288307
Co	 -38.69288307	 -40.72935060	 38.69288307
No	 -38.69288307	 -38.69288307	 36.65641554
Co	 -40.72935060	 -36.65641554	 -40.72935060
Co	 -40.72935060	 -34.61994801	 -38.69288307
No	 -38.69288307	 -36.65641554	 -38.69288307
Co	 -38.69288307	 -34.61994801	 -40.72935060
Co	 -40.72935060	 -36.65641554	 -36.65641554
Co	 -40.72935060	 -34.61994801	 -34.61994801
No	 -38.69288307	 -36.65641554	 -34.61994801
No	 -38.69288307	 -34.61994801	 -36.65641554
Co	 -40.72935060	 -36.65641554	 -32.58348048
Co	 -40.72935060	 -34.61994801	 -30.54701295
No	 -38.69288307	 -36.65641554	 -30.54701295
No	 -38.69288307	 -34.61994801	 -32.58348048
Co	 -40.72935060	 -36.65641554	 -28.51054542
Co	 -40.72935060	 -34.61994801	 -26.47407789
No	 -38.69288307	 -36.65641554	 -26.47407789
No	 -38.69288307	 -34.61994801	 -28.51054542
Co	 -40.72935060	 -36.65641554	 -24.43761036
Co	 -40.72935060	 -34.61994801	 -22.40114283
No	 -38.69288307	 -36.65641554	 -22.40114283
No	 -38.69288307	 -34.61994801	 -24.43761036
Co	 -40.72935060	 -36.65641554	 -20.36467530
Co	 -40.72935060	 -34.61994801	 -18.32820777
No	 -38.69288307	 -36.65641554	 -18.32820777
No	 -38.69288307	 -34.61994801	 -20.36467530
Co	 -40.72935060	 -36.65641554	 -16.29174024
Co	 -40.72935060	 -34.61994801	 -14.25527271
No	 -38.69288307	 -36.65641554	 -14.25527271
No	 -38.69288307	 -34.61994801	 -16.29174024
Co	 -40.72935060	 -36.65641554	 -12.21880518
Co	 -40.72935060	 -34.61994801	 -10.18233765
No	 -38.69288307	 -36.65641554	 -10.18233765
No	 -38.69288307	 -34.61994801	 -12.21880518
Co	 -40.72935060	 -36.65641554	 -8.14587012
Co	 -40.72935060	 -34.61994801	 -6.10940259
No	 -38.69288307	 -36.65641554	 -6.10940259
No	 -38.69288307	 -34.61994801	 -8.14587012
Co	 -40.72935060	 -36.65641554	 -4.07293506
Co	 -40.72935060	 -34.61994801	 -2.03646753
No	 -38.69288307	 -36.65641554	 -2.03646753
No	 -38.69288307	 -34.61994801	 -4.07293506
Co	 -40.72935060	 -36.65641554	 -0.00000000
Co	 -40.72935060	 -34.61994801	 2.03646753
No	 -38.69288307	 -36.65641554	 2.03646753
Co	 -40.72935060	 -36.65641554	 4.07293506
Co	 -40.72935060	 -34.61994801	 6.10940259
No	 -38.69288307	 -36.65641554	 6.10940259
No	 -38.69288307	 -34.61994801	 4.07293506
Co	 -40.72935060	 -36.65641554	 8.14587012
Co	 -40.72935060	 -34.61994801	 10.18233765
No	 -38.69288307	 -36.65641554	 10.18233765
No	 -38.69288307	 -34.61994801	 8.14587012
Co	 -40.72935060	 -36.65641554	 12.21880518
Co	 -40.72935060	 -34.61994801	 14.25527271
No	 -38.69288307	 -36.65641554	 14.25527271
No	 -38.69288307	 -34.61994801	 12.21880518
Co	 -40.72935060	 -36.65641554	 16.29174024
Co	 -40.72935060	 -34.61994801	 18.32820777
No	 -38.69288307	 -36.65641554	 18.32820777
No	 -38.69288307	 -34.61994801	 16.29174024
Co	 -40.72935060	 -36.65641554	 20.36467530
Co	 -40.72935060	 -34.61994801	 22.40114283
No	 -38.69288307	 -36.65641554	 22.40114283
No	 -38.69288307	 -34.61994801	 20.36467530
Co	 -40.72935060	 -36.65641554	 24.43761036
Co	 -40.72935060	 -34.61994801	 26.47407789
No	 -38.69288307	 -36.65641554	 26.47407789
No	 -38.69288307	 -34.61994801	 24.43761036
Co	 -40.72935060	 -36.65641554	 28.51054542
Co	 -40.72935060	 -34.61994801	 30.54701295
No	 -38.69288307	 -36.65641554	 30.54701295
No	 -38.69288307	 -34.61994801	 28.51054542
Co	 -40.72935060	 -36.65641554	 32.58348048
Co	 -40.72935060	 -34.61994801	 34.61994801
No	 -38.69288307	 -36.65641554	 34.61994801
No	 -38.69288307	 -34.61994801	 32.58348048
Co	 -40.72935060	 -36.65641554	 36.65641554
Co	 -40.72935060	 -34.61994801	 38.69288307
No	 -38.69288307	 -36.65641554	 38.69288307
No	 -38.69288307	 -34.61994801	 36.65641554
Co	 -40.72935060	 -32.58348048	 -40.72935060
Co	 -40.72935060	 -30.54701295	 -38.69288307
No	 -38.69288307	 -32.58348048	 -38.69288307
Co	 -38.69288307	 -30.54701295	 -40.72935060
Co	 -40.72935060	 -32.58348048	 -36.65641554
Co	 -40.72935060	 -30.54701295	 -34.61994801
No	 -38.69288307	 -32.58348048	 -34.61994801
No	 -38.69288307	 -30.54701295	 -36.65641554
Co	 -40.72935060	 -32.58348048	 -32.58348048
Co	 -40.72935060	 -30.54701295	 -30.54701295
No	 -38.69288307	 -32.58348048	 -30.54701295
No	 -38.69288307	 -30.54701295	 -32.58348048
Co	 -40.72935060	 -32.58348048	 -28.51054542
Co	 -40.72935060	 -30.54701295	 -26.47407789
No	 -38.69288307	 -32.58348048	 -26.47407789
No	 -38.69288307	 -30.54701295	 -28.51054542
Co	 -40.72935060	 -32.58348048	 -24.43761036
Co	 -40.72935060	 -30.54701295	 -22.40114283
No	 -38.69288307	 -32.58348048	 -22.40114283
No	 -38.69288307	 -30.54701295	 -24.43761036
Co	 -40.72935060	 -32.58348048	 -20.36467530
Co	 -40.72935060	 -30.54701295	 -18.32820777
No	 -38.69288307	 -32.58348048	 -18.32820777
No	 -38.69288307	 -30.54701295	 -20.36467530
Co	 -40.72935060	 -32.58348048	 -16.29174024
Co	 -40.72935060	 -30.54701295	 -14.25527271
No	 -38.69288307	 -32.58348048	 -14.25527271
No	 -38.69288307	 -30.54701295	 -16.29174024
Co	 -40.72935060	 -32.58348048	 -12.21880518
Co	 -40.72935060	 -30.54701295	 -10.18233765
No	 -38.69288307	 -32.58348048	 -10.18233765
No	 -38.69288307	 -30.54701295	 -12.21880518
Co	 -40.72935060	 -32.58348048	 -8.14587012
Co	 -40.72935060	 -30.54701295	 -6.10940259
No	 -38.69288307	 -32.58348048	 -6.10940259
No	 -38.69288307	 -30.54701295	 -8.14587012
Co	 -40.72935060	 -32.58348048	 -4.07293506
Co	 -40.72935060	 -32.58348048	 4.07293506
Co	 -40.72935060	 -30.54701295	 6.10940259
No	 -38.69288307	 -32.58348048	 6.10940259
Co	 -40.72935060	 -32.58348048	 8.14587012
Co	 -40.72935060	 -30.54701295	 10.18233765
No	 -38.69288307	 -32.58348048	 10.18233765
No	 -38.69288307	 -30.54701295	 8.14587012
Co	 -40.72935060	 -32.58348048	 12.21880518
Co	 -40.72935060	 -30.54701295	 14.25527271
No	 -38.69288307	 -32.58348048	 14.25527271
No	 -38.69288307	 -30.54701295	 12.21880518
Co	 -40.72935060	 -32.58348048	 16.29174024
Co	 -40.72935060	 -30.54701295	 18.32820777
No	 -38.69288307	 -32.58348048	 18.32820777
No	 -38.69288307	 -30.54701295	 16.29174024
Co	 -40.72935060	 -32.58348048	 20.36467530
Co	 -40.72935060	 -30.54701295	 22.40114283
No	 -38.69288307	 -32.58348048	 22.40114283
No	 -38.69288307	 -30.54701295	 20.36467530
Co	 -40.72935060	 -32.58348048	 24.43761036
Co	 -40.72935060	 -30.54701295	 26.47407789
No	 -38.69288307	 -32.58348048	 26.47407789
No	 -38.69288307	 -30.54701295	 24.43761036
Co	 -40.72935060	 -32.58348048	 28.51054542
Co	 -40.72935060	 -30.54701295	 30.54701295
No	 -38.69288307	 -32.58348048	 30.54701295
No	 -38.69288307	 -30.54701295	 28.51054542
Co	 -40.72935060	 -32.58348048	 32.58348048
Co	 -40.72935060	 -30.54701295	 34.61994801
No	 -38.69288307	 -32.58348048	 34.61994801
No	 -38.69288307	 -30.54701295	 32.58348048
Co	 -40.72935060	 -32.58348048	 36.65641554
Co	 -40.72935060	 -30.54701295	 38.69288307
No	 -38.69288307	 -32.58348048	 38.69288307
No	 -38.69288307	 -30.54701295	 36.65641554
Co	 -40.72935060	 -28.51054542	 -40.72935060
Co	 -40.72935060	 -26.47407789	 -38.69288307
No	 -38.69288307	 -28.51054542	 -38.69288307
Co	 -38.69288307	 -26.47407789	 -40.72935060
Co	 -40.72935060	 -28.51054542	 -36.65641554
Co	 -40.72935060	 -26.47407789	 -34.61994801
No	 -38.69288307	 -28.51054542	 -34.61994801
No	 -38.69288307	 -26.47407789	 -36.65641554
Co	 -40.72935060	 -28.51054542	 -32.58348048
Co	 -40.72935060	 -26.47407789	 -30.54701295
No	 -38.69288307	 -28.51054542	 -30.54701295
No	 -38.69288307	 -26.47407789	 -32.58348048
Co	 -40.72935060	 -28.51054542	 -28.51054542
Co	 -40.72935060	 -26.47407789	 -26.47407789
No	 -38.69288307	 -28.51054542	 -26.47407789
No	 -38.69288307	 -26.47407789	 -28.51054542
Co	 -40.72935060	 -28.51054542	 -24.43761036
Co	 -40.72935060	 -26.47407789	 -22.40114283
No	 -38.69288307	 -28.51054542	 -22.40114283
No	 -38.69288307	 -26.47407789	 -24.43761036
Co	 -40.72935060	 -28.51054542	 -20.36467530
Co	 -40.72935060	 -26.47407789	 -18.32820777
No	 -38.69288307	 -28.51054542	 -18.32820777
No	 -38.69288307	 -26.47407789	 -20.36467530
Co	 -40.72935060	 -28.51054542	 -16.29174024
Co	 -40.72935060	 -26.47407789	 -14.25527271
No	 -38.69288307	 -28.51054542	 -14.25527271
No	 -38.69288307	 -26.47407789	 -16.29174024
Co	 -40.72935060	 -28.51054542	 -12.21880518
Co	 -40.72935060	 -26.47407789	 -10.18233765
No	 -38.69288307	 -28.51054542	 -10.18233765
No	 -38.69288307	 -26.47407789	 -12.21880518
Co	 -40.72935060	 -28.51054542	 -8.14587012
Co	 -40.72935060	 -28.51054542	 8.14587012
Co	 -40.72935060	 -26.47407789	 10.18233765
No	 -38.69288307	 -28.51054542	 10.18233765
Co	 -40.72935060	 -28.51054542	 12.21880518
Co	 -40.72935060	 -26.47407789	 14.25527271
No	 -38.69288307	 -28.51054542	 14.25527271
No	 -38.69288307	 -26.47407789	 12.21880518
Co	 -40.72935060	 -28.51054542	 16.29174024
Co	 -40.72935060	 -26.47407789	 18.32820777
No	 -38.69288307	 -28.51054542	 18.32820777
No	 -38.69288307	 -26.47407789	 16.29174024
Co	 -40.72935060	 -28.51054542	 20.36467530
Co	 -40.72935060	 -26.47407789	 22.40114283
No	 -38.69288307	 -28.51054542	 22.40114283
No	 -38.69288307	 -26.47407789	 20.36467530
Co	 -40.72935060	 -28.51054542	 24.43761036
Co	 -40.72935060	 -26.47407789	 26.47407789
No	 -38.69288307	 -28.51054542	 26.47407789
No	 -38.69288307	 -26.47407789	 24.43761036
Co	 -40.72935060	 -28.51054542	 28.51054542
Co	 -40.72935060	 -26.47407789	 30.54701295
No	 -38.69288307	 -28.51054542	 30.54701295
No	 -38.69288307	 -26.47407789	 28.51054542
Co	 -40.72935060	 -28.51054542	 32.58348048
Co	 -40.72935060	 -26.47407789	 34.61994801
No	 -38.69288307	 -28.51054542	 34.61994801
No	 -38.69288307	 -26.47407789	 32.58348048
Co	 -40.72935060	 -28.51054542	 36.65641554
Co	 -40.72935060	 -26.47407789	 38.69288307
No	 -38.69288307	 -28.51054542	 38.69288307
No	 -38.69288307	 -26.47407789	 36.65641554
Co	 -40.72935060	 -24.43761036	 -40.72935060
Co	 -40.72935060	 -22.40114283	 -38.69288307
No	 -38.69288307	 -24.43761036	 -38.69288307
Co	 -38.69288307	 -22.40114283	 -40.72935060
Co	 -40.72935060	 -24.43761036	 -36.65641554
Co	 -40.72935060	 -22.40114283	 -34.61994801
No	 -38.69288307	 -24.43761036	 -34.61994801
No	 -38.69288307	 -22.40114283	 -36.65641554
Co	 -40.72935060	 -24.43761036	 -32.58348048
Co	 -40.72935060	 -22.40114283	 -30.54701295
No	 -38.69288307	 -24.43761036	 -30.54701295
No	 -38.69288307	 -22.40114283	 -32.58348048
Co	 -40.72935060	 -24.43761036	 -28.51054542
Co	 -40.72935060	 -22.40114283	 -26.47407789
No	 -38.69288307	 -24.43761036	 -26.47407789
No	 -38.69288307	 -22.40114283	 -28.51054542
Co	 -40.72935060	 -24.43761036	 -24.43761036
Co	 -40.72935060	 -22.40114283	 -22.40114283
No	 -38.69288307	 -24.43761036	 -22.40114283
No	 -38.69288307	 -22.40114283	 -24.43761036
Co	 -40.72935060	 -24.43761036	 -20.36467530
Co	 -40.72935060	 -22.40114283	 -18.32820777
No	 -38.69288307	 -24.43761036	 -18.32820777
No	 -38.69288307	 -22.40114283	 -20.36467530
Co	 -40.72935060	 -24.43761036	 -16.29174024
Co	 -40.72935060	 -22.40114283	 -14.25527271
No	 -38.69288307	 -24.43761036	 -14.25527271
No	 -38.69288307	 -22.40114283	 -16.29174024
Co	 -40.72935060	 -24.43761036	 -12.21880518
Co	 -40.72935060	 -24.43761036	 12.21880518
Co	 -40.72935060	 -22.40114283	 14.25527271
No	 -38.69288307	 -24.43761036	 14.25527271
Co	 -40.72935060	 -24.43761036	 16.29174024
Co	 -40.72935060	 -22.40114283	 18.32820777
No	 -38.69288307	 -24.43761036	 18.32820777
No	 -38.69288307	 -22.40114283	 16.29174024
Co	 -40.72935060	 -24.43761036	 20.36467530
Co	 -40.72935060	 -22.40114283	 22.40114283
No	 -38.69288307	 -24.43761036	 22.40114283
No	 -38.69288307	 -22.40114283	 20.36467530
Co	 -40.72935060	 -24.43761036	 24.43761036
Co	 -40.72935060	 -22.40114283	 26.47407789
No	 -38.69288307	 -24.43761036	 26.47407789
No	 -38.69288307	 -22.40114283	 24.43761036
Co	 -40.72935060	 -24.43761036	 28.51054542
Co	 -40.72935060	 -22.40114283	 30.54701295
No	 -38.69288307	 -24.43761036	 30.54701295
No	 -38.69288307	 -22.40114283	 28.51054542
Co	 -40.72935060	 -24.43761036	 32.58348048
Co	 -40.72935060	 -22.40114283	 34.61994801
No	 -38.69288307	 -24.43761036	 34.61994801
No	 -38.69288307	 -22.40114283	 32.58348048
Co	 -40.72935060	 -24.43761036	 36.65641554
Co	 -40.72935060	 -22.40114283	 38.69288307
No	 -38.69288307	 -24.43761036	 38.69288307
No	 -38.69288307	 -22.40114283	 36.65641554
Co	 -40.72935060	 -20.36467530	 -40.72935060
Co	 -40.72935060	 -18.32820777	 -38.69288307
No	 -38.69288307	 -20.36467530	 -38.69288307
Co	 -38.69288307	 -18.32820777	 -40.72935060
Co	 -40.72935060	 -20.36467530	 -36.65641554
Co	 -40.72935060	 -18.32820777	 -34.61994801
No	 -38.69288307	 -20.36467530	 -34.61994801
No	 -38.69288307	 -18.32820777	 -36.65641554
Co	 -40.72935060	 -20.36467530	 -32.58348048
Co	 -40.72935060	 -18.32820777	 -30.54701295
No	 -38.69288307	 -20.36467530	 -30.54701295
No	 -38.69288307	 -18.32820777	 -32.58348048
Co	 -40.72935060	 -20.36467530	 -28.51054542
Co	 -40.72935060	 -18.32820777	 -26.47407789
No	 -38.69288307	 -20.36467530	 -26.47407789
No	 -38.69288307	 -18.32820777	 -28.51054542
Co	 -40.72935060	 -20.36467530	 -24.43761036
Co	 -40.72935060	 -18.32820777	 -22.40114283
No	 -38.69288307	 -20.36467530	 -22.40114283
No	 -38.69288307	 -18.32820777	 -24.43761036
Co	 -40.72935060	 -20.36467530	 -20.36467530
Co	 -40.72935060	 -18.32820777	 -18.32820777
No	 -38.69288307	 -20.36467530	 -18.32820777
No	 -38.69288307	 -18.32820777	 -20.36467530
Co	 -40.72935060	 -20.36467530	 -16.29174024
Co	 -40.72935060	 -20.36467530	 16.29174024
Co	 -40.72935060	 -18.32820777	 18.32820777
No	 -38.69288307	 -20.36467530	 18.32820777
Co	 -40.72935060	 -20.36467530	 20.36467530
Co	 -40.72935060	 -18.32820777	 22.40114283
No	 -38.69288307	 -20.36467530	 22.40114283
No	 -38.69288307	 -18.32820777	 20.36467530
Co	 -40.72935060	 -20.36467530	 24.43761036
Co	 -40.72935060	 -18.32820777	 26.47407789
No	 -38.69288307	 -20.36467530	 26.47407789
No	 -38.69288307	 -18.32820777	 24.43761036
Co	 -40.72935060	 -20.36467530	 28.51054542
Co	 -40.72935060	 -18.32820777	 30.54701295
No	 -38.69288307	 -20.36467530	 30.54701295
No	 -38.69288307	 -18.32820777	 28.51054542
Co	 -40.72935060	 -20.36467530	 32.58348048
Co	 -40.72935060	 -18.32820777	 34.61994801
No	 -38.69288307	 -20.36467530	 34.61994801
No	 -38.69288307	 -18.32820777	 32.58348048
Co	 -40.72935060	 -20.36467530	 36.65641554
Co	 -40.72935060	 -18.32820777	 38.69288307
No	 -38.69288307	 -20.36467530	 38.69288307
No	 -38.69288307	 -18.32820777	 36.65641554
Co	 -40.72935060	 -16.29174024	 -40.72935060
Co	 -40.72935060	 -14.25527271	 -38.69288307
No	 -38.69288307	 -16.29174024	 -38.69288307
Co	 -38.69288307	 -14.25527271	 -40.72935060
Co	 -40.72935060	 -16.29174024	 -36.65641554
Co	 -40.72935060	 -14.25527271	 -34.61994801
No	 -38.69288307	 -16.29174024	 -34.61994801
No	 -38.69288307	 -14.25527271	 -36.65641554
Co	 -40.72935060	 -16.29174024	 -32.58348048
Co	 -40.72935060	 -14.25527271	 -30.54701295
No	 -38.69288307	 -16.29174024	 -30.54701295
No	 -38.69288307	 -14.25527271	 -32.58348048
Co	 -40.72935060	 -16.29174024	 -28.51054542
Co	 -40.72935060	 -14.25527271	 -26.47407789
No	 -38.69288307	 -16.29174024	 -26.47407789
No	 -38.69288307	 -14.25527271	 -28.51054542
Co	 -40.72935060	 -16.29174024	 -24.43761036
Co	 -40.72935060	 -14.25527271	 -22.40114283
No	 -38.69288307	 -16.29174024	 -22.40114283
No	 -38.69288307	 -14.25527271	 -24.43761036
Co	 -40.72935060	 -16.29174024	 -20.36467530
Co	 -40.72935060	 -16.29174024	 20.36467530
Co	 -40.72935060	 -14.25527271	 22.40114283
No	 -38.69288307	 -16.29174024	 22.40114283
Co	 -40.72935060	 -16.29174024	 24.43761036
Co	 -40.72935060	 -14.25527271	 26.47407789
No	 -38.69288307	 -16.29174024	 26.47407789
No	 -38.69288307	 -14.25527271	 24.43761036
Co	 -40.72935060	 -16.29174024	 28.51054542
Co	 -40.72935060	 -14.25527271	 30.54701295
No	 -38.69288307	 -16.29174024	 30.54701295
No	 -38.69288307	 -14.25527271	 28.51054542
Co	 -40.72935060	 -16.29174024	 32.58348048
Co	 -40.72935060	 -14.25527271	 34.61994801
No	 -38.69288307	 -16.29174024	 34.61994801
No	 -38.69288307	 -14.25527271	 32.58348048
Co	 -40.72935060	 -16.29174024	 36.65641554
Co	 -40.72935060	 -14.25527271	 38.69288307
No	 -38.69288307	 -16.29174024	 38.69288307
No	 -38.69288307	 -14.25527271	 36.65641554
Co	 -40.72935060	 -12.21880518	 -40.72935060
Co	 -40.72935060	 -10.18233765	 -38.69288307
No	 -38.69288307	 -12.21880518	 -38.69288307
Co	 -38.69288307	 -10.18233765	 -40.72935060
Co	 -40.72935060	 -12.21880518	 -36.65641554
Co	 -40.72935060	 -10.18233765	 -34.61994801
No	 -38.69288307	 -12.21880518	 -34.61994801
No	 -38.69288307	 -10.18233765	 -36.65641554
Co	 -40.72935060	 -12.21880518	 -32.58348048
Co	 -40.72935060	 -10.18233765	 -30.54701295
No	 -38.69288307	 -12.21880518	 -30.54701295
No	 -38.69288307	 -10.18233765	 -32.58348048
Co	 -40.72935060	 -12.21880518	 -28.51054542
Co	 -40.72935060	 -10.18233765	 -26.47407789
No	 -38.69288307	 -12.21880518	 -26.47407789
No	 -38.69288307	 -10.18233765	 -28.51054542
Co	 -40.72935060	 -12.21880518	 -24.43761036
Co	 -40.72935060	 -12.21880518	 24.43761036
Co	 -40.72935060	 -10.18233765	 26.47407789
No	 -38.69288307	 -12.21880518	 26.47407789
Co	 -40.72935060	 -12.21880518	 28.51054542
Co	 -40.72935060	 -10.18233765	 30.54701295
No	 -38.69288307	 -12.21880518	 30.54701295
No	 -38.69288307	 -10.18233765	 28.51054542
Co	 -40.72935060	 -12.21880518	 32.58348048
Co	 -40.72935060	 -10.18233765	 34.61994801
No	 -38.69288307	 -12.21880518	 34.61994801
No	 -38.69288307	 -10.18233765	 32.58348048
Co	 -40.72935060	 -12.21880518	 36.65641554
Co	 -40.72935060	 -10.18233765	 38.69288307
No	 -38.69288307	 -12.21880518	 38.69288307
No	 -38.69288307	 -10.18233765	 36.65641554
Co	 -40.72935060	 -8.14587012	 -40.72935060
Co	 -40.72935060	 -6.10940259	 -38.69288307
No	 -38.69288307	 -8.14587012	 -38.69288307
Co	 -38.69288307	 -6.10940259	 -40.72935060
Co	 -40.72935060	 -8.14587012	 -36.65641554
Co	 -40.72935060	 -6.10940259	 -34.61994801
No	 -38.69288307	 -8.14587012	 -34.61994801
No	 -38.69288307	 -6.10940259	 -36.65641554
Co	 -40.72935060	 -8.14587012	 -32.58348048
Co	 -40.72935060	 -6.10940259	 -30.54701295
No	 -38.69288307	 -8.14587012	 -30.54701295
No	 -38.69288307	 -6.10940259	 -32.58348048
Co	 -40.72935060	 -8.14587012	 -28.51054542
Co	 -40.72935060	 -8.14587012	 28.51054542
Co	 -40.72935060	 -6.10940259	 30.54701295
No	 -38.69288307	 -8.14587012	 30.54701295
Co	 -40.72935060	 -8.14587012	 32.58348048
Co	 -40.72935060	 -6.10940259	 34.61994801
No	 -38.69288307	 -8.14587012	 34.61994801
No	 -38.69288307	 -6.10940259	 32.58348048
Co	 -40.72935060	 -8.14587012	 36.65641554
Co	 -40.72935060	 -6.10940259	 38.69288307
No	 -38.69288307	 -8.14587012	 38.69288307
No	 -38.69288307	 -6.10940259	 36.65641554
Co	 -40.72935060	 -4.07293506	 -40.72935060
Co	 -40.72935060	 -2.03646753	 -38.69288307
No	 -38.69288307	 -4.07293506	 -38.69288307
Co	 -38.69288307	 -2.03646753	 -40.72935060
Co	 -40.72935060	 -4.07293506	 -36.65641554
Co	 -40.72935060	 -2.03646753	 -34.61994801
No	 -38.69288307	 -4.07293506	 -34.61994801
No	 -38.69288307	 -2.03646753	 -36.65641554
Co	 -40.72935060	 -4.07293506	 -32.58348048
Co	 -40.72935060	 -4.07293506	 32.58348048
Co	 -40.72935060	 -2.03646753	 34.61994801
No	 -38.69288307	 -4.07293506	 34.61994801
Co	 -40.72935060	 -4.07293506	 36.65641554
Co	 -40.72935060	 -2.03646753	 38.69288307
No	 -38.69288307	 -4.07293506	 38.69288307
No	 -38.69288307	 -2.03646753	 36.65641554
Co	 -40.72935060	 -0.00000000	 -40.72935060
Co	 -40.72935060	 2.03646753	 -38.69288307
No	 -38.69288307	 -0.00000000	 -38.69288307
Co	 -38.69288307	 2.03646753	 -40.72935060
Co	 -40.72935060	 -0.00000000	 -36.65641554
Co	 -40.72935060	 2.03646753	 -34.61994801
No	 -38.69288307	 2.03646753	 -36.65641554
Co	 -40.72935060	 2.03646753	 34.61994801
Co	 -40.72935060	 -0.00000000	 36.65641554
Co	 -40.72935060	 2.03646753	 38.69288307
No	 -38.69288307	 -0.00000000	 38.69288307
No	 -38.69288307	 2.03646753	 36.65641554
Co	 -40.72935060	 4.07293506	 -40.72935060
Co	 -40.72935060	 6.10940259	 -38.69288307
No	 -38.69288307	 4.07293506	 -38.69288307
Co	 -38.69288307	 6.10940259	 -40.72935060
Co	 -40.72935060	 4.07293506	 -36.65641554
Co	 -40.72935060	 6.10940259	 -34.61994801
No	 -38.69288307	 4.07293506	 -34.61994801
No	 -38.69288307	 6.10940259	 -36.65641554
Co	 -40.72935060	 4.07293506	 -32.58348048
Co	 -40.72935060	 6.10940259	 -30.54701295
No	 -38.69288307	 6.10940259	 -32.58348048
Co	 -40.72935060	 6.10940259	 30.54701295
Co	 -40.72935060	 4.07293506	 32.58348048
Co	 -40.72935060	 6.10940259	 34.61994801
No	 -38.69288307	 4.07293506	 34.61994801
No	 -38.69288307	 6.10940259	 32.58348048
Co	 -40.72935060	 4.07293506	 36.65641554
Co	 -40.72935060	 6.10940259	 38.69288307
No	 -38.69288307	 4.07293506	 38.69288307
No	 -38.69288307	 6.10940259	 36.65641554
Co	 -40.72935060	 8.14587012	 -40.72935060
Co	 -40.72935060	 10.18233765	 -38.69288307
No	 -38.69288307	 8.14587012	 -38.69288307
Co	 -38.69288307	 10.18233765	 -40.72935060
Co	 -40.72935060	 8.14587012	 -36.65641554
Co	 -40.72935060	 10.18233765	 -34.61994801
No	 -38.69288307	 8.14587012	 -34.61994801
No	 -38.69288307	 10.18233765	 -36.65641554
Co	 -40.72935060	 8.14587012	 -32.58348048
Co	 -40.72935060	 10.18233765	 -30.54701295
No	 -38.69288307	 8.14587012	 -30.54701295
No	 -38.69288307	 10.18233765	 -32.58348048
Co	 -40.72935060	 8.14587012	 -28.51054542
Co	 -40.72935060	 10.18233765	 -26.47407789
No	 -38.69288307	 10.18233765	 -28.51054542
Co	 -40.72935060	 10.18233765	 26.47407789
Co	 -40.72935060	 8.14587012	 28.51054542
Co	 -40.72935060	 10.18233765	 30.54701295
No	 -38.69288307	 8.14587012	 30.54701295
No	 -38.69288307	 10.18233765	 28.51054542
Co	 -40.72935060	 8.14587012	 32.58348048
Co	 -40.72935060	 10.18233765	 34.61994801
No	 -38.69288307	 8.14587012	 34.61994801
No	 -38.69288307	 10.18233765	 32.58348048
Co	 -40.72935060	 8.14587012	 36.65641554
Co	 -40.72935060	 10.18233765	 38.69288307
No	 -38.69288307	 8.14587012	 38.69288307
No	 -38.69288307	 10.18233765	 36.65641554
Co	 -40.72935060	 12.21880518	 -40.72935060
Co	 -40.72935060	 14.25527271	 -38.69288307
No	 -38.69288307	 12.21880518	 -38.69288307
Co	 -38.69288307	 14.25527271	 -40.72935060
Co	 -40.72935060	 12.21880518	 -36.65641554
Co	 -40.72935060	 14.25527271	 -34.61994801
No	 -38.69288307	 12.21880518	 -34.61994801
No	 -38.69288307	 14.25527271	 -36.65641554
Co	 -40.72935060	 12.21880518	 -32.58348048
Co	 -40.72935060	 14.25527271	 -30.54701295
No	 -38.69288307	 12.21880518	 -30.54701295
No	 -38.69288307	 14.25527271	 -32.58348048
Co	 -40.72935060	 12.21880518	 -28.51054542
Co	 -40.72935060	 14.25527271	 -26.47407789
No	 -38.69288307	 12.21880518	 -26.47407789
No	 -38.69288307	 14.25527271	 -28.51054542
Co	 -40.72935060	 12.21880518	 -24.43761036
Co	 -40.72935060	 14.25527271	 -22.40114283
No	 -38.69288307	 14.25527271	 -24.43761036
Co	 -40.72935060	 14.25527271	 22.40114283
Co	 -40.72935060	 12.21880518	 24.43761036
Co	 -40.72935060	 14.25527271	 26.47407789
No	 -38.69288307	 12.21880518	 26.47407789
No	 -38.69288307	 14.25527271	 24.43761036
Co	 -40.72935060	 12.21880518	 28.51054542
Co	 -40.72935060	 14.25527271	 30.54701295
No	 -38.69288307	 12.21880518	 30.54701295
No	 -38.69288307	 14.25527271	 28.51054542
Co	 -40.72935060	 12.21880518	 32.58348048
Co	 -40.72935060	 14.25527271	 34.61994801
No	 -38.69288307	 12.21880518	 34.61994801
No	 -38.69288307	 14.25527271	 32.58348048
Co	 -40.72935060	 12.21880518	 36.65641554
Co	 -40.72935060	 14.25527271	 38.69288307
No	 -38.69288307	 12.21880518	 38.69288307
No	 -38.69288307	 14.25527271	 36.65641554
Co	 -40.72935060	 16.29174024	 -40.72935060
Co	 -40.72935060	 18.32820777	 -38.69288307
No	 -38.69288307	 16.29174024	 -38.69288307
Co	 -38.69288307	 18.32820777	 -40.72935060
Co	 -40.72935060	 16.29174024	 -36.65641554
Co	 -40.72935060	 18.32820777	 -34.61994801
No	 -38.69288307	 16.29174024	 -34.61994801
No	 -38.69288307	 18.32820777	 -36.65641554
Co	 -40.72935060	 16.29174024	 -32.58348048
Co	 -40.72935060	 18.32820777	 -30.54701295
No	 -38.69288307	 16.29174024	 -30.54701295
No	 -38.69288307	 18.32820777	 -32.58348048
Co	 -40.72935060	 16.29174024	 -28.51054542
Co	 -40.72935060	 18.32820777	 -26.47407789
No	 -38.69288307	 16.29174024	 -26.47407789
No	 -38.69288307	 18.32820777	 -28.51054542
Co	 -40.72935060	 16.29174024	 -24.43761036
Co	 -40.72935060	 18.32820777	 -22.40114283
No	 -38.69288307	 16.29174024	 -22.40114283
No	 -38.69288307	 18.32820777	 -24.43761036
Co	 -40.72935060	 16.29174024	 -20.36467530
Co	 -40.72935060	 18.32820777	 -18.32820777
No	 -38.69288307	 18.32820777	 -20.36467530
Co	 -40.72935060	 18.32820777	 18.32820777
Co	 -40.72935060	 16.29174024	 20.36467530
Co	 -40.72935060	 18.32820777	 22.40114283
No	 -38.69288307	 16.29174024	 22.40114283
No	 -38.69288307	 18.32820777	 20.36467530
Co	 -40.72935060	 16.29174024	 24.43761036
Co	 -40.72935060	 18.32820777	 26.47407789
No	 -38.69288307	 16.29174024	 26.47407789
No	 -38.69288307	 18.32820777	 24.43761036
Co	 -40.72935060	 16.29174024	 28.51054542
Co	 -40.72935060	 18.32820777	 30.54701295
No	 -38.69288307	 16.29174024	 30.54701295
No	 -38.69288307	 18.32820777	 28.51054542
Co	 -40.72935060	 16.29174024	 32.58348048
Co	 -40.72935060	 18.32820777	 34.61994801
No	 -38.69288307	 16.29174024	 34.61994801
No	 -38.69288307	 18.32820777	 32.58348048
Co	 -40.72935060	 16.29174024	 36.65641554
Co	 -40.72935060	 18.32820777	 38.69288307
No	 -38.69288307	 16.29174024	 38.69288307
No	 -38.69288307	 18.32820777	 36.65641554
Co	 -40.72935060	 20.36467530	 -40.72935060
Co	 -40.72935060	 22.40114283	 -38.69288307
No	 -38.69288307	 20.36467530	 -38.69288307
Co	 -38.69288307	 22.40114283	 -40.72935060
Co	 -40.72935060	 20.36467530	 -36.65641554
Co	 -40.72935060	 22.40114283	 -34.61994801
No	 -38.69288307	 20.36467530	 -34.61994801
No	 -38.69288307	 22.40114283	 -36.65641554
Co	 -40.72935060	 20.36467530	 -32.58348048
Co	 -40.72935060	 22.40114283	 -30.54701295
No	 -38.69288307	 20.36467530	 -30.54701295
No	 -38.69288307	 22.40114283	 -32.58348048
Co	 -40.72935060	 20.36467530	 -28.51054542
Co	 -40.72935060	 22.40114283	 -26.47407789
No	 -38.69288307	 20.36467530	 -26.47407789
No	 -38.69288307	 22.40114283	 -28.51054542
Co	 -40.72935060	 20.36467530	 -24.43761036
Co	 -40.72935060	 22.40114283	 -22.40114283
No	 -38.69288307	 20.36467530	 -22.40114283
No	 -38.69288307	 22.40114283	 -24.43761036
Co	 -40.72935060	 20.36467530	 -20.36467530
Co	 -40.72935060	 22.40114283	 -18.32820777
No	 -38.69288307	 20.36467530	 -18.32820777
No	 -38.69288307	 22.40114283	 -20.36467530
Co	 -40.72935060	 20.36467530	 -16.29174024
Co	 -40.72935060	 22.40114283	 -14.25527271
No	 -38.69288307	 22.40114283	 -16.29174024
Co	 -40.72935060	 22.40114283	 14.25527271
Co	 -40.72935060	 20.36467530	 16.29174024
Co	 -40.72935060	 22.40114283	 18.32820777
No	 -38.69288307	 20.36467530	 18.32820777
No	 -38.69288307	 22.40114283	 16.29174024
Co	 -40.72935060	 20.36467530	 20.36467530
Co	 -40.72935060	 22.40114283	 22.40114283
No	 -38.69288307	 20.36467530	 22.40114283
No	 -38.69288307	 22.40114283	 20.36467530
Co	 -40.72935060	 20.36467530	 24.43761036
Co	 -40.72935060	 22.40114283	 26.47407789
No	 -38.69288307	 20.36467530	 26.47407789
No	 -38.69288307	 22.40114283	 24.43761036
Co	 -40.72935060	 20.36467530	 28.51054542
Co	 -40.72935060	 22.40114283	 30.54701295
No	 -38.69288307	 20.36467530	 30.54701295
No	 -38.69288307	 22.40114283	 28.51054542
Co	 -40.72935060	 20.36467530	 32.58348048
Co	 -40.72935060	 22.40114283	 34.61994801
No	 -38.69288307	 20.36467530	 34.61994801
No	 -38.69288307	 22.40114283	 32.58348048
Co	 -40.72935060	 20.36467530	 36.65641554
Co	 -40.72935060	 22.40114283	 38.69288307
No	 -38.69288307	 20.36467530	 38.69288307
No	 -38.69288307	 22.40114283	 36.65641554
Co	 -40.72935060	 24.43761036	 -40.72935060
Co	 -40.72935060	 26.47407789	 -38.69288307
No	 -38.69288307	 24.43761036	 -38.69288307
Co	 -38.69288307	 26.47407789	 -40.72935060
Co	 -40.72935060	 24.43761036	 -36.65641554
Co	 -40.72935060	 26.47407789	 -34.61994801
No	 -38.69288307	 24.43761036	 -34.61994801
No	 -38.69288307	 26.47407789	 -36.65641554
Co	 -40.72935060	 24.43761036	 -32.58348048
Co	 -40.72935060	 26.47407789	 -30.54701295
No	 -38.69288307	 24.43761036	 -30.54701295
No	 -38.69288307	 26.47407789	 -32.58348048
Co	 -40.72935060	 24.43761036	 -28.51054542
Co	 -40.72935060	 26.47407789	 -26.47407789
No	 -38.69288307	 24.43761036	 -26.47407789
No	 -38.69288307	 26.47407789	 -28.51054542
Co	 -40.72935060	 24.43761036	 -24.43761036
Co	 -40.72935060	 26.47407789	 -22.40114283
No	 -38.69288307	 24.43761036	 -22.40114283
No	 -38.69288307	 26.47407789	 -24.43761036
Co	 -40.72935060	 24.43761036	 -20.36467530
Co	 -40.72935060	 26.47407789	 -18.32820777
No	 -38.69288307	 24.43761036	 -18.32820777
No	 -38.69288307	 26.47407789	 -20.36467530
Co	 -40.72935060	 24.43761036	 -16.29174024
Co	 -40.72935060	 26.47407789	 -14.25527271
No	 -38.69288307	 24.43761036	 -14.25527271
No	 -38.69288307	 26.47407789	 -16.29174024
Co	 -40.72935060	 24.43761036	 -12.21880518
Co	 -40.72935060	 26.47407789	 -10.18233765
No	 -38.69288307	 26.47407789	 -12.21880518
Co	 -40.72935060	 26.47407789	 10.18233765
Co	 -40.72935060	 24.43761036	 12.21880518
Co	 -40.72935060	 26.47407789	 14.25527271
No	 -38.69288307	 24.43761036	 14.25527271
No	 -38.69288307	 26.47407789	 12.21880518
Co	 -40.72935060	 24.43761036	 16.29174024
Co	 -40.72935060	 26.47407789	 18.32820777
No	 -38.69288307	 24.43761036	 18.32820777
No	 -38.69288307	 26.47407789	 16.29174024
Co	 -40.72935060	 24.43761036	 20.36467530
Co	 -40.72935060	 26.47407789	 22.40114283
No	 -38.69288307	 24.43761036	 22.40114283
No	 -38.69288307	 26.47407789	 20.36467530
Co	 -40.72935060	 24.43761036	 24.43761036
Co	 -40.72935060	 26.47407789	 26.47407789
No	 -38.69288307	 24.43761036	 26.47407789
No	 -38.69288307	 26.47407789	 24.43761036
Co	 -40.72935060	 24.43761036	 28.51054542
Co	 -40.72935060	 26.47407789	 30.54701295
No	 -38.69288307	 24.43761036	 30.54701295
No	 -38.69288307	 26.47407789	 28.51054542
Co	 -40.72935060	 24.43761036	 32.58348048
Co	 -40.72935060	 26.47407789	 34.61994801
No	 -38.69288307	 24.43761036	 34.61994801
No	 -38.69288307	 26.47407789	 32.58348048
Co	 -40.72935060	 24.43761036	 36.65641554
Co	 -40.72935060	 26.47407789	 38.69288307
No	 -38.69288307	 24.43761036	 38.69288307
No	 -38.69288307	 26.47407789	 36.65641554
Co	 -40.72935060	 28.51054542	 -40.72935060
Co	 -40.72935060	 30.54701295	 -38.69288307
No	 -38.69288307	 28.51054542	 -38.69288307
Co	 -38.69288307	 30.54701295	 -40.72935060
Co	 -40.72935060	 28.51054542	 -36.65641554
Co	 -40.72935060	 30.54701295	 -34.61994801
No	 -38.69288307	 28.51054542	 -34.61994801
No	 -38.69288307	 30.54701295	 -36.65641554
Co	 -40.72935060	 28.51054542	 -32.58348048
Co	 -40.72935060	 30.54701295	 -30.54701295
No	 -38.69288307	 28.51054542	 -30.54701295
No	 -38.69288307	 30.54701295	 -32.58348048
Co	 -40.72935060	 28.51054542	 -28.51054542
Co	 -40.72935060	 30.54701295	 -26.47407789
No	 -38.69288307	 28.51054542	 -26.47407789
No	 -38.69288307	 30.54701295	 -28.51054542
Co	 -40.72935060	 28.51054542	 -24.43761036
Co	 -40.72935060	 30.54701295	 -22.40114283
No	 -38.69288307	 28.51054542	 -22.40114283
No	 -38.69288307	 30.54701295	 -24.43761036
Co	 -40.72935060	 28.51054542	 -20.36467530
Co	 -40.72935060	 30.54701295	 -18.32820777
No	 -38.69288307	 28.51054542	 -18.32820777
No	 -38.69288307	 30.54701295	 -20.36467530
Co	 -40.72935060	 28.51054542	 -16.29174024
Co	 -40.72935060	 30.54701295	 -14.25527271
No	 -38.69288307	 28.51054542	 -14.25527271
No	 -38.69288307	 30.54701295	 -16.29174024
Co	 -40.72935060	 28.51054542	 -12.21880518
Co	 -40.72935060	 30.54701295	 -10.18233765
No	 -38.69288307	 28.51054542	 -10.18233765
No	 -38.69288307	 30.54701295	 -12.21880518
Co	 -40.72935060	 28.51054542	 -8.14587012
Co	 -40.72935060	 30.54701295	 -6.10940259
No	 -38.69288307	 30.54701295	 -8.14587012
Co	 -40.72935060	 30.54701295	 6.10940259
Co	 -40.72935060	 28.51054542	 8.14587012
Co	 -40.72935060	 30.54701295	 10.18233765
No	 -38.69288307	 28.51054542	 10.18233765
No	 -38.69288307	 30.54701295	 8.14587012
Co	 -40.72935060	 28.51054542	 12.21880518
Co	 -40.72935060	 30.54701295	 14.25527271
No	 -38.69288307	 28.51054542	 14.25527271
No	 -38.69288307	 30.54701295	 12.21880518
Co	 -40.72935060	 28.51054542	 16.29174024
Co	 -40.72935060	 30.54701295	 18.32820777
No	 -38.69288307	 28.51054542	 18.32820777
No	 -38.69288307	 30.54701295	 16.29174024
Co	 -40.72935060	 28.51054542	 20.36467530
Co	 -40.72935060	 30.54701295	 22.40114283
No	 -38.69288307	 28.51054542	 22.40114283
No	 -38.69288307	 30.54701295	 20.36467530
Co	 -40.72935060	 28.51054542	 24.43761036
Co	 -40.72935060	 30.54701295	 26.47407789
No	 -38.69288307	 28.51054542	 26.47407789
No	 -38.69288307	 30.54701295	 24.43761036
Co	 -40.72935060	 28.51054542	 28.51054542
Co	 -40.72935060	 30.54701295	 30.54701295
No	 -38.69288307	 28.51054542	 30.54701295
No	 -38.69288307	 30.54701295	 28.51054542
Co	 -40.72935060	 28.51054542	 32.58348048
Co	 -40.72935060	 30.54701295	 34.61994801
No	 -38.69288307	 28.51054542	 34.61994801
No	 -38.69288307	 30.54701295	 32.58348048
Co	 -40.72935060	 28.51054542	 36.65641554
Co	 -40.72935060	 30.54701295	 38.69288307
No	 -38.69288307	 28.51054542	 38.69288307
No	 -38.69288307	 30.54701295	 36.65641554
Co	 -40.72935060	 32.58348048	 -40.72935060
Co	 -40.72935060	 34.61994801	 -38.69288307
No	 -38.69288307	 32.58348048	 -38.69288307
Co	 -38.69288307	 34.61994801	 -40.72935060
Co	 -40.72935060	 32.58348048	 -36.65641554
Co	 -40.72935060	 34.61994801	 -34.61994801
No	 -38.69288307	 32.58348048	 -34.61994801
No	 -38.69288307	 34.61994801	 -36.65641554
Co	 -40.72935060	 32.58348048	 -32.58348048
Co	 -40.72935060	 34.61994801	 -30.54701295
No	 -38.69288307	 32.58348048	 -30.54701295
No	 -38.69288307	 34.61994801	 -32.58348048
Co	 -40.72935060	 32.58348048	 -28.51054542
Co	 -40.72935060	 34.61994801	 -26.47407789
No	 -38.69288307	 32.58348048	 -26.47407789
No	 -38.69288307	 34.61994801	 -28.51054542
Co	 -40.72935060	 32.58348048	 -24.43761036
Co	 -40.72935060	 34.61994801	 -22.40114283
No	 -38.69288307	 32.58348048	 -22.40114283
No	 -38.69288307	 34.61994801	 -24.43761036
Co	 -40.72935060	 32.58348048	 -20.36467530
Co	 -40.72935060	 34.61994801	 -18.32820777
No	 -38.69288307	 32.58348048	 -18.32820777
No	 -38.69288307	 34.61994801	 -20.36467530
Co	 -40.72935060	 32.58348048	 -16.29174024
Co	 -40.72935060	 34.61994801	 -14.25527271
No	 -38.69288307	 32.58348048	 -14.25527271
No	 -38.69288307	 34.61994801	 -16.29174024
Co	 -40.72935060	 32.58348048	 -12.21880518
Co	 -40.72935060	 34.61994801	 -10.18233765
No	 -38.69288307	 32.58348048	 -10.18233765
No	 -38.69288307	 34.61994801	 -12.21880518
Co	 -40.72935060	 32.58348048	 -8.14587012
Co	 -40.72935060	 34.61994801	 -6.10940259
No	 -38.69288307	 32.58348048	 -6.10940259
No	 -38.69288307	 34.61994801	 -8.14587012
Co	 -40.72935060	 32.58348048	 -4.07293506
Co	 -40.72935060	 34.61994801	 -2.03646753
No	 -38.69288307	 34.61994801	 -4.07293506
Co	 -40.72935060	 34.61994801	 2.03646753
Co	 -40.72935060	 32.58348048	 4.07293506
Co	 -40.72935060	 34.61994801	 6.10940259
No	 -38.69288307	 32.58348048	 6.10940259
No	 -38.69288307	 34.61994801	 4.07293506
Co	 -40.72935060	 32.58348048	 8.14587012
Co	 -40.72935060	 34.61994801	 10.18233765
No	 -38.69288307	 32.58348048	 10.18233765
No	 -38.69288307	 34.61994801	 8.14587012
Co	 -40.72935060	 32.58348048	 12.21880518
Co	 -40.72935060	 34.61994801	 14.25527271
No	 -38.69288307	 32.58348048	 14.25527271
No	 -38.69288307	 34.61994801	 12.21880518
Co	 -40.72935060	 32.58348048	 16.29174024
Co	 -40.72935060	 34.61994801	 18.32820777
No	 -38.69288307	 32.58348048	 18.32820777
No	 -38.69288307	 34.61994801	 16.29174024
Co	 -40.72935060	 32.58348048	 20.36467530
Co	 -40.72935060	 34.61994801	 22.40114283
No	 -38.69288307	 32.58348048	 22.40114283
No	 -38.69288307	 34.61994801	 20.36467530
Co	 -40.72935060	 32.58348048	 24.43761036
Co	 -40.72935060	 34.61994801	 26.47407789
No	 -38.69288307	 32.58348048	 26.47407789
No	 -38.69288307	 34.61994801	 24.43761036
Co	 -40.72935060	 32.58348048	 28.51054542
Co	 -40.72935060	 34.61994801	 30.54701295
No	 -38.69288307	 32.58348048	 30.54701295
No	 -38.69288307	 34.61994801	 28.51054542
Co	 -40.72935060	 32.58348048	 32.58348048
Co	 -40.72935060	 34.61994801	 34.61994801
No	 -38.69288307	 32.58348048	 34.61994801
No	 -38.69288307	 34.61994801	 32.58348048
Co	 -40.72935060	 32.58348048	 36.65641554
Co	 -40.72935060	 34.61994801	 38.69288307
No	 -38.69288307	 32.58348048	 38.69288307
No	 -38.69288307	 34.61994801	 36.65641554
Co	 -40.72935060	 36.65641554	 -40.72935060
Co	 -40.72935060	 38.69288307	 -38.69288307
No	 -38.69288307	 36.65641554	 -38.69288307
Co	 -38.69288307	 38.69288307	 -40.72935060
Co	 -40.72935060	 36.65641554	 -36.65641554
Co	 -40.72935060	 38.69288307	 -34.61994801
No	 -38.69288307	 36.65641554	 -34.61994801
No	 -38.69288307	 38.69288307	 -36.65641554
Co	 -40.72935060	 36.65641554	 -32.58348048
Co	 -40.72935060	 38.69288307	 -30.54701295
No	 -38.69288307	 36.65641554	 -30.54701295
No	 -38.69288307	 38.69288307	 -32.58348048
Co	 -40.72935060	 36.65641554	 -28.51054542
Co	 -40.72935060	 38.69288307	 -26.47407789
No	 -38.69288307	 36.65641554	 -26.47407789
No	 -38.69288307	 38.69288307	 -28.51054542
Co	 -40.72935060	 36.65641554	 -24.43761036
Co	 -40.72935060	 38.69288307	 -22.40114283
No	 -38.69288307	 36.65641554	 -22.40114283
No	 -38.69288307	 38.69288307	 -24.43761036
Co	 -40.72935060	 36.65641554	 -20.36467530
Co	 -40.72935060	 38.69288307	 -18.32820777
No	 -38.69288307	 36.65641554	 -18.32820777
No	 -38.69288307	 38.69288307	 -20.36467530
Co	 -40.72935060	 36.65641554	 -16.29174024
Co	 -40.72935060	 38.69288307	 -14.25527271
No	 -38.69288307	 36.65641554	 -14.25527271
No	 -38.69288307	 38.69288307	 -16.29174024
Co	 -40.72935060	 36.65641554	 -12.21880518
Co	 -40.72935060	 38.69288307	 -10.18233765
No	 -38.69288307	 36.65641554	 -10.18233765
No	 -38.69288307	 38.69288307	 -12.21880518
Co	 -40.72935060	 36.65641554	 -8.14587012
Co	 -40.72935060	 38.69288307	 -6.10940259
No	 -38.69288307	 36.65641554	 -6.10940259
No	 -38.69288307	 38.69288307	 -8.14587012
Co	 -40.72935060	 36.65641554	 -4.07293506
Co	 -40.72935060	 38.69288307	 -2.03646753
No	 -38.69288307	 36.65641554	 -2.03646753
No	 -38.69288307	 38.69288307	 -4.07293506
Co	 -40.72935060	 36.65641554	 -0.00000000
Co	 -40.72935060	 38.69288307	 2.03646753
No	 -38.69288307	 36.65641554	 2.03646753
No	 -38.69288307	 38.69288307	 -0.00000000
Co	 -40.72935060	 36.65641554	 4.07293506
Co	 -40.72935060	 38.69288307	 6.10940259
No	 -38.69288307	 36.65641554	 6.10940259
No	 -38.69288307	 38.69288307	 4.07293506
Co	 -40.72935060	 36.65641554	 8.14587012
Co	 -40.72935060	 38.69288307	 10.18233765
No	 -38.69288307	 36.65641554	 10.18233765
No	 -38.69288307	 38.69288307	 8.14587012
Co	 -40.72935060	 36.65641554	 12.21880518
Co	 -40.72935060	 38.69288307	 14.25527271
No	 -38.69288307	 36.65641554	 14.25527271
No	 -38.69288307	 38.69288307	 12.21880518
Co	 -40.72935060	 36.65641554	 16.29174024
Co	 -40.72935060	 38.69288307	 18.32820777
No	 -38.69288307	 36.65641554	 18.32820777
No	 -38.69288307	 38.69288307	 16.29174024
Co	 -40.72935060	 36.65641554	 20.36467530
Co	 -40.72935060	 38.69288307	 22.40114283
No	 -38.69288307	 36.65641554	 22.40114283
No	 -38.69288307	 38.69288307	 20.36467530
Co	 -40.72935060	 36.65641554	 24.43761036
Co	 -40.72935060	 38.69288307	 26.47407789
No	 -38.69288307	 36.65641554	 26.47407789
No	 -38.69288307	 38.69288307	 24.43761036
Co	 -40.72935060	 36.65641554	 28.51054542
Co	 -40.72935060	 38.69288307	 30.54701295
No	 -38.69288307	 36.65641554	 30.54701295
No	 -38.69288307	 38.69288307	 28.51054542
Co	 -40.72935060	 36.65641554	 32.58348048
Co	 -40.72935060	 38.69288307	 34.61994801
No	 -38.69288307	 36.65641554	 34.61994801
No	 -38.69288307	 38.69288307	 32.58348048
Co	 -40.72935060	 36.65641554	 36.65641554
Co	 -40.72935060	 38.69288307	 38.69288307
No	 -38.69288307	 36.65641554	 38.69288307
No	 -38.69288307	 38.69288307	 36.65641554
Co	 -36.65641554	 -40.72935060	 -40.72935060
No	 -36.65641554	 -38.69288307	 -38.69288307
Co	 -34.61994801	 -40.72935060	 -38.69288307
Co	 -34.61994801	 -38.69288307	 -40.72935060
Co	 -36.65641554	 -40.72935060	 -36.65641554
No	 -36.65641554	 -38.69288307	 -34.61994801
Co	 -34.61994801	 -40.72935060	 -34.61994801
No	 -34.61994801	 -38.69288307	 -36.65641554
Co	 -36.65641554	 -40.72935060	 -32.58348048
No	 -36.65641554	 -38.69288307	 -30.54701295
Co	 -34.61994801	 -40.72935060	 -30.54701295
No	 -34.61994801	 -38.69288307	 -32.58348048
Co	 -36.65641554	 -40.72935060	 -28.51054542
No	 -36.65641554	 -38.69288307	 -26.47407789
Co	 -34.61994801	 -40.72935060	 -26.47407789
No	 -34.61994801	 -38.69288307	 -28.51054542
Co	 -36.65641554	 -40.72935060	 -24.43761036
No	 -36.65641554	 -38.69288307	 -22.40114283
Co	 -34.61994801	 -40.72935060	 -22.40114283
No	 -34.61994801	 -38.69288307	 -24.43761036
Co	 -36.65641554	 -40.72935060	 -20.36467530
No	 -36.65641554	 -38.69288307	 -18.32820777
Co	 -34.61994801	 -40.72935060	 -18.32820777
No	 -34.61994801	 -38.69288307	 -20.36467530
Co	 -36.65641554	 -40.72935060	 -16.29174024
No	 -36.65641554	 -38.69288307	 -14.25527271
Co	 -34.61994801	 -40.72935060	 -14.25527271
No	 -34.61994801	 -38.69288307	 -16.29174024
Co	 -36.65641554	 -40.72935060	 -12.21880518
No	 -36.65641554	 -38.69288307	 -10.18233765
Co	 -34.61994801	 -40.72935060	 -10.18233765
No	 -34.61994801	 -38.69288307	 -12.21880518
Co	 -36.65641554	 -40.72935060	 -8.14587012
No	 -36.65641554	 -38.69288307	 -6.10940259
Co	 -34.61994801	 -40.72935060	 -6.10940259
No	 -34.61994801	 -38.69288307	 -8.14587012
Co	 -36.65641554	 -40.72935060	 -4.07293506
No	 -36.65641554	 -38.69288307	 -2.03646753
Co	 -34.61994801	 -40.72935060	 -2.03646753
No	 -34.61994801	 -38.69288307	 -4.07293506
Co	 -36.65641554	 -40.72935060	 -0.00000000
No	 -36.65641554	 -38.69288307	 2.03646753
Co	 -34.61994801	 -40.72935060	 2.03646753
Co	 -36.65641554	 -40.72935060	 4.07293506
No	 -36.65641554	 -38.69288307	 6.10940259
Co	 -34.61994801	 -40.72935060	 6.10940259
No	 -34.61994801	 -38.69288307	 4.07293506
Co	 -36.65641554	 -40.72935060	 8.14587012
No	 -36.65641554	 -38.69288307	 10.18233765
Co	 -34.61994801	 -40.72935060	 10.18233765
No	 -34.61994801	 -38.69288307	 8.14587012
Co	 -36.65641554	 -40.72935060	 12.21880518
No	 -36.65641554	 -38.69288307	 14.25527271
Co	 -34.61994801	 -40.72935060	 14.25527271
No	 -34.61994801	 -38.69288307	 12.21880518
Co	 -36.65641554	 -40.72935060	 16.29174024
No	 -36.65641554	 -38.69288307	 18.32820777
Co	 -34.61994801	 -40.72935060	 18.32820777
No	 -34.61994801	 -38.69288307	 16.29174024
Co	 -36.65641554	 -40.72935060	 20.36467530
No	 -36.65641554	 -38.69288307	 22.40114283
Co	 -34.61994801	 -40.72935060	 22.40114283
No	 -34.61994801	 -38.69288307	 20.36467530
Co	 -36.65641554	 -40.72935060	 24.43761036
No	 -36.65641554	 -38.69288307	 26.47407789
Co	 -34.61994801	 -40.72935060	 26.47407789
No	 -34.61994801	 -38.69288307	 24.43761036
Co	 -36.65641554	 -40.72935060	 28.51054542
No	 -36.65641554	 -38.69288307	 30.54701295
Co	 -34.61994801	 -40.72935060	 30.54701295
No	 -34.61994801	 -38.69288307	 28.51054542
Co	 -36.65641554	 -40.72935060	 32.58348048
No	 -36.65641554	 -38.69288307	 34.61994801
Co	 -34.61994801	 -40.72935060	 34.61994801
No	 -34.61994801	 -38.69288307	 32.58348048
Co	 -36.65641554	 -40.72935060	 36.65641554
No	 -36.65641554	 -38.69288307	 38.69288307
Co	 -34.61994801	 -40.72935060	 38.69288307
No	 -34.61994801	 -38.69288307	 36.65641554
Co	 -36.65641554	 -36.65641554	 -40.72935060
No	 -36.65641554	 -34.61994801	 -38.69288307
No	 -34.61994801	 -36.65641554	 -38.69288307
Co	 -34.61994801	 -34.61994801	 -40.72935060
No	 -36.65641554	 -36.65641554	 -36.65641554
No	 -36.65641554	 -34.61994801	 -34.61994801
No	 -34.61994801	 -36.65641554	 -34.61994801
No	 -34.61994801	 -34.61994801	 -36.65641554
No	 -36.65641554	 -36.65641554	 -32.58348048
No	 -36.65641554	 -34.61994801	 -30.54701295
No	 -34.61994801	 -36.65641554	 -30.54701295
No	 -34.61994801	 -34.61994801	 -32.58348048
No	 -36.65641554	 -36.65641554	 -28.51054542
No	 -36.65641554	 -34.61994801	 -26.47407789
No	 -34.61994801	 -36.65641554	 -26.47407789
No	 -34.61994801	 -34.61994801	 -28.51054542
No	 -36.65641554	 -36.65641554	 -24.43761036
No	 -36.65641554	 -34.61994801	 -22.40114283
No	 -34.61994801	 -36.65641554	 -22.40114283
No	 -34.61994801	 -34.61994801	 -24.43761036
No	 -36.65641554	 -36.65641554	 -20.36467530
No	 -36.65641554	 -34.61994801	 -18.32820777
No	 -34.61994801	 -36.65641554	 -18.32820777
No	 -34.61994801	 -34.61994801	 -20.36467530
No	 -36.65641554	 -36.65641554	 -16.29174024
No	 -36.65641554	 -34.61994801	 -14.25527271
No	 -34.61994801	 -36.65641554	 -14.25527271
No	 -34.61994801	 -34.61994801	 -16.29174024
No	 -36.65641554	 -36.65641554	 -12.21880518
No	 -36.65641554	 -34.61994801	 -10.18233765
No	 -34.61994801	 -36.65641554	 -10.18233765
No	 -34.61994801	 -34.61994801	 -12.21880518
No	 -36.65641554	 -36.65641554	 -8.14587012
No	 -36.65641554	 -34.61994801	 -6.10940259
No	 -34.61994801	 -36.65641554	 -6.10940259
No	 -34.61994801	 -34.61994801	 -8.14587012
No	 -36.65641554	 -36.65641554	 -4.07293506
No	 -36.65641554	 -34.61994801	 -2.03646753
No	 -34.61994801	 -36.65641554	 -2.03646753
No	 -34.61994801	 -34.61994801	 -4.07293506
No	 -36.65641554	 -36.65641554	 -0.00000000
No	 -36.65641554	 -34.61994801	 2.03646753
No	 -34.61994801	 -36.65641554	 2.03646753
No	 -34.61994801	 -34.61994801	 -0.00000000
No	 -36.65641554	 -36.65641554	 4.07293506
No	 -36.65641554	 -34.61994801	 6.10940259
No	 -34.61994801	 -36.65641554	 6.10940259
No	 -34.61994801	 -34.61994801	 4.07293506
No	 -36.65641554	 -36.65641554	 8.14587012
No	 -36.65641554	 -34.61994801	 10.18233765
No	 -34.61994801	 -36.65641554	 10.18233765
No	 -34.61994801	 -34.61994801	 8.14587012
No	 -36.65641554	 -36.65641554	 12.21880518
No	 -36.65641554	 -34.61994801	 14.25527271
No	 -34.61994801	 -36.65641554	 14.25527271
No	 -34.61994801	 -34.61994801	 12.21880518
No	 -36.65641554	 -36.65641554	 16.29174024
No	 -36.65641554	 -34.61994801	 18.32820777
No	 -34.61994801	 -36.65641554	 18.32820777
No	 -34.61994801	 -34.61994801	 16.29174024
No	 -36.65641554	 -36.65641554	 20.36467530
No	 -36.65641554	 -34.61994801	 22.40114283
No	 -34.61994801	 -36.65641554	 22.40114283
No	 -34.61994801	 -34.61994801	 20.36467530
No	 -36.65641554	 -36.65641554	 24.43761036
No	 -36.65641554	 -34.61994801	 26.47407789
No	 -34.61994801	 -36.65641554	 26.47407789
No	 -34.61994801	 -34.61994801	 24.43761036
No	 -36.65641554	 -36.65641554	 28.51054542
No	 -36.65641554	 -34.61994801	 30.54701295
No	 -34.61994801	 -36.65641554	 30.54701295
No	 -34.61994801	 -34.61994801	 28.51054542
No	 -36.65641554	 -36.65641554	 32.58348048
No	 -36.65641554	 -34.61994801	 34.61994801
No	 -34.61994801	 -36.65641554	 34.61994801
No	 -34.61994801	 -34.61994801	 32.58348048
No	 -36.65641554	 -36.65641554	 36.65641554
No	 -36.65641554	 -34.61994801	 38.69288307
No	 -34.61994801	 -36.65641554	 38.69288307
No	 -34.61994801	 -34.61994801	 36.65641554
Co	 -36.65641554	 -32.58348048	 -40.72935060
No	 -36.65641554	 -30.54701295	 -38.69288307
No	 -34.61994801	 -32.58348048	 -38.69288307
Co	 -34.61994801	 -30.54701295	 -40.72935060
No	 -36.65641554	 -32.58348048	 -36.65641554
No	 -36.65641554	 -30.54701295	 -34.61994801
No	 -34.61994801	 -32.58348048	 -34.61994801
No	 -34.61994801	 -30.54701295	 -36.65641554
No	 -36.65641554	 -32.58348048	 -32.58348048
No	 -36.65641554	 -30.54701295	 -30.54701295
No	 -34.61994801	 -32.58348048	 -30.54701295
No	 -34.61994801	 -30.54701295	 -32.58348048
No	 -36.65641554	 -32.58348048	 -28.51054542
No	 -36.65641554	 -30.54701295	 -26.47407789
No	 -34.61994801	 -32.58348048	 -26.47407789
No	 -34.61994801	 -30.54701295	 -28.51054542
No	 -36.65641554	 -32.58348048	 -24.43761036
No	 -36.65641554	 -30.54701295	 -22.40114283
No	 -34.61994801	 -32.58348048	 -22.40114283
No	 -34.61994801	 -30.54701295	 -24.43761036
No	 -36.65641554	 -32.58348048	 -20.36467530
No	 -36.65641554	 -30.54701295	 -18.32820777
No	 -34.61994801	 -32.58348048	 -18.32820777
No	 -34.61994801	 -30.54701295	 -20.36467530
No	 -36.65641554	 -32.58348048	 -16.29174024
No	 -36.65641554	 -30.54701295	 -14.25527271
No	 -34.61994801	 -32.58348048	 -14.25527271
No	 -34.61994801	 -30.54701295	 -16.29174024
No	 -36.65641554	 -32.58348048	 -12.21880518
No	 -36.65641554	 -30.54701295	 -10.18233765
No	 -34.61994801	 -32.58348048	 -10.18233765
No	 -34.61994801	 -30.54701295	 -12.21880518
No	 -36.65641554	 -32.58348048	 -8.14587012
No	 -36.65641554	 -30.54701295	 -6.10940259
No	 -34.61994801	 -32.58348048	 -6.10940259
No	 -34.61994801	 -30.54701295	 -8.14587012
No	 -36.65641554	 -32.58348048	 -4.07293506
No	 -34.61994801	 -32.58348048	 -2.03646753
No	 -34.61994801	 -30.54701295	 -4.07293506
No	 -34.61994801	 -32.58348048	 2.03646753
No	 -36.65641554	 -32.58348048	 4.07293506
No	 -36.65641554	 -30.54701295	 6.10940259
No	 -34.61994801	 -32.58348048	 6.10940259
No	 -34.61994801	 -30.54701295	 4.07293506
No	 -36.65641554	 -32.58348048	 8.14587012
No	 -36.65641554	 -30.54701295	 10.18233765
No	 -34.61994801	 -32.58348048	 10.18233765
No	 -34.61994801	 -30.54701295	 8.14587012
No	 -36.65641554	 -32.58348048	 12.21880518
No	 -36.65641554	 -30.54701295	 14.25527271
No	 -34.61994801	 -32.58348048	 14.25527271
No	 -34.61994801	 -30.54701295	 12.21880518
No	 -36.65641554	 -32.58348048	 16.29174024
No	 -36.65641554	 -30.54701295	 18.32820777
No	 -34.61994801	 -32.58348048	 18.32820777
No	 -34.61994801	 -30.54701295	 16.29174024
No	 -36.65641554	 -32.58348048	 20.36467530
No	 -36.65641554	 -30.54701295	 22.40114283
No	 -34.61994801	 -32.58348048	 22.40114283
No	 -34.61994801	 -30.54701295	 20.36467530
No	 -36.65641554	 -32.58348048	 24.43761036
No	 -36.65641554	 -30.54701295	 26.47407789
No	 -34.61994801	 -32.58348048	 26.47407789
No	 -34.61994801	 -30.54701295	 24.43761036
No	 -36.65641554	 -32.58348048	 28.51054542
No	 -36.65641554	 -30.54701295	 30.54701295
No	 -34.61994801	 -32.58348048	 30.54701295
No	 -34.61994801	 -30.54701295	 28.51054542
No	 -36.65641554	 -32.58348048	 32.58348048
No	 -36.65641554	 -30.54701295	 34.61994801
No	 -34.61994801	 -32.58348048	 34.61994801
No	 -34.61994801	 -30.54701295	 32.58348048
No	 -36.65641554	 -32.58348048	 36.65641554
No	 -36.65641554	 -30.54701295	 38.69288307
No	 -34.61994801	 -32.58348048	 38.69288307
No	 -34.61994801	 -30.54701295	 36.65641554
Co	 -36.65641554	 -28.51054542	 -40.72935060
No	 -36.65641554	 -26.47407789	 -38.69288307
No	 -34.61994801	 -28.51054542	 -38.69288307
Co	 -34.61994801	 -26.47407789	 -40.72935060
No	 -36.65641554	 -28.51054542	 -36.65641554
No	 -36.65641554	 -26.47407789	 -34.61994801
No	 -34.61994801	 -28.51054542	 -34.61994801
No	 -34.61994801	 -26.47407789	 -36.65641554
No	 -36.65641554	 -28.51054542	 -32.58348048
No	 -36.65641554	 -26.47407789	 -30.54701295
No	 -34.61994801	 -28.51054542	 -30.54701295
No	 -34.61994801	 -26.47407789	 -32.58348048
No	 -36.65641554	 -28.51054542	 -28.51054542
No	 -36.65641554	 -26.47407789	 -26.47407789
No	 -34.61994801	 -28.51054542	 -26.47407789
No	 -34.61994801	 -26.47407789	 -28.51054542
No	 -36.65641554	 -28.51054542	 -24.43761036
No	 -36.65641554	 -26.47407789	 -22.40114283
No	 -34.61994801	 -28.51054542	 -22.40114283
No	 -34.61994801	 -26.47407789	 -24.43761036
No	 -36.65641554	 -28.51054542	 -20.36467530
No	 -36.65641554	 -26.47407789	 -18.32820777
No	 -34.61994801	 -28.51054542	 -18.32820777
No	 -34.61994801	 -26.47407789	 -20.36467530
No	 -36.65641554	 -28.51054542	 -16.29174024
No	 -36.65641554	 -26.47407789	 -14.25527271
No	 -34.61994801	 -28.51054542	 -14.25527271
No	 -34.61994801	 -26.47407789	 -16.29174024
No	 -36.65641554	 -28.51054542	 -12.21880518
No	 -36.65641554	 -26.47407789	 -10.18233765
No	 -34.61994801	 -28.51054542	 -10.18233765
No	 -34.61994801	 -26.47407789	 -12.21880518
No	 -36.65641554	 -28.51054542	 -8.14587012
No	 -34.61994801	 -28.51054542	 -6.10940259
No	 -34.61994801	 -26.47407789	 -8.14587012
No	 -34.61994801	 -28.51054542	 6.10940259
No	 -36.65641554	 -28.51054542	 8.14587012
No	 -36.65641554	 -26.47407789	 10.18233765
No	 -34.61994801	 -28.51054542	 10.18233765
No	 -34.61994801	 -26.47407789	 8.14587012
No	 -36.65641554	 -28.51054542	 12.21880518
No	 -36.65641554	 -26.47407789	 14.25527271
No	 -34.61994801	 -28.51054542	 14.25527271
No	 -34.61994801	 -26.47407789	 12.21880518
No	 -36.65641554	 -28.51054542	 16.29174024
No	 -36.65641554	 -26.47407789	 18.32820777
No	 -34.61994801	 -28.51054542	 18.32820777
No	 -34.61994801	 -26.47407789	 16.29174024
No	 -36.65641554	 -28.51054542	 20.36467530
No	 -36.65641554	 -26.47407789	 22.40114283
No	 -34.61994801	 -28.51054542	 22.40114283
No	 -34.61994801	 -26.47407789	 20.36467530
No	 -36.65641554	 -28.51054542	 24.43761036
No	 -36.65641554	 -26.47407789	 26.47407789
No	 -34.61994801	 -28.51054542	 26.47407789
No	 -34.61994801	 -26.47407789	 24.43761036
No	 -36.65641554	 -28.51054542	 28.51054542
No	 -36.65641554	 -26.47407789	 30.54701295
No	 -34.61994801	 -28.51054542	 30.54701295
No	 -34.61994801	 -26.47407789	 28.51054542
No	 -36.65641554	 -28.51054542	 32.58348048
No	 -36.65641554	 -26.47407789	 34.61994801
No	 -34.61994801	 -28.51054542	 34.61994801
No	 -34.61994801	 -26.47407789	 32.58348048
No	 -36.65641554	 -28.51054542	 36.65641554
No	 -36.65641554	 -26.47407789	 38.69288307
No	 -34.61994801	 -28.51054542	 38.69288307
No	 -34.61994801	 -26.47407789	 36.65641554
Co	 -36.65641554	 -24.43761036	 -40.72935060
No	 -36.65641554	 -22.40114283	 -38.69288307
No	 -34.61994801	 -24.43761036	 -38.69288307
Co	 -34.61994801	 -22.40114283	 -40.72935060
No	 -36.65641554	 -24.43761036	 -36.65641554
No	 -36.65641554	 -22.40114283	 -34.61994801
No	 -34.61994801	 -24.43761036	 -34.61994801
No	 -34.61994801	 -22.40114283	 -36.65641554
No	 -36.65641554	 -24.43761036	 -32.58348048
No	 -36.65641554	 -22.40114283	 -30.54701295
No	 -34.61994801	 -24.43761036	 -30.54701295
No	 -34.61994801	 -22.40114283	 -32.58348048
No	 -36.65641554	 -24.43761036	 -28.51054542
No	 -36.65641554	 -22.40114283	 -26.47407789
No	 -34.61994801	 -24.43761036	 -26.47407789
No	 -34.61994801	 -22.40114283	 -28.51054542
No	 -36.65641554	 -24.43761036	 -24.43761036
No	 -36.65641554	 -22.40114283	 -22.40114283
No	 -34.61994801	 -24.43761036	 -22.40114283
No	 -34.61994801	 -22.40114283	 -24.43761036
No	 -36.65641554	 -24.43761036	 -20.36467530
No	 -36.65641554	 -22.40114283	 -18.32820777
No	 -34.61994801	 -24.43761036	 -18.32820777
No	 -34.61994801	 -22.40114283	 -20.36467530
No	 -36.65641554	 -24.43761036	 -16.29174024
No	 -36.65641554	 -22.40114283	 -14.25527271
No	 -34.61994801	 -24.43761036	 -14.25527271
No	 -34.61994801	 -22.40114283	 -16.29174024
No	 -36.65641554	 -24.43761036	 -12.21880518
No	 -34.61994801	 -24.43761036	 -10.18233765
No	 -34.61994801	 -22.40114283	 -12.21880518
No	 -34.61994801	 -24.43761036	 10.18233765
No	 -36.65641554	 -24.43761036	 12.21880518
No	 -36.65641554	 -22.40114283	 14.25527271
No	 -34.61994801	 -24.43761036	 14.25527271
No	 -34.61994801	 -22.40114283	 12.21880518
No	 -36.65641554	 -24.43761036	 16.29174024
No	 -36.65641554	 -22.40114283	 18.32820777
No	 -34.61994801	 -24.43761036	 18.32820777
No	 -34.61994801	 -22.40114283	 16.29174024
No	 -36.65641554	 -24.43761036	 20.36467530
No	 -36.65641554	 -22.40114283	 22.40114283
No	 -34.61994801	 -24.43761036	 22.40114283
No	 -34.61994801	 -22.40114283	 20.36467530
No	 -36.65641554	 -24.43761036	 24.43761036
No	 -36.65641554	 -22.40114283	 26.47407789
No	 -34.61994801	 -24.43761036	 26.47407789
No	 -34.61994801	 -22.40114283	 24.43761036
No	 -36.65641554	 -24.43761036	 28.51054542
No	 -36.65641554	 -22.40114283	 30.54701295
No	 -34.61994801	 -24.43761036	 30.54701295
No	 -34.61994801	 -22.40114283	 28.51054542
No	 -36.65641554	 -24.43761036	 32.58348048
No	 -36.65641554	 -22.40114283	 34.61994801
No	 -34.61994801	 -24.43761036	 34.61994801
No	 -34.61994801	 -22.40114283	 32.58348048
No	 -36.65641554	 -24.43761036	 36.65641554
No	 -36.65641554	 -22.40114283	 38.69288307
No	 -34.61994801	 -24.43761036	 38.69288307
No	 -34.61994801	 -22.40114283	 36.65641554
Co	 -36.65641554	 -20.36467530	 -40.72935060
No	 -36.65641554	 -18.32820777	 -38.69288307
No	 -34.61994801	 -20.36467530	 -38.69288307
Co	 -34.61994801	 -18.32820777	 -40.72935060
No	 -36.65641554	 -20.36467530	 -36.65641554
No	 -36.65641554	 -18.32820777	 -34.61994801
No	 -34.61994801	 -20.36467530	 -34.61994801
No	 -34.61994801	 -18.32820777	 -36.65641554
No	 -36.65641554	 -20.36467530	 -32.58348048
No	 -36.65641554	 -18.32820777	 -30.54701295
No	 -34.61994801	 -20.36467530	 -30.54701295
No	 -34.61994801	 -18.32820777	 -32.58348048
No	 -36.65641554	 -20.36467530	 -28.51054542
No	 -36.65641554	 -18.32820777	 -26.47407789
No	 -34.61994801	 -20.36467530	 -26.47407789
No	 -34.61994801	 -18.32820777	 -28.51054542
No	 -36.65641554	 -20.36467530	 -24.43761036
No	 -36.65641554	 -18.32820777	 -22.40114283
No	 -34.61994801	 -20.36467530	 -22.40114283
No	 -34.61994801	 -18.32820777	 -24.43761036
No	 -36.65641554	 -20.36467530	 -20.36467530
No	 -36.65641554	 -18.32820777	 -18.32820777
No	 -34.61994801	 -20.36467530	 -18.32820777
No	 -34.61994801	 -18.32820777	 -20.36467530
No	 -36.65641554	 -20.36467530	 -16.29174024
No	 -34.61994801	 -20.36467530	 -14.25527271
No	 -34.61994801	 -18.32820777	 -16.29174024
No	 -34.61994801	 -20.36467530	 14.25527271
No	 -36.65641554	 -20.36467530	 16.29174024
No	 -36.65641554	 -18.32820777	 18.32820777
No	 -34.61994801	 -20.36467530	 18.32820777
No	 -34.61994801	 -18.32820777	 16.29174024
No	 -36.65641554	 -20.36467530	 20.36467530
No	 -36.65641554	 -18.32820777	 22.40114283
No	 -34.61994801	 -20.36467530	 22.40114283
No	 -34.61994801	 -18.32820777	 20.36467530
No	 -36.65641554	 -20.36467530	 24.43761036
No	 -36.65641554	 -18.32820777	 26.47407789
No	 -34.61994801	 -20.36467530	 26.47407789
No	 -34.61994801	 -18.32820777	 24.43761036
No	 -36.65641554	 -20.36467530	 28.51054542
No	 -36.65641554	 -18.32820777	 30.54701295
No	 -34.61994801	 -20.36467530	 30.54701295
No	 -34.61994801	 -18.32820777	 28.51054542
No	 -36.65641554	 -20.36467530	 32.58348048
No	 -36.65641554	 -18.32820777	 34.61994801
No	 -34.61994801	 -20.36467530	 34.61994801
No	 -34.61994801	 -18.32820777	 32.58348048
No	 -36.65641554	 -20.36467530	 36.65641554
No	 -36.65641554	 -18.32820777	 38.69288307
No	 -34.61994801	 -20.36467530	 38.69288307
No	 -34.61994801	 -18.32820777	 36.65641554
Co	 -36.65641554	 -16.29174024	 -40.72935060
No	 -36.65641554	 -14.25527271	 -38.69288307
No	 -34.61994801	 -16.29174024	 -38.69288307
Co	 -34.61994801	 -14.25527271	 -40.72935060
No	 -36.65641554	 -16.29174024	 -36.65641554
No	 -36.65641554	 -14.25527271	 -34.61994801
No	 -34.61994801	 -16.29174024	 -34.61994801
No	 -34.61994801	 -14.25527271	 -36.65641554
No	 -36.65641554	 -16.29174024	 -32.58348048
No	 -36.65641554	 -14.25527271	 -30.54701295
No	 -34.61994801	 -16.29174024	 -30.54701295
No	 -34.61994801	 -14.25527271	 -32.58348048
No	 -36.65641554	 -16.29174024	 -28.51054542
No	 -36.65641554	 -14.25527271	 -26.47407789
No	 -34.61994801	 -16.29174024	 -26.47407789
No	 -34.61994801	 -14.25527271	 -28.51054542
No	 -36.65641554	 -16.29174024	 -24.43761036
No	 -36.65641554	 -14.25527271	 -22.40114283
No	 -34.61994801	 -16.29174024	 -22.40114283
No	 -34.61994801	 -14.25527271	 -24.43761036
No	 -36.65641554	 -16.29174024	 -20.36467530
No	 -34.61994801	 -16.29174024	 -18.32820777
No	 -34.61994801	 -14.25527271	 -20.36467530
No	 -34.61994801	 -16.29174024	 18.32820777
No	 -36.65641554	 -16.29174024	 20.36467530
No	 -36.65641554	 -14.25527271	 22.40114283
No	 -34.61994801	 -16.29174024	 22.40114283
No	 -34.61994801	 -14.25527271	 20.36467530
No	 -36.65641554	 -16.29174024	 24.43761036
No	 -36.65641554	 -14.25527271	 26.47407789
No	 -34.61994801	 -16.29174024	 26.47407789
No	 -34.61994801	 -14.25527271	 24.43761036
No	 -36.65641554	 -16.29174024	 28.51054542
No	 -36.65641554	 -14.25527271	 30.54701295
No	 -34.61994801	 -16.29174024	 30.54701295
No	 -34.61994801	 -14.25527271	 28.51054542
No	 -36.65641554	 -16.29174024	 32.58348048
No	 -36.65641554	 -14.25527271	 34.61994801
No	 -34.61994801	 -16.29174024	 34.61994801
No	 -34.61994801	 -14.25527271	 32.58348048
No	 -36.65641554	 -16.29174024	 36.65641554
No	 -36.65641554	 -14.25527271	 38.69288307
No	 -34.61994801	 -16.29174024	 38.69288307
No	 -34.61994801	 -14.25527271	 36.65641554
Co	 -36.65641554	 -12.21880518	 -40.72935060
No	 -36.65641554	 -10.18233765	 -38.69288307
No	 -34.61994801	 -12.21880518	 -38.69288307
Co	 -34.61994801	 -10.18233765	 -40.72935060
No	 -36.65641554	 -12.21880518	 -36.65641554
No	 -36.65641554	 -10.18233765	 -34.61994801
No	 -34.61994801	 -12.21880518	 -34.61994801
No	 -34.61994801	 -10.18233765	 -36.65641554
No	 -36.65641554	 -12.21880518	 -32.58348048
No	 -36.65641554	 -10.18233765	 -30.54701295
No	 -34.61994801	 -12.21880518	 -30.54701295
No	 -34.61994801	 -10.18233765	 -32.58348048
No	 -36.65641554	 -12.21880518	 -28.51054542
No	 -36.65641554	 -10.18233765	 -26.47407789
No	 -34.61994801	 -12.21880518	 -26.47407789
No	 -34.61994801	 -10.18233765	 -28.51054542
No	 -36.65641554	 -12.21880518	 -24.43761036
No	 -34.61994801	 -12.21880518	 -22.40114283
No	 -34.61994801	 -10.18233765	 -24.43761036
No	 -34.61994801	 -12.21880518	 22.40114283
No	 -36.65641554	 -12.21880518	 24.43761036
No	 -36.65641554	 -10.18233765	 26.47407789
No	 -34.61994801	 -12.21880518	 26.47407789
No	 -34.61994801	 -10.18233765	 24.43761036
No	 -36.65641554	 -12.21880518	 28.51054542
No	 -36.65641554	 -10.18233765	 30.54701295
No	 -34.61994801	 -12.21880518	 30.54701295
No	 -34.61994801	 -10.18233765	 28.51054542
No	 -36.65641554	 -12.21880518	 32.58348048
No	 -36.65641554	 -10.18233765	 34.61994801
No	 -34.61994801	 -12.21880518	 34.61994801
No	 -34.61994801	 -10.18233765	 32.58348048
No	 -36.65641554	 -12.21880518	 36.65641554
No	 -36.65641554	 -10.18233765	 38.69288307
No	 -34.61994801	 -12.21880518	 38.69288307
No	 -34.61994801	 -10.18233765	 36.65641554
Co	 -36.65641554	 -8.14587012	 -40.72935060
No	 -36.65641554	 -6.10940259	 -38.69288307
No	 -34.61994801	 -8.14587012	 -38.69288307
Co	 -34.61994801	 -6.10940259	 -40.72935060
No	 -36.65641554	 -8.14587012	 -36.65641554
No	 -36.65641554	 -6.10940259	 -34.61994801
No	 -34.61994801	 -8.14587012	 -34.61994801
No	 -34.61994801	 -6.10940259	 -36.65641554
No	 -36.65641554	 -8.14587012	 -32.58348048
No	 -36.65641554	 -6.10940259	 -30.54701295
No	 -34.61994801	 -8.14587012	 -30.54701295
No	 -34.61994801	 -6.10940259	 -32.58348048
No	 -36.65641554	 -8.14587012	 -28.51054542
No	 -34.61994801	 -8.14587012	 -26.47407789
No	 -34.61994801	 -6.10940259	 -28.51054542
No	 -34.61994801	 -8.14587012	 26.47407789
No	 -36.65641554	 -8.14587012	 28.51054542
No	 -36.65641554	 -6.10940259	 30.54701295
No	 -34.61994801	 -8.14587012	 30.54701295
No	 -34.61994801	 -6.10940259	 28.51054542
No	 -36.65641554	 -8.14587012	 32.58348048
No	 -36.65641554	 -6.10940259	 34.61994801
No	 -34.61994801	 -8.14587012	 34.61994801
No	 -34.61994801	 -6.10940259	 32.58348048
No	 -36.65641554	 -8.14587012	 36.65641554
No	 -36.65641554	 -6.10940259	 38.69288307
No	 -34.61994801	 -8.14587012	 38.69288307
No	 -34.61994801	 -6.10940259	 36.65641554
Co	 -36.65641554	 -4.07293506	 -40.72935060
No	 -36.65641554	 -2.03646753	 -38.69288307
No	 -34.61994801	 -4.07293506	 -38.69288307
Co	 -34.61994801	 -2.03646753	 -40.72935060
No	 -36.65641554	 -4.07293506	 -36.65641554
No	 -36.65641554	 -2.03646753	 -34.61994801
No	 -34.61994801	 -4.07293506	 -34.61994801
No	 -34.61994801	 -2.03646753	 -36.65641554
No	 -36.65641554	 -4.07293506	 -32.58348048
No	 -34.61994801	 -4.07293506	 -30.54701295
No	 -34.61994801	 -2.03646753	 -32.58348048
No	 -34.61994801	 -4.07293506	 30.54701295
No	 -36.65641554	 -4.07293506	 32.58348048
No	 -36.65641554	 -2.03646753	 34.61994801
No	 -34.61994801	 -4.07293506	 34.61994801
No	 -34.61994801	 -2.03646753	 32.58348048
No	 -36.65641554	 -4.07293506	 36.65641554
No	 -36.65641554	 -2.03646753	 38.69288307
No	 -34.61994801	 -4.07293506	 38.69288307
No	 -34.61994801	 -2.03646753	 36.65641554
Co	 -36.65641554	 -0.00000000	 -40.72935060
No	 -36.65641554	 2.03646753	 -38.69288307
Co	 -34.61994801	 2.03646753	 -40.72935060
No	 -36.65641554	 -0.00000000	 -36.65641554
No	 -36.65641554	 2.03646753	 -34.61994801
No	 -34.61994801	 -0.00000000	 -34.61994801
No	 -34.61994801	 2.03646753	 -36.65641554
No	 -34.61994801	 2.03646753	 -32.58348048
No	 -36.65641554	 2.03646753	 34.61994801
No	 -34.61994801	 -0.00000000	 34.61994801
No	 -34.61994801	 2.03646753	 32.58348048
No	 -36.65641554	 -0.00000000	 36.65641554
No	 -36.65641554	 2.03646753	 38.69288307
No	 -34.61994801	 2.03646753	 36.65641554
Co	 -36.65641554	 4.07293506	 -40.72935060
No	 -36.65641554	 6.10940259	 -38.69288307
No	 -34.61994801	 4.07293506	 -38.69288307
Co	 -34.61994801	 6.10940259	 -40.72935060
No	 -36.65641554	 4.07293506	 -36.65641554
No	 -36.65641554	 6.10940259	 -34.61994801
No	 -34.61994801	 4.07293506	 -34.61994801
No	 -34.61994801	 6.10940259	 -36.65641554
No	 -36.65641554	 4.07293506	 -32.58348048
No	 -36.65641554	 6.10940259	 -30.54701295
No	 -34.61994801	 4.07293506	 -30.54701295
No	 -34.61994801	 6.10940259	 -32.58348048
No	 -34.61994801	 6.10940259	 -28.51054542
No	 -36.65641554	 6.10940259	 30.54701295
No	 -34.61994801	 4.07293506	 30.54701295
No	 -34.61994801	 6.10940259	 28.51054542
No	 -36.65641554	 4.07293506	 32.58348048
No	 -36.65641554	 6.10940259	 34.61994801
No	 -34.61994801	 4.07293506	 34.61994801
No	 -34.61994801	 6.10940259	 32.58348048
No	 -36.65641554	 4.07293506	 36.65641554
No	 -36.65641554	 6.10940259	 38.69288307
No	 -34.61994801	 4.07293506	 38.69288307
No	 -34.61994801	 6.10940259	 36.65641554
Co	 -36.65641554	 8.14587012	 -40.72935060
No	 -36.65641554	 10.18233765	 -38.69288307
No	 -34.61994801	 8.14587012	 -38.69288307
Co	 -34.61994801	 10.18233765	 -40.72935060
No	 -36.65641554	 8.14587012	 -36.65641554
No	 -36.65641554	 10.18233765	 -34.61994801
No	 -34.61994801	 8.14587012	 -34.61994801
No	 -34.61994801	 10.18233765	 -36.65641554
No	 -36.65641554	 8.14587012	 -32.58348048
No	 -36.65641554	 10.18233765	 -30.54701295
No	 -34.61994801	 8.14587012	 -30.54701295
No	 -34.61994801	 10.18233765	 -32.58348048
No	 -36.65641554	 8.14587012	 -28.51054542
No	 -36.65641554	 10.18233765	 -26.47407789
No	 -34.61994801	 8.14587012	 -26.47407789
No	 -34.61994801	 10.18233765	 -28.51054542
No	 -34.61994801	 10.18233765	 -24.43761036
No	 -36.65641554	 10.18233765	 26.47407789
No	 -34.61994801	 8.14587012	 26.47407789
No	 -34.61994801	 10.18233765	 24.43761036
No	 -36.65641554	 8.14587012	 28.51054542
No	 -36.65641554	 10.18233765	 30.54701295
No	 -34.61994801	 8.14587012	 30.54701295
No	 -34.61994801	 10.18233765	 28.51054542
No	 -36.65641554	 8.14587012	 32.58348048
No	 -36.65641554	 10.18233765	 34.61994801
No	 -34.61994801	 8.14587012	 34.61994801
No	 -34.61994801	 10.18233765	 32.58348048
No	 -36.65641554	 8.14587012	 36.65641554
No	 -36.65641554	 10.18233765	 38.69288307
No	 -34.61994801	 8.14587012	 38.69288307
No	 -34.61994801	 10.18233765	 36.65641554
Co	 -36.65641554	 12.21880518	 -40.72935060
No	 -36.65641554	 14.25527271	 -38.69288307
No	 -34.61994801	 12.21880518	 -38.69288307
Co	 -34.61994801	 14.25527271	 -40.72935060
No	 -36.65641554	 12.21880518	 -36.65641554
No	 -36.65641554	 14.25527271	 -34.61994801
No	 -34.61994801	 12.21880518	 -34.61994801
No	 -34.61994801	 14.25527271	 -36.65641554
No	 -36.65641554	 12.21880518	 -32.58348048
No	 -36.65641554	 14.25527271	 -30.54701295
No	 -34.61994801	 12.21880518	 -30.54701295
No	 -34.61994801	 14.25527271	 -32.58348048
No	 -36.65641554	 12.21880518	 -28.51054542
No	 -36.65641554	 14.25527271	 -26.47407789
No	 -34.61994801	 12.21880518	 -26.47407789
No	 -34.61994801	 14.25527271	 -28.51054542
No	 -36.65641554	 12.21880518	 -24.43761036
No	 -36.65641554	 14.25527271	 -22.40114283
No	 -34.61994801	 12.21880518	 -22.40114283
No	 -34.61994801	 14.25527271	 -24.43761036
No	 -34.61994801	 14.25527271	 -20.36467530
No	 -36.65641554	 14.25527271	 22.40114283
No	 -34.61994801	 12.21880518	 22.40114283
No	 -34.61994801	 14.25527271	 20.36467530
No	 -36.65641554	 12.21880518	 24.43761036
No	 -36.65641554	 14.25527271	 26.47407789
No	 -34.61994801	 12.21880518	 26.47407789
No	 -34.61994801	 14.25527271	 24.43761036
No	 -36.65641554	 12.21880518	 28.51054542
No	 -36.65641554	 14.25527271	 30.54701295
No	 -34.61994801	 12.21880518	 30.54701295
No	 -34.61994801	 14.25527271	 28.51054542
No	 -36.65641554	 12.21880518	 32.58348048
No	 -36.65641554	 14.25527271	 34.61994801
No	 -34.61994801	 12.21880518	 34.61994801
No	 -34.61994801	 14.25527271	 32.58348048
No	 -36.65641554	 12.21880518	 36.65641554
No	 -36.65641554	 14.25527271	 38.69288307
No	 -34.61994801	 12.21880518	 38.69288307
No	 -34.61994801	 14.25527271	 36.65641554
Co	 -36.65641554	 16.29174024	 -40.72935060
No	 -36.65641554	 18.32820777	 -38.69288307
No	 -34.61994801	 16.29174024	 -38.69288307
Co	 -34.61994801	 18.32820777	 -40.72935060
No	 -36.65641554	 16.29174024	 -36.65641554
No	 -36.65641554	 18.32820777	 -34.61994801
No	 -34.61994801	 16.29174024	 -34.61994801
No	 -34.61994801	 18.32820777	 -36.65641554
No	 -36.65641554	 16.29174024	 -32.58348048
No	 -36.65641554	 18.32820777	 -30.54701295
No	 -34.61994801	 16.29174024	 -30.54701295
No	 -34.61994801	 18.32820777	 -32.58348048
No	 -36.65641554	 16.29174024	 -28.51054542
No	 -36.65641554	 18.32820777	 -26.47407789
No	 -34.61994801	 16.29174024	 -26.47407789
No	 -34.61994801	 18.32820777	 -28.51054542
No	 -36.65641554	 16.29174024	 -24.43761036
No	 -36.65641554	 18.32820777	 -22.40114283
No	 -34.61994801	 16.29174024	 -22.40114283
No	 -34.61994801	 18.32820777	 -24.43761036
No	 -36.65641554	 16.29174024	 -20.36467530
No	 -36.65641554	 18.32820777	 -18.32820777
No	 -34.61994801	 16.29174024	 -18.32820777
No	 -34.61994801	 18.32820777	 -20.36467530
No	 -34.61994801	 18.32820777	 -16.29174024
No	 -36.65641554	 18.32820777	 18.32820777
No	 -34.61994801	 16.29174024	 18.32820777
No	 -34.61994801	 18.32820777	 16.29174024
No	 -36.65641554	 16.29174024	 20.36467530
No	 -36.65641554	 18.32820777	 22.40114283
No	 -34.61994801	 16.29174024	 22.40114283
No	 -34.61994801	 18.32820777	 20.36467530
No	 -36.65641554	 16.29174024	 24.43761036
No	 -36.65641554	 18.32820777	 26.47407789
No	 -34.61994801	 16.29174024	 26.47407789
No	 -34.61994801	 18.32820777	 24.43761036
No	 -36.65641554	 16.29174024	 28.51054542
No	 -36.65641554	 18.32820777	 30.54701295
No	 -34.61994801	 16.29174024	 30.54701295
No	 -34.61994801	 18.32820777	 28.51054542
No	 -36.65641554	 16.29174024	 32.58348048
No	 -36.65641554	 18.32820777	 34.61994801
No	 -34.61994801	 16.29174024	 34.61994801
No	 -34.61994801	 18.32820777	 32.58348048
No	 -36.65641554	 16.29174024	 36.65641554
No	 -36.65641554	 18.32820777	 38.69288307
No	 -34.61994801	 16.29174024	 38.69288307
No	 -34.61994801	 18.32820777	 36.65641554
Co	 -36.65641554	 20.36467530	 -40.72935060
No	 -36.65641554	 22.40114283	 -38.69288307
No	 -34.61994801	 20.36467530	 -38.69288307
Co	 -34.61994801	 22.40114283	 -40.72935060
No	 -36.65641554	 20.36467530	 -36.65641554
No	 -36.65641554	 22.40114283	 -34.61994801
No	 -34.61994801	 20.36467530	 -34.61994801
No	 -34.61994801	 22.40114283	 -36.65641554
No	 -36.65641554	 20.36467530	 -32.58348048
No	 -36.65641554	 22.40114283	 -30.54701295
No	 -34.61994801	 20.36467530	 -30.54701295
No	 -34.61994801	 22.40114283	 -32.58348048
No	 -36.65641554	 20.36467530	 -28.51054542
No	 -36.65641554	 22.40114283	 -26.47407789
No	 -34.61994801	 20.36467530	 -26.47407789
No	 -34.61994801	 22.40114283	 -28.51054542
No	 -36.65641554	 20.36467530	 -24.43761036
No	 -36.65641554	 22.40114283	 -22.40114283
No	 -34.61994801	 20.36467530	 -22.40114283
No	 -34.61994801	 22.40114283	 -24.43761036
No	 -36.65641554	 20.36467530	 -20.36467530
No	 -36.65641554	 22.40114283	 -18.32820777
No	 -34.61994801	 20.36467530	 -18.32820777
No	 -34.61994801	 22.40114283	 -20.36467530
No	 -36.65641554	 20.36467530	 -16.29174024
No	 -36.65641554	 22.40114283	 -14.25527271
No	 -34.61994801	 20.36467530	 -14.25527271
No	 -34.61994801	 22.40114283	 -16.29174024
No	 -34.61994801	 22.40114283	 -12.21880518
No	 -36.65641554	 22.40114283	 14.25527271
No	 -34.61994801	 20.36467530	 14.25527271
No	 -34.61994801	 22.40114283	 12.21880518
No	 -36.65641554	 20.36467530	 16.29174024
No	 -36.65641554	 22.40114283	 18.32820777
No	 -34.61994801	 20.36467530	 18.32820777
No	 -34.61994801	 22.40114283	 16.29174024
No	 -36.65641554	 20.36467530	 20.36467530
No	 -36.65641554	 22.40114283	 22.40114283
No	 -34.61994801	 20.36467530	 22.40114283
No	 -34.61994801	 22.40114283	 20.36467530
No	 -36.65641554	 20.36467530	 24.43761036
No	 -36.65641554	 22.40114283	 26.47407789
No	 -34.61994801	 20.36467530	 26.47407789
No	 -34.61994801	 22.40114283	 24.43761036
No	 -36.65641554	 20.36467530	 28.51054542
No	 -36.65641554	 22.40114283	 30.54701295
No	 -34.61994801	 20.36467530	 30.54701295
No	 -34.61994801	 22.40114283	 28.51054542
No	 -36.65641554	 20.36467530	 32.58348048
No	 -36.65641554	 22.40114283	 34.61994801
No	 -34.61994801	 20.36467530	 34.61994801
No	 -34.61994801	 22.40114283	 32.58348048
No	 -36.65641554	 20.36467530	 36.65641554
No	 -36.65641554	 22.40114283	 38.69288307
No	 -34.61994801	 20.36467530	 38.69288307
No	 -34.61994801	 22.40114283	 36.65641554
Co	 -36.65641554	 24.43761036	 -40.72935060
No	 -36.65641554	 26.47407789	 -38.69288307
No	 -34.61994801	 24.43761036	 -38.69288307
Co	 -34.61994801	 26.47407789	 -40.72935060
No	 -36.65641554	 24.43761036	 -36.65641554
No	 -36.65641554	 26.47407789	 -34.61994801
No	 -34.61994801	 24.43761036	 -34.61994801
No	 -34.61994801	 26.47407789	 -36.65641554
No	 -36.65641554	 24.43761036	 -32.58348048
No	 -36.65641554	 26.47407789	 -30.54701295
No	 -34.61994801	 24.43761036	 -30.54701295
No	 -34.61994801	 26.47407789	 -32.58348048
No	 -36.65641554	 24.43761036	 -28.51054542
No	 -36.65641554	 26.47407789	 -26.47407789
No	 -34.61994801	 24.43761036	 -26.47407789
No	 -34.61994801	 26.47407789	 -28.51054542
No	 -36.65641554	 24.43761036	 -24.43761036
No	 -36.65641554	 26.47407789	 -22.40114283
No	 -34.61994801	 24.43761036	 -22.40114283
No	 -34.61994801	 26.47407789	 -24.43761036
No	 -36.65641554	 24.43761036	 -20.36467530
No	 -36.65641554	 26.47407789	 -18.32820777
No	 -34.61994801	 24.43761036	 -18.32820777
No	 -34.61994801	 26.47407789	 -20.36467530
No	 -36.65641554	 24.43761036	 -16.29174024
No	 -36.65641554	 26.47407789	 -14.25527271
No	 -34.61994801	 24.43761036	 -14.25527271
No	 -34.61994801	 26.47407789	 -16.29174024
No	 -36.65641554	 24.43761036	 -12.21880518
No	 -36.65641554	 26.47407789	 -10.18233765
No	 -34.61994801	 24.43761036	 -10.18233765
No	 -34.61994801	 26.47407789	 -12.21880518
No	 -34.61994801	 26.47407789	 -8.14587012
No	 -36.65641554	 26.47407789	 10.18233765
No	 -34.61994801	 24.43761036	 10.18233765
No	 -34.61994801	 26.47407789	 8.14587012
No	 -36.65641554	 24.43761036	 12.21880518
No	 -36.65641554	 26.47407789	 14.25527271
No	 -34.61994801	 24.43761036	 14.25527271
No	 -34.61994801	 26.47407789	 12.21880518
No	 -36.65641554	 24.43761036	 16.29174024
No	 -36.65641554	 26.47407789	 18.32820777
No	 -34.61994801	 24.43761036	 18.32820777
No	 -34.61994801	 26.47407789	 16.29174024
No	 -36.65641554	 24.43761036	 20.36467530
No	 -36.65641554	 26.47407789	 22.40114283
No	 -34.61994801	 24.43761036	 22.40114283
No	 -34.61994801	 26.47407789	 20.36467530
No	 -36.65641554	 24.43761036	 24.43761036
No	 -36.65641554	 26.47407789	 26.47407789
No	 -34.61994801	 24.43761036	 26.47407789
No	 -34.61994801	 26.47407789	 24.43761036
No	 -36.65641554	 24.43761036	 28.51054542
No	 -36.65641554	 26.47407789	 30.54701295
No	 -34.61994801	 24.43761036	 30.54701295
No	 -34.61994801	 26.47407789	 28.51054542
No	 -36.65641554	 24.43761036	 32.58348048
No	 -36.65641554	 26.47407789	 34.61994801
No	 -34.61994801	 24.43761036	 34.61994801
No	 -34.61994801	 26.47407789	 32.58348048
No	 -36.65641554	 24.43761036	 36.65641554
No	 -36.65641554	 26.47407789	 38.69288307
No	 -34.61994801	 24.43761036	 38.69288307
No	 -34.61994801	 26.47407789	 36.65641554
Co	 -36.65641554	 28.51054542	 -40.72935060
No	 -36.65641554	 30.54701295	 -38.69288307
No	 -34.61994801	 28.51054542	 -38.69288307
Co	 -34.61994801	 30.54701295	 -40.72935060
No	 -36.65641554	 28.51054542	 -36.65641554
No	 -36.65641554	 30.54701295	 -34.61994801
No	 -34.61994801	 28.51054542	 -34.61994801
No	 -34.61994801	 30.54701295	 -36.65641554
No	 -36.65641554	 28.51054542	 -32.58348048
No	 -36.65641554	 30.54701295	 -30.54701295
No	 -34.61994801	 28.51054542	 -30.54701295
No	 -34.61994801	 30.54701295	 -32.58348048
No	 -36.65641554	 28.51054542	 -28.51054542
No	 -36.65641554	 30.54701295	 -26.47407789
No	 -34.61994801	 28.51054542	 -26.47407789
No	 -34.61994801	 30.54701295	 -28.51054542
No	 -36.65641554	 28.51054542	 -24.43761036
No	 -36.65641554	 30.54701295	 -22.40114283
No	 -34.61994801	 28.51054542	 -22.40114283
No	 -34.61994801	 30.54701295	 -24.43761036
No	 -36.65641554	 28.51054542	 -20.36467530
No	 -36.65641554	 30.54701295	 -18.32820777
No	 -34.61994801	 28.51054542	 -18.32820777
No	 -34.61994801	 30.54701295	 -20.36467530
No	 -36.65641554	 28.51054542	 -16.29174024
No	 -36.65641554	 30.54701295	 -14.25527271
No	 -34.61994801	 28.51054542	 -14.25527271
No	 -34.61994801	 30.54701295	 -16.29174024
No	 -36.65641554	 28.51054542	 -12.21880518
No	 -36.65641554	 30.54701295	 -10.18233765
No	 -34.61994801	 28.51054542	 -10.18233765
No	 -34.61994801	 30.54701295	 -12.21880518
No	 -36.65641554	 28.51054542	 -8.14587012
No	 -36.65641554	 30.54701295	 -6.10940259
No	 -34.61994801	 28.51054542	 -6.10940259
No	 -34.61994801	 30.54701295	 -8.14587012
No	 -34.61994801	 30.54701295	 -4.07293506
No	 -36.65641554	 30.54701295	 6.10940259
No	 -34.61994801	 28.51054542	 6.10940259
No	 -34.61994801	 30.54701295	 4.07293506
No	 -36.65641554	 28.51054542	 8.14587012
No	 -36.65641554	 30.54701295	 10.18233765
No	 -34.61994801	 28.51054542	 10.18233765
No	 -34.61994801	 30.54701295	 8.14587012
No	 -36.65641554	 28.51054542	 12.21880518
No	 -36.65641554	 30.54701295	 14.25527271
No	 -34.61994801	 28.51054542	 14.25527271
No	 -34.61994801	 30.54701295	 12.21880518
No	 -36.65641554	 28.51054542	 16.29174024
No	 -36.65641554	 30.54701295	 18.32820777
No	 -34.61994801	 28.51054542	 18.32820777
No	 -34.61994801	 30.54701295	 16.29174024
No	 -36.65641554	 28.51054542	 20.36467530
No	 -36.65641554	 30.54701295	 22.40114283
No	 -34.61994801	 28.51054542	 22.40114283
No	 -34.61994801	 30.54701295	 20.36467530
No	 -36.65641554	 28.51054542	 24.43761036
No	 -36.65641554	 30.54701295	 26.47407789
No	 -34.61994801	 28.51054542	 26.47407789
No	 -34.61994801	 30.54701295	 24.43761036
No	 -36.65641554	 28.51054542	 28.51054542
No	 -36.65641554	 30.54701295	 30.54701295
No	 -34.61994801	 28.51054542	 30.54701295
No	 -34.61994801	 30.54701295	 28.51054542
No	 -36.65641554	 28.51054542	 32.58348048
No	 -36.65641554	 30.54701295	 34.61994801
No	 -34.61994801	 28.51054542	 34.61994801
No	 -34.61994801	 30.54701295	 32.58348048
No	 -36.65641554	 28.51054542	 36.65641554
No	 -36.65641554	 30.54701295	 38.69288307
No	 -34.61994801	 28.51054542	 38.69288307
No	 -34.61994801	 30.54701295	 36.65641554
Co	 -36.65641554	 32.58348048	 -40.72935060
No	 -36.65641554	 34.61994801	 -38.69288307
No	 -34.61994801	 32.58348048	 -38.69288307
Co	 -34.61994801	 34.61994801	 -40.72935060
No	 -36.65641554	 32.58348048	 -36.65641554
No	 -36.65641554	 34.61994801	 -34.61994801
No	 -34.61994801	 32.58348048	 -34.61994801
No	 -34.61994801	 34.61994801	 -36.65641554
No	 -36.65641554	 32.58348048	 -32.58348048
No	 -36.65641554	 34.61994801	 -30.54701295
No	 -34.61994801	 32.58348048	 -30.54701295
No	 -34.61994801	 34.61994801	 -32.58348048
No	 -36.65641554	 32.58348048	 -28.51054542
No	 -36.65641554	 34.61994801	 -26.47407789
No	 -34.61994801	 32.58348048	 -26.47407789
No	 -34.61994801	 34.61994801	 -28.51054542
No	 -36.65641554	 32.58348048	 -24.43761036
No	 -36.65641554	 34.61994801	 -22.40114283
No	 -34.61994801	 32.58348048	 -22.40114283
No	 -34.61994801	 34.61994801	 -24.43761036
No	 -36.65641554	 32.58348048	 -20.36467530
No	 -36.65641554	 34.61994801	 -18.32820777
No	 -34.61994801	 32.58348048	 -18.32820777
No	 -34.61994801	 34.61994801	 -20.36467530
No	 -36.65641554	 32.58348048	 -16.29174024
No	 -36.65641554	 34.61994801	 -14.25527271
No	 -34.61994801	 32.58348048	 -14.25527271
No	 -34.61994801	 34.61994801	 -16.29174024
No	 -36.65641554	 32.58348048	 -12.21880518
No	 -36.65641554	 34.61994801	 -10.18233765
No	 -34.61994801	 32.58348048	 -10.18233765
No	 -34.61994801	 34.61994801	 -12.21880518
No	 -36.65641554	 32.58348048	 -8.14587012
No	 -36.65641554	 34.61994801	 -6.10940259
No	 -34.61994801	 32.58348048	 -6.10940259
No	 -34.61994801	 34.61994801	 -8.14587012
No	 -36.65641554	 32.58348048	 -4.07293506
No	 -36.65641554	 34.61994801	 -2.03646753
No	 -34.61994801	 32.58348048	 -2.03646753
No	 -34.61994801	 34.61994801	 -4.07293506
No	 -36.65641554	 34.61994801	 2.03646753
No	 -34.61994801	 32.58348048	 2.03646753
No	 -34.61994801	 34.61994801	 -0.00000000
No	 -36.65641554	 32.58348048	 4.07293506
No	 -36.65641554	 34.61994801	 6.10940259
No	 -34.61994801	 32.58348048	 6.10940259
No	 -34.61994801	 34.61994801	 4.07293506
No	 -36.65641554	 32.58348048	 8.14587012
No	 -36.65641554	 34.61994801	 10.18233765
No	 -34.61994801	 32.58348048	 10.18233765
No	 -34.61994801	 34.61994801	 8.14587012
No	 -36.65641554	 32.58348048	 12.21880518
No	 -36.65641554	 34.61994801	 14.25527271
No	 -34.61994801	 32.58348048	 14.25527271
No	 -34.61994801	 34.61994801	 12.21880518
No	 -36.65641554	 32.58348048	 16.29174024
No	 -36.65641554	 34.61994801	 18.32820777
No	 -34.61994801	 32.58348048	 18.32820777
No	 -34.61994801	 34.61994801	 16.29174024
No	 -36.65641554	 32.58348048	 20.36467530
No	 -36.65641554	 34.61994801	 22.40114283
No	 -34.61994801	 32.58348048	 22.40114283
No	 -34.61994801	 34.61994801	 20.36467530
No	 -36.65641554	 32.58348048	 24.43761036
No	 -36.65641554	 34.61994801	 26.47407789
No	 -34.61994801	 32.58348048	 26.47407789
No	 -34.61994801	 34.61994801	 24.43761036
No	 -36.65641554	 32.58348048	 28.51054542
No	 -36.65641554	 34.61994801	 30.54701295
No	 -34.61994801	 32.58348048	 30.54701295
No	 -34.61994801	 34.61994801	 28.51054542
No	 -36.65641554	 32.58348048	 32.58348048
No	 -36.65641554	 34.61994801	 34.61994801
No	 -34.61994801	 32.58348048	 34.61994801
No	 -34.61994801	 34.61994801	 32.58348048
No	 -36.65641554	 32.58348048	 36.65641554
No	 -36.65641554	 34.61994801	 38.69288307
No	 -34.61994801	 32.58348048	 38.69288307
No	 -34.61994801	 34.61994801	 36.65641554
Co	 -36.65641554	 36.65641554	 -40.72935060
No	 -36.65641554	 38.69288307	 -38.69288307
No	 -34.61994801	 36.65641554	 -38.69288307
Co	 -34.61994801	 38.69288307	 -40.72935060
No	 -36.65641554	 36.65641554	 -36.65641554
No	 -36.65641554	 38.69288307	 -34.61994801
No	 -34.61994801	 36.65641554	 -34.61994801
No	 -34.61994801	 38.69288307	 -36.65641554
No	 -36.65641554	 36.65641554	 -32.58348048
No	 -36.65641554	 38.69288307	 -30.54701295
No	 -34.61994801	 36.65641554	 -30.54701295
No	 -34.61994801	 38.69288307	 -32.58348048
No	 -36.65641554	 36.65641554	 -28.51054542
No	 -36.65641554	 38.69288307	 -26.47407789
No	 -34.61994801	 36.65641554	 -26.47407789
No	 -34.61994801	 38.69288307	 -28.51054542
No	 -36.65641554	 36.65641554	 -24.43761036
No	 -36.65641554	 38.69288307	 -22.40114283
No	 -34.61994801	 36.65641554	 -22.40114283
No	 -34.61994801	 38.69288307	 -24.43761036
No	 -36.65641554	 36.65641554	 -20.36467530
No	 -36.65641554	 38.69288307	 -18.32820777
No	 -34.61994801	 36.65641554	 -18.32820777
No	 -34.61994801	 38.69288307	 -20.36467530
No	 -36.65641554	 36.65641554	 -16.29174024
No	 -36.65641554	 38.69288307	 -14.25527271
No	 -34.61994801	 36.65641554	 -14.25527271
No	 -34.61994801	 38.69288307	 -16.29174024
No	 -36.65641554	 36.65641554	 -12.21880518
No	 -36.65641554	 38.69288307	 -10.18233765
No	 -34.61994801	 36.65641554	 -10.18233765
No	 -34.61994801	 38.69288307	 -12.21880518
No	 -36.65641554	 36.65641554	 -8.14587012
No	 -36.65641554	 38.69288307	 -6.10940259
No	 -34.61994801	 36.65641554	 -6.10940259
No	 -34.61994801	 38.69288307	 -8.14587012
No	 -36.65641554	 36.65641554	 -4.07293506
No	 -36.65641554	 38.69288307	 -2.03646753
No	 -34.61994801	 36.65641554	 -2.03646753
No	 -34.61994801	 38.69288307	 -4.07293506
No	 -36.65641554	 36.65641554	 -0.00000000
No	 -36.65641554	 38.69288307	 2.03646753
No	 -34.61994801	 36.65641554	 2.03646753
No	 -36.65641554	 36.65641554	 4.07293506
No	 -36.65641554	 38.69288307	 6.10940259
No	 -34.61994801	 36.65641554	 6.10940259
No	 -34.61994801	 38.69288307	 4.07293506
No	 -36.65641554	 36.65641554	 8.14587012
No	 -36.65641554	 38.69288307	 10.18233765
No	 -34.61994801	 36.65641554	 10.18233765
No	 -34.61994801	 38.69288307	 8.14587012
No	 -36.65641554	 36.65641554	 12.21880518
No	 -36.65641554	 38.69288307	 14.25527271
No	 -34.61994801	 36.65641554	 14.25527271
No	 -34.61994801	 38.69288307	 12.21880518
No	 -36.65641554	 36.65641554	 16.29174024
No	 -36.65641554	 38.69288307	 18.32820777
No	 -34.61994801	 36.65641554	 18.32820777
No	 -34.61994801	 38.69288307	 16.29174024
No	 -36.65641554	 36.65641554	 20.36467530
No	 -36.65641554	 38.69288307	 22.40114283
No	 -34.61994801	 36.65641554	 22.40114283
No	 -34.61994801	 38.69288307	 20.36467530
No	 -36.65641554	 36.65641554	 24.43761036
No	 -36.65641554	 38.69288307	 26.47407789
No	 -34.61994801	 36.65641554	 26.47407789
No	 -34.61994801	 38.69288307	 24.43761036
No	 -36.65641554	 36.65641554	 28.51054542
No	 -36.65641554	 38.69288307	 30.54701295
No	 -34.61994801	 36.65641554	 30.54701295
No	 -34.61994801	 38.69288307	 28.51054542
No	 -36.65641554	 36.65641554	 32.58348048
No	 -36.65641554	 38.69288307	 34.61994801
No	 -34.61994801	 36.65641554	 34.61994801
No	 -34.61994801	 38.69288307	 32.58348048
No	 -36.65641554	 36.65641554	 36.65641554
No	 -36.65641554	 38.69288307	 38.69288307
No	 -34.61994801	 36.65641554	 38.69288307
No	 -34.61994801	 38.69288307	 36.65641554
Co	 -32.58348048	 -40.72935060	 -40.72935060
No	 -32.58348048	 -38.69288307	 -38.69288307
Co	 -30.54701295	 -40.72935060	 -38.69288307
Co	 -30.54701295	 -38.69288307	 -40.72935060
Co	 -32.58348048	 -40.72935060	 -36.65641554
No	 -32.58348048	 -38.69288307	 -34.61994801
Co	 -30.54701295	 -40.72935060	 -34.61994801
No	 -30.54701295	 -38.69288307	 -36.65641554
Co	 -32.58348048	 -40.72935060	 -32.58348048
No	 -32.58348048	 -38.69288307	 -30.54701295
Co	 -30.54701295	 -40.72935060	 -30.54701295
No	 -30.54701295	 -38.69288307	 -32.58348048
Co	 -32.58348048	 -40.72935060	 -28.51054542
No	 -32.58348048	 -38.69288307	 -26.47407789
Co	 -30.54701295	 -40.72935060	 -26.47407789
No	 -30.54701295	 -38.69288307	 -28.51054542
Co	 -32.58348048	 -40.72935060	 -24.43761036
No	 -32.58348048	 -38.69288307	 -22.40114283
Co	 -30.54701295	 -40.72935060	 -22.40114283
No	 -30.54701295	 -38.69288307	 -24.43761036
Co	 -32.58348048	 -40.72935060	 -20.36467530
No	 -32.58348048	 -38.69288307	 -18.32820777
Co	 -30.54701295	 -40.72935060	 -18.32820777
No	 -30.54701295	 -38.69288307	 -20.36467530
Co	 -32.58348048	 -40.72935060	 -16.29174024
No	 -32.58348048	 -38.69288307	 -14.25527271
Co	 -30.54701295	 -40.72935060	 -14.25527271
No	 -30.54701295	 -38.69288307	 -16.29174024
Co	 -32.58348048	 -40.72935060	 -12.21880518
No	 -32.58348048	 -38.69288307	 -10.18233765
Co	 -30.54701295	 -40.72935060	 -10.18233765
No	 -30.54701295	 -38.69288307	 -12.21880518
Co	 -32.58348048	 -40.72935060	 -8.14587012
No	 -32.58348048	 -38.69288307	 -6.10940259
Co	 -30.54701295	 -40.72935060	 -6.10940259
No	 -30.54701295	 -38.69288307	 -8.14587012
Co	 -32.58348048	 -40.72935060	 -4.07293506
Co	 -32.58348048	 -40.72935060	 4.07293506
No	 -32.58348048	 -38.69288307	 6.10940259
Co	 -30.54701295	 -40.72935060	 6.10940259
Co	 -32.58348048	 -40.72935060	 8.14587012
No	 -32.58348048	 -38.69288307	 10.18233765
Co	 -30.54701295	 -40.72935060	 10.18233765
No	 -30.54701295	 -38.69288307	 8.14587012
Co	 -32.58348048	 -40.72935060	 12.21880518
No	 -32.58348048	 -38.69288307	 14.25527271
Co	 -30.54701295	 -40.72935060	 14.25527271
No	 -30.54701295	 -38.69288307	 12.21880518
Co	 -32.58348048	 -40.72935060	 16.29174024
No	 -32.58348048	 -38.69288307	 18.32820777
Co	 -30.54701295	 -40.72935060	 18.32820777
No	 -30.54701295	 -38.69288307	 16.29174024
Co	 -32.58348048	 -40.72935060	 20.36467530
No	 -32.58348048	 -38.69288307	 22.40114283
Co	 -30.54701295	 -40.72935060	 22.40114283
No	 -30.54701295	 -38.69288307	 20.36467530
Co	 -32.58348048	 -40.72935060	 24.43761036
No	 -32.58348048	 -38.69288307	 26.47407789
Co	 -30.54701295	 -40.72935060	 26.47407789
No	 -30.54701295	 -38.69288307	 24.43761036
Co	 -32.58348048	 -40.72935060	 28.51054542
No	 -32.58348048	 -38.69288307	 30.54701295
Co	 -30.54701295	 -40.72935060	 30.54701295
No	 -30.54701295	 -38.69288307	 28.51054542
Co	 -32.58348048	 -40.72935060	 32.58348048
No	 -32.58348048	 -38.69288307	 34.61994801
Co	 -30.54701295	 -40.72935060	 34.61994801
No	 -30.54701295	 -38.69288307	 32.58348048
Co	 -32.58348048	 -40.72935060	 36.65641554
No	 -32.58348048	 -38.69288307	 38.69288307
Co	 -30.54701295	 -40.72935060	 38.69288307
No	 -30.54701295	 -38.69288307	 36.65641554
Co	 -32.58348048	 -36.65641554	 -40.72935060
No	 -32.58348048	 -34.61994801	 -38.69288307
No	 -30.54701295	 -36.65641554	 -38.69288307
Co	 -30.54701295	 -34.61994801	 -40.72935060
No	 -32.58348048	 -36.65641554	 -36.65641554
No	 -32.58348048	 -34.61994801	 -34.61994801
No	 -30.54701295	 -36.65641554	 -34.61994801
No	 -30.54701295	 -34.61994801	 -36.65641554
No	 -32.58348048	 -36.65641554	 -32.58348048
No	 -32.58348048	 -34.61994801	 -30.54701295
No	 -30.54701295	 -36.65641554	 -30.54701295
No	 -30.54701295	 -34.61994801	 -32.58348048
No	 -32.58348048	 -36.65641554	 -28.51054542
No	 -32.58348048	 -34.61994801	 -26.47407789
No	 -30.54701295	 -36.65641554	 -26.47407789
No	 -30.54701295	 -34.61994801	 -28.51054542
No	 -32.58348048	 -36.65641554	 -24.43761036
No	 -32.58348048	 -34.61994801	 -22.40114283
No	 -30.54701295	 -36.65641554	 -22.40114283
No	 -30.54701295	 -34.61994801	 -24.43761036
No	 -32.58348048	 -36.65641554	 -20.36467530
No	 -32.58348048	 -34.61994801	 -18.32820777
No	 -30.54701295	 -36.65641554	 -18.32820777
No	 -30.54701295	 -34.61994801	 -20.36467530
No	 -32.58348048	 -36.65641554	 -16.29174024
No	 -32.58348048	 -34.61994801	 -14.25527271
No	 -30.54701295	 -36.65641554	 -14.25527271
No	 -30.54701295	 -34.61994801	 -16.29174024
No	 -32.58348048	 -36.65641554	 -12.21880518
No	 -32.58348048	 -34.61994801	 -10.18233765
No	 -30.54701295	 -36.65641554	 -10.18233765
No	 -30.54701295	 -34.61994801	 -12.21880518
No	 -32.58348048	 -36.65641554	 -8.14587012
No	 -32.58348048	 -34.61994801	 -6.10940259
No	 -30.54701295	 -36.65641554	 -6.10940259
No	 -30.54701295	 -34.61994801	 -8.14587012
No	 -32.58348048	 -36.65641554	 -4.07293506
No	 -32.58348048	 -34.61994801	 -2.03646753
No	 -30.54701295	 -34.61994801	 -4.07293506
No	 -32.58348048	 -34.61994801	 2.03646753
No	 -32.58348048	 -36.65641554	 4.07293506
No	 -32.58348048	 -34.61994801	 6.10940259
No	 -30.54701295	 -36.65641554	 6.10940259
No	 -30.54701295	 -34.61994801	 4.07293506
No	 -32.58348048	 -36.65641554	 8.14587012
No	 -32.58348048	 -34.61994801	 10.18233765
No	 -30.54701295	 -36.65641554	 10.18233765
No	 -30.54701295	 -34.61994801	 8.14587012
No	 -32.58348048	 -36.65641554	 12.21880518
No	 -32.58348048	 -34.61994801	 14.25527271
No	 -30.54701295	 -36.65641554	 14.25527271
No	 -30.54701295	 -34.61994801	 12.21880518
No	 -32.58348048	 -36.65641554	 16.29174024
No	 -32.58348048	 -34.61994801	 18.32820777
No	 -30.54701295	 -36.65641554	 18.32820777
No	 -30.54701295	 -34.61994801	 16.29174024
No	 -32.58348048	 -36.65641554	 20.36467530
No	 -32.58348048	 -34.61994801	 22.40114283
No	 -30.54701295	 -36.65641554	 22.40114283
No	 -30.54701295	 -34.61994801	 20.36467530
No	 -32.58348048	 -36.65641554	 24.43761036
No	 -32.58348048	 -34.61994801	 26.47407789
No	 -30.54701295	 -36.65641554	 26.47407789
No	 -30.54701295	 -34.61994801	 24.43761036
No	 -32.58348048	 -36.65641554	 28.51054542
No	 -32.58348048	 -34.61994801	 30.54701295
No	 -30.54701295	 -36.65641554	 30.54701295
No	 -30.54701295	 -34.61994801	 28.51054542
No	 -32.58348048	 -36.65641554	 32.58348048
No	 -32.58348048	 -34.61994801	 34.61994801
No	 -30.54701295	 -36.65641554	 34.61994801
No	 -30.54701295	 -34.61994801	 32.58348048
No	 -32.58348048	 -36.65641554	 36.65641554
No	 -32.58348048	 -34.61994801	 38.69288307
No	 -30.54701295	 -36.65641554	 38.69288307
No	 -30.54701295	 -34.61994801	 36.65641554
Co	 -32.58348048	 -32.58348048	 -40.72935060
No	 -32.58348048	 -30.54701295	 -38.69288307
No	 -30.54701295	 -32.58348048	 -38.69288307
Co	 -30.54701295	 -30.54701295	 -40.72935060
No	 -32.58348048	 -32.58348048	 -36.65641554
No	 -32.58348048	 -30.54701295	 -34.61994801
No	 -30.54701295	 -32.58348048	 -34.61994801
No	 -30.54701295	 -30.54701295	 -36.65641554
No	 -32.58348048	 -32.58348048	 -32.58348048
No	 -32.58348048	 -30.54701295	 -30.54701295
No	 -30.54701295	 -32.58348048	 -30.54701295
No	 -30.54701295	 -30.54701295	 -32.58348048
No	 -32.58348048	 -32.58348048	 -28.51054542
No	 -32.58348048	 -30.54701295	 -26.47407789
No	 -30.54701295	 -32.58348048	 -26.47407789
No	 -30.54701295	 -30.54701295	 -28.51054542
No	 -32.58348048	 -32.58348048	 -24.43761036
No	 -32.58348048	 -30.54701295	 -22.40114283
No	 -30.54701295	 -32.58348048	 -22.40114283
No	 -30.54701295	 -30.54701295	 -24.43761036
No	 -32.58348048	 -32.58348048	 -20.36467530
No	 -32.58348048	 -30.54701295	 -18.32820777
No	 -30.54701295	 -32.58348048	 -18.32820777
No	 -30.54701295	 -30.54701295	 -20.36467530
No	 -32.58348048	 -32.58348048	 -16.29174024
No	 -32.58348048	 -30.54701295	 -14.25527271
No	 -30.54701295	 -32.58348048	 -14.25527271
No	 -30.54701295	 -30.54701295	 -16.29174024
No	 -32.58348048	 -32.58348048	 -12.21880518
No	 -32.58348048	 -30.54701295	 -10.18233765
No	 -30.54701295	 -32.58348048	 -10.18233765
No	 -30.54701295	 -30.54701295	 -12.21880518
No	 -32.58348048	 -32.58348048	 -8.14587012
No	 -32.58348048	 -30.54701295	 -6.10940259
No	 -30.54701295	 -32.58348048	 -6.10940259
No	 -30.54701295	 -30.54701295	 -8.14587012
No	 -32.58348048	 -32.58348048	 -4.07293506
No	 -32.58348048	 -30.54701295	 -2.03646753
No	 -30.54701295	 -32.58348048	 -2.03646753
No	 -30.54701295	 -30.54701295	 -4.07293506
No	 -32.58348048	 -32.58348048	 -0.00000000
No	 -32.58348048	 -30.54701295	 2.03646753
No	 -30.54701295	 -32.58348048	 2.03646753
No	 -30.54701295	 -30.54701295	 -0.00000000
No	 -32.58348048	 -32.58348048	 4.07293506
No	 -32.58348048	 -30.54701295	 6.10940259
No	 -30.54701295	 -32.58348048	 6.10940259
No	 -30.54701295	 -30.54701295	 4.07293506
No	 -32.58348048	 -32.58348048	 8.14587012
No	 -32.58348048	 -30.54701295	 10.18233765
No	 -30.54701295	 -32.58348048	 10.18233765
No	 -30.54701295	 -30.54701295	 8.14587012
No	 -32.58348048	 -32.58348048	 12.21880518
No	 -32.58348048	 -30.54701295	 14.25527271
No	 -30.54701295	 -32.58348048	 14.25527271
No	 -30.54701295	 -30.54701295	 12.21880518
No	 -32.58348048	 -32.58348048	 16.29174024
No	 -32.58348048	 -30.54701295	 18.32820777
No	 -30.54701295	 -32.58348048	 18.32820777
No	 -30.54701295	 -30.54701295	 16.29174024
No	 -32.58348048	 -32.58348048	 20.36467530
No	 -32.58348048	 -30.54701295	 22.40114283
No	 -30.54701295	 -32.58348048	 22.40114283
No	 -30.54701295	 -30.54701295	 20.36467530
No	 -32.58348048	 -32.58348048	 24.43761036
No	 -32.58348048	 -30.54701295	 26.47407789
No	 -30.54701295	 -32.58348048	 26.47407789
No	 -30.54701295	 -30.54701295	 24.43761036
No	 -32.58348048	 -32.58348048	 28.51054542
No	 -32.58348048	 -30.54701295	 30.54701295
No	 -30.54701295	 -32.58348048	 30.54701295
No	 -30.54701295	 -30.54701295	 28.51054542
No	 -32.58348048	 -32.58348048	 32.58348048
No	 -32.58348048	 -30.54701295	 34.61994801
No	 -30.54701295	 -32.58348048	 34.61994801
No	 -30.54701295	 -30.54701295	 32.58348048
No	 -32.58348048	 -32.58348048	 36.65641554
No	 -32.58348048	 -30.54701295	 38.69288307
No	 -30.54701295	 -32.58348048	 38.69288307
No	 -30.54701295	 -30.54701295	 36.65641554
Co	 -32.58348048	 -28.51054542	 -40.72935060
No	 -32.58348048	 -26.47407789	 -38.69288307
No	 -30.54701295	 -28.51054542	 -38.69288307
Co	 -30.54701295	 -26.47407789	 -40.72935060
No	 -32.58348048	 -28.51054542	 -36.65641554
No	 -32.58348048	 -26.47407789	 -34.61994801
No	 -30.54701295	 -28.51054542	 -34.61994801
No	 -30.54701295	 -26.47407789	 -36.65641554
No	 -32.58348048	 -28.51054542	 -32.58348048
No	 -32.58348048	 -26.47407789	 -30.54701295
No	 -30.54701295	 -28.51054542	 -30.54701295
No	 -30.54701295	 -26.47407789	 -32.58348048
No	 -32.58348048	 -28.51054542	 -28.51054542
No	 -32.58348048	 -26.47407789	 -26.47407789
No	 -30.54701295	 -28.51054542	 -26.47407789
No	 -30.54701295	 -26.47407789	 -28.51054542
No	 -32.58348048	 -28.51054542	 -24.43761036
No	 -32.58348048	 -26.47407789	 -22.40114283
No	 -30.54701295	 -28.51054542	 -22.40114283
No	 -30.54701295	 -26.47407789	 -24.43761036
No	 -32.58348048	 -28.51054542	 -20.36467530
No	 -32.58348048	 -26.47407789	 -18.32820777
No	 -30.54701295	 -28.51054542	 -18.32820777
No	 -30.54701295	 -26.47407789	 -20.36467530
No	 -32.58348048	 -28.51054542	 -16.29174024
No	 -32.58348048	 -26.47407789	 -14.25527271
No	 -30.54701295	 -28.51054542	 -14.25527271
No	 -30.54701295	 -26.47407789	 -16.29174024
No	 -32.58348048	 -28.51054542	 -12.21880518
No	 -32.58348048	 -26.47407789	 -10.18233765
No	 -30.54701295	 -28.51054542	 -10.18233765
No	 -30.54701295	 -26.47407789	 -12.21880518
No	 -32.58348048	 -28.51054542	 -8.14587012
No	 -32.58348048	 -26.47407789	 -6.10940259
No	 -30.54701295	 -28.51054542	 -6.10940259
No	 -30.54701295	 -26.47407789	 -8.14587012
No	 -32.58348048	 -28.51054542	 -4.07293506
No	 -30.54701295	 -28.51054542	 -2.03646753
No	 -30.54701295	 -26.47407789	 -4.07293506
No	 -30.54701295	 -28.51054542	 2.03646753
No	 -32.58348048	 -28.51054542	 4.07293506
No	 -32.58348048	 -26.47407789	 6.10940259
No	 -30.54701295	 -28.51054542	 6.10940259
No	 -30.54701295	 -26.47407789	 4.07293506
No	 -32.58348048	 -28.51054542	 8.14587012
No	 -32.58348048	 -26.47407789	 10.18233765
No	 -30.54701295	 -28.51054542	 10.18233765
No	 -30.54701295	 -26.47407789	 8.14587012
No	 -32.58348048	 -28.51054542	 12.21880518
No	 -32.58348048	 -26.47407789	 14.25527271
No	 -30.54701295	 -28.51054542	 14.25527271
No	 -30.54701295	 -26.47407789	 12.21880518
No	 -32.58348048	 -28.51054542	 16.29174024
No	 -32.58348048	 -26.47407789	 18.32820777
No	 -30.54701295	 -28.51054542	 18.32820777
No	 -30.54701295	 -26.47407789	 16.29174024
No	 -32.58348048	 -28.51054542	 20.36467530
No	 -32.58348048	 -26.47407789	 22.40114283
No	 -30.54701295	 -28.51054542	 22.40114283
No	 -30.54701295	 -26.47407789	 20.36467530
No	 -32.58348048	 -28.51054542	 24.43761036
No	 -32.58348048	 -26.47407789	 26.47407789
No	 -30.54701295	 -28.51054542	 26.47407789
No	 -30.54701295	 -26.47407789	 24.43761036
No	 -32.58348048	 -28.51054542	 28.51054542
No	 -32.58348048	 -26.47407789	 30.54701295
No	 -30.54701295	 -28.51054542	 30.54701295
No	 -30.54701295	 -26.47407789	 28.51054542
No	 -32.58348048	 -28.51054542	 32.58348048
No	 -32.58348048	 -26.47407789	 34.61994801
No	 -30.54701295	 -28.51054542	 34.61994801
No	 -30.54701295	 -26.47407789	 32.58348048
No	 -32.58348048	 -28.51054542	 36.65641554
No	 -32.58348048	 -26.47407789	 38.69288307
No	 -30.54701295	 -28.51054542	 38.69288307
No	 -30.54701295	 -26.47407789	 36.65641554
Co	 -32.58348048	 -24.43761036	 -40.72935060
No	 -32.58348048	 -22.40114283	 -38.69288307
No	 -30.54701295	 -24.43761036	 -38.69288307
Co	 -30.54701295	 -22.40114283	 -40.72935060
No	 -32.58348048	 -24.43761036	 -36.65641554
No	 -32.58348048	 -22.40114283	 -34.61994801
No	 -30.54701295	 -24.43761036	 -34.61994801
No	 -30.54701295	 -22.40114283	 -36.65641554
No	 -32.58348048	 -24.43761036	 -32.58348048
No	 -32.58348048	 -22.40114283	 -30.54701295
No	 -30.54701295	 -24.43761036	 -30.54701295
No	 -30.54701295	 -22.40114283	 -32.58348048
No	 -32.58348048	 -24.43761036	 -28.51054542
No	 -32.58348048	 -22.40114283	 -26.47407789
No	 -30.54701295	 -24.43761036	 -26.47407789
No	 -30.54701295	 -22.40114283	 -28.51054542
No	 -32.58348048	 -24.43761036	 -24.43761036
No	 -32.58348048	 -22.40114283	 -22.40114283
No	 -30.54701295	 -24.43761036	 -22.40114283
No	 -30.54701295	 -22.40114283	 -24.43761036
No	 -32.58348048	 -24.43761036	 -20.36467530
No	 -32.58348048	 -22.40114283	 -18.32820777
No	 -30.54701295	 -24.43761036	 -18.32820777
No	 -30.54701295	 -22.40114283	 -20.36467530
No	 -32.58348048	 -24.43761036	 -16.29174024
No	 -32.58348048	 -22.40114283	 -14.25527271
No	 -30.54701295	 -24.43761036	 -14.25527271
No	 -30.54701295	 -22.40114283	 -16.29174024
No	 -32.58348048	 -24.43761036	 -12.21880518
No	 -32.58348048	 -22.40114283	 -10.18233765
No	 -30.54701295	 -24.43761036	 -10.18233765
No	 -30.54701295	 -22.40114283	 -12.21880518
No	 -32.58348048	 -24.43761036	 -8.14587012
No	 -30.54701295	 -24.43761036	 -6.10940259
No	 -30.54701295	 -22.40114283	 -8.14587012
No	 -30.54701295	 -24.43761036	 6.10940259
No	 -32.58348048	 -24.43761036	 8.14587012
No	 -32.58348048	 -22.40114283	 10.18233765
No	 -30.54701295	 -24.43761036	 10.18233765
No	 -30.54701295	 -22.40114283	 8.14587012
No	 -32.58348048	 -24.43761036	 12.21880518
No	 -32.58348048	 -22.40114283	 14.25527271
No	 -30.54701295	 -24.43761036	 14.25527271
No	 -30.54701295	 -22.40114283	 12.21880518
No	 -32.58348048	 -24.43761036	 16.29174024
No	 -32.58348048	 -22.40114283	 18.32820777
No	 -30.54701295	 -24.43761036	 18.32820777
No	 -30.54701295	 -22.40114283	 16.29174024
No	 -32.58348048	 -24.43761036	 20.36467530
No	 -32.58348048	 -22.40114283	 22.40114283
No	 -30.54701295	 -24.43761036	 22.40114283
No	 -30.54701295	 -22.40114283	 20.36467530
No	 -32.58348048	 -24.43761036	 24.43761036
No	 -32.58348048	 -22.40114283	 26.47407789
No	 -30.54701295	 -24.43761036	 26.47407789
No	 -30.54701295	 -22.40114283	 24.43761036
No	 -32.58348048	 -24.43761036	 28.51054542
No	 -32.58348048	 -22.40114283	 30.54701295
No	 -30.54701295	 -24.43761036	 30.54701295
No	 -30.54701295	 -22.40114283	 28.51054542
No	 -32.58348048	 -24.43761036	 32.58348048
No	 -32.58348048	 -22.40114283	 34.61994801
No	 -30.54701295	 -24.43761036	 34.61994801
No	 -30.54701295	 -22.40114283	 32.58348048
No	 -32.58348048	 -24.43761036	 36.65641554
No	 -32.58348048	 -22.40114283	 38.69288307
No	 -30.54701295	 -24.43761036	 38.69288307
No	 -30.54701295	 -22.40114283	 36.65641554
Co	 -32.58348048	 -20.36467530	 -40.72935060
No	 -32.58348048	 -18.32820777	 -38.69288307
No	 -30.54701295	 -20.36467530	 -38.69288307
Co	 -30.54701295	 -18.32820777	 -40.72935060
No	 -32.58348048	 -20.36467530	 -36.65641554
No	 -32.58348048	 -18.32820777	 -34.61994801
No	 -30.54701295	 -20.36467530	 -34.61994801
No	 -30.54701295	 -18.32820777	 -36.65641554
No	 -32.58348048	 -20.36467530	 -32.58348048
No	 -32.58348048	 -18.32820777	 -30.54701295
No	 -30.54701295	 -20.36467530	 -30.54701295
No	 -30.54701295	 -18.32820777	 -32.58348048
No	 -32.58348048	 -20.36467530	 -28.51054542
No	 -32.58348048	 -18.32820777	 -26.47407789
No	 -30.54701295	 -20.36467530	 -26.47407789
No	 -30.54701295	 -18.32820777	 -28.51054542
No	 -32.58348048	 -20.36467530	 -24.43761036
No	 -32.58348048	 -18.32820777	 -22.40114283
No	 -30.54701295	 -20.36467530	 -22.40114283
No	 -30.54701295	 -18.32820777	 -24.43761036
No	 -32.58348048	 -20.36467530	 -20.36467530
No	 -32.58348048	 -18.32820777	 -18.32820777
No	 -30.54701295	 -20.36467530	 -18.32820777
No	 -30.54701295	 -18.32820777	 -20.36467530
No	 -32.58348048	 -20.36467530	 -16.29174024
No	 -32.58348048	 -18.32820777	 -14.25527271
No	 -30.54701295	 -20.36467530	 -14.25527271
No	 -30.54701295	 -18.32820777	 -16.29174024
No	 -32.58348048	 -20.36467530	 -12.21880518
No	 -30.54701295	 -20.36467530	 -10.18233765
No	 -30.54701295	 -18.32820777	 -12.21880518
No	 -30.54701295	 -20.36467530	 10.18233765
No	 -32.58348048	 -20.36467530	 12.21880518
No	 -32.58348048	 -18.32820777	 14.25527271
No	 -30.54701295	 -20.36467530	 14.25527271
No	 -30.54701295	 -18.32820777	 12.21880518
No	 -32.58348048	 -20.36467530	 16.29174024
No	 -32.58348048	 -18.32820777	 18.32820777
No	 -30.54701295	 -20.36467530	 18.32820777
No	 -30.54701295	 -18.32820777	 16.29174024
No	 -32.58348048	 -20.36467530	 20.36467530
No	 -32.58348048	 -18.32820777	 22.40114283
No	 -30.54701295	 -20.36467530	 22.40114283
No	 -30.54701295	 -18.32820777	 20.36467530
No	 -32.58348048	 -20.36467530	 24.43761036
No	 -32.58348048	 -18.32820777	 26.47407789
No	 -30.54701295	 -20.36467530	 26.47407789
No	 -30.54701295	 -18.32820777	 24.43761036
No	 -32.58348048	 -20.36467530	 28.51054542
No	 -32.58348048	 -18.32820777	 30.54701295
No	 -30.54701295	 -20.36467530	 30.54701295
No	 -30.54701295	 -18.32820777	 28.51054542
No	 -32.58348048	 -20.36467530	 32.58348048
No	 -32.58348048	 -18.32820777	 34.61994801
No	 -30.54701295	 -20.36467530	 34.61994801
No	 -30.54701295	 -18.32820777	 32.58348048
No	 -32.58348048	 -20.36467530	 36.65641554
No	 -32.58348048	 -18.32820777	 38.69288307
No	 -30.54701295	 -20.36467530	 38.69288307
No	 -30.54701295	 -18.32820777	 36.65641554
Co	 -32.58348048	 -16.29174024	 -40.72935060
No	 -32.58348048	 -14.25527271	 -38.69288307
No	 -30.54701295	 -16.29174024	 -38.69288307
Co	 -30.54701295	 -14.25527271	 -40.72935060
No	 -32.58348048	 -16.29174024	 -36.65641554
No	 -32.58348048	 -14.25527271	 -34.61994801
No	 -30.54701295	 -16.29174024	 -34.61994801
No	 -30.54701295	 -14.25527271	 -36.65641554
No	 -32.58348048	 -16.29174024	 -32.58348048
No	 -32.58348048	 -14.25527271	 -30.54701295
No	 -30.54701295	 -16.29174024	 -30.54701295
No	 -30.54701295	 -14.25527271	 -32.58348048
No	 -32.58348048	 -16.29174024	 -28.51054542
No	 -32.58348048	 -14.25527271	 -26.47407789
No	 -30.54701295	 -16.29174024	 -26.47407789
No	 -30.54701295	 -14.25527271	 -28.51054542
No	 -32.58348048	 -16.29174024	 -24.43761036
No	 -32.58348048	 -14.25527271	 -22.40114283
No	 -30.54701295	 -16.29174024	 -22.40114283
No	 -30.54701295	 -14.25527271	 -24.43761036
No	 -32.58348048	 -16.29174024	 -20.36467530
No	 -32.58348048	 -14.25527271	 -18.32820777
No	 -30.54701295	 -16.29174024	 -18.32820777
No	 -30.54701295	 -14.25527271	 -20.36467530
No	 -32.58348048	 -16.29174024	 -16.29174024
No	 -30.54701295	 -16.29174024	 -14.25527271
No	 -30.54701295	 -14.25527271	 -16.29174024
No	 -30.54701295	 -16.29174024	 14.25527271
No	 -32.58348048	 -16.29174024	 16.29174024
No	 -32.58348048	 -14.25527271	 18.32820777
No	 -30.54701295	 -16.29174024	 18.32820777
No	 -30.54701295	 -14.25527271	 16.29174024
No	 -32.58348048	 -16.29174024	 20.36467530
No	 -32.58348048	 -14.25527271	 22.40114283
No	 -30.54701295	 -16.29174024	 22.40114283
No	 -30.54701295	 -14.25527271	 20.36467530
No	 -32.58348048	 -16.29174024	 24.43761036
No	 -32.58348048	 -14.25527271	 26.47407789
No	 -30.54701295	 -16.29174024	 26.47407789
No	 -30.54701295	 -14.25527271	 24.43761036
No	 -32.58348048	 -16.29174024	 28.51054542
No	 -32.58348048	 -14.25527271	 30.54701295
No	 -30.54701295	 -16.29174024	 30.54701295
No	 -30.54701295	 -14.25527271	 28.51054542
No	 -32.58348048	 -16.29174024	 32.58348048
No	 -32.58348048	 -14.25527271	 34.61994801
No	 -30.54701295	 -16.29174024	 34.61994801
No	 -30.54701295	 -14.25527271	 32.58348048
No	 -32.58348048	 -16.29174024	 36.65641554
No	 -32.58348048	 -14.25527271	 38.69288307
No	 -30.54701295	 -16.29174024	 38.69288307
No	 -30.54701295	 -14.25527271	 36.65641554
Co	 -32.58348048	 -12.21880518	 -40.72935060
No	 -32.58348048	 -10.18233765	 -38.69288307
No	 -30.54701295	 -12.21880518	 -38.69288307
Co	 -30.54701295	 -10.18233765	 -40.72935060
No	 -32.58348048	 -12.21880518	 -36.65641554
No	 -32.58348048	 -10.18233765	 -34.61994801
No	 -30.54701295	 -12.21880518	 -34.61994801
No	 -30.54701295	 -10.18233765	 -36.65641554
No	 -32.58348048	 -12.21880518	 -32.58348048
No	 -32.58348048	 -10.18233765	 -30.54701295
No	 -30.54701295	 -12.21880518	 -30.54701295
No	 -30.54701295	 -10.18233765	 -32.58348048
No	 -32.58348048	 -12.21880518	 -28.51054542
No	 -32.58348048	 -10.18233765	 -26.47407789
No	 -30.54701295	 -12.21880518	 -26.47407789
No	 -30.54701295	 -10.18233765	 -28.51054542
No	 -32.58348048	 -12.21880518	 -24.43761036
No	 -32.58348048	 -10.18233765	 -22.40114283
No	 -30.54701295	 -12.21880518	 -22.40114283
No	 -30.54701295	 -10.18233765	 -24.43761036
No	 -32.58348048	 -12.21880518	 -20.36467530
No	 -30.54701295	 -12.21880518	 -18.32820777
No	 -30.54701295	 -10.18233765	 -20.36467530
No	 -30.54701295	 -12.21880518	 18.32820777
No	 -32.58348048	 -12.21880518	 20.36467530
No	 -32.58348048	 -10.18233765	 22.40114283
No	 -30.54701295	 -12.21880518	 22.40114283
No	 -30.54701295	 -10.18233765	 20.36467530
No	 -32.58348048	 -12.21880518	 24.43761036
No	 -32.58348048	 -10.18233765	 26.47407789
No	 -30.54701295	 -12.21880518	 26.47407789
No	 -30.54701295	 -10.18233765	 24.43761036
No	 -32.58348048	 -12.21880518	 28.51054542
No	 -32.58348048	 -10.18233765	 30.54701295
No	 -30.54701295	 -12.21880518	 30.54701295
No	 -30.54701295	 -10.18233765	 28.51054542
No	 -32.58348048	 -12.21880518	 32.58348048
No	 -32.58348048	 -10.18233765	 34.61994801
No	 -30.54701295	 -12.21880518	 34.61994801
No	 -30.54701295	 -10.18233765	 32.58348048
No	 -32.58348048	 -12.21880518	 36.65641554
No	 -32.58348048	 -10.18233765	 38.69288307
No	 -30.54701295	 -12.21880518	 38.69288307
No	 -30.54701295	 -10.18233765	 36.65641554
Co	 -32.58348048	 -8.14587012	 -40.72935060
No	 -32.58348048	 -6.10940259	 -38.69288307
No	 -30.54701295	 -8.14587012	 -38.69288307
Co	 -30.54701295	 -6.10940259	 -40.72935060
No	 -32.58348048	 -8.14587012	 -36.65641554
No	 -32.58348048	 -6.10940259	 -34.61994801
No	 -30.54701295	 -8.14587012	 -34.61994801
No	 -30.54701295	 -6.10940259	 -36.65641554
No	 -32.58348048	 -8.14587012	 -32.58348048
No	 -32.58348048	 -6.10940259	 -30.54701295
No	 -30.54701295	 -8.14587012	 -30.54701295
No	 -30.54701295	 -6.10940259	 -32.58348048
No	 -32.58348048	 -8.14587012	 -28.51054542
No	 -32.58348048	 -6.10940259	 -26.47407789
No	 -30.54701295	 -8.14587012	 -26.47407789
No	 -30.54701295	 -6.10940259	 -28.51054542
No	 -32.58348048	 -8.14587012	 -24.43761036
No	 -30.54701295	 -8.14587012	 -22.40114283
No	 -30.54701295	 -6.10940259	 -24.43761036
No	 -30.54701295	 -8.14587012	 22.40114283
No	 -32.58348048	 -8.14587012	 24.43761036
No	 -32.58348048	 -6.10940259	 26.47407789
No	 -30.54701295	 -8.14587012	 26.47407789
No	 -30.54701295	 -6.10940259	 24.43761036
No	 -32.58348048	 -8.14587012	 28.51054542
No	 -32.58348048	 -6.10940259	 30.54701295
No	 -30.54701295	 -8.14587012	 30.54701295
No	 -30.54701295	 -6.10940259	 28.51054542
No	 -32.58348048	 -8.14587012	 32.58348048
No	 -32.58348048	 -6.10940259	 34.61994801
No	 -30.54701295	 -8.14587012	 34.61994801
No	 -30.54701295	 -6.10940259	 32.58348048
No	 -32.58348048	 -8.14587012	 36.65641554
No	 -32.58348048	 -6.10940259	 38.69288307
No	 -30.54701295	 -8.14587012	 38.69288307
No	 -30.54701295	 -6.10940259	 36.65641554
Co	 -32.58348048	 -4.07293506	 -40.72935060
No	 -32.58348048	 -4.07293506	 -36.65641554
No	 -32.58348048	 -2.03646753	 -34.61994801
No	 -30.54701295	 -4.07293506	 -34.61994801
No	 -32.58348048	 -4.07293506	 -32.58348048
No	 -32.58348048	 -2.03646753	 -30.54701295
No	 -30.54701295	 -4.07293506	 -30.54701295
No	 -30.54701295	 -2.03646753	 -32.58348048
No	 -32.58348048	 -4.07293506	 -28.51054542
No	 -30.54701295	 -4.07293506	 -26.47407789
No	 -30.54701295	 -2.03646753	 -28.51054542
No	 -30.54701295	 -4.07293506	 26.47407789
No	 -32.58348048	 -4.07293506	 28.51054542
No	 -32.58348048	 -2.03646753	 30.54701295
No	 -30.54701295	 -4.07293506	 30.54701295
No	 -30.54701295	 -2.03646753	 28.51054542
No	 -32.58348048	 -4.07293506	 32.58348048
No	 -32.58348048	 -2.03646753	 34.61994801
No	 -30.54701295	 -4.07293506	 34.61994801
No	 -30.54701295	 -2.03646753	 32.58348048
No	 -32.58348048	 -4.07293506	 36.65641554
No	 -32.58348048	 2.03646753	 -34.61994801
No	 -32.58348048	 -0.00000000	 -32.58348048
No	 -32.58348048	 2.03646753	 -30.54701295
No	 -30.54701295	 -0.00000000	 -30.54701295
No	 -30.54701295	 2.03646753	 -32.58348048
No	 -30.54701295	 2.03646753	 -28.51054542
No	 -32.58348048	 2.03646753	 30.54701295
No	 -30.54701295	 -0.00000000	 30.54701295
No	 -30.54701295	 2.03646753	 28.51054542
No	 -32.58348048	 -0.00000000	 32.58348048
No	 -32.58348048	 2.03646753	 34.61994801
No	 -30.54701295	 2.03646753	 32.58348048
Co	 -32.58348048	 4.07293506	 -40.72935060
No	 -32.58348048	 6.10940259	 -38.69288307
Co	 -30.54701295	 6.10940259	 -40.72935060
No	 -32.58348048	 4.07293506	 -36.65641554
No	 -32.58348048	 6.10940259	 -34.61994801
No	 -30.54701295	 4.07293506	 -34.61994801
No	 -30.54701295	 6.10940259	 -36.65641554
No	 -32.58348048	 4.07293506	 -32.58348048
No	 -32.58348048	 6.10940259	 -30.54701295
No	 -30.54701295	 4.07293506	 -30.54701295
No	 -30.54701295	 6.10940259	 -32.58348048
No	 -32.58348048	 4.07293506	 -28.51054542
No	 -32.58348048	 6.10940259	 -26.47407789
No	 -30.54701295	 4.07293506	 -26.47407789
No	 -30.54701295	 6.10940259	 -28.51054542
No	 -30.54701295	 6.10940259	 -24.43761036
No	 -32.58348048	 6.10940259	 26.47407789
No	 -30.54701295	 4.07293506	 26.47407789
No	 -30.54701295	 6.10940259	 24.43761036
No	 -32.58348048	 4.07293506	 28.51054542
No	 -32.58348048	 6.10940259	 30.54701295
No	 -30.54701295	 4.07293506	 30.54701295
No	 -30.54701295	 6.10940259	 28.51054542
No	 -32.58348048	 4.07293506	 32.58348048
No	 -32.58348048	 6.10940259	 34.61994801
No	 -30.54701295	 4.07293506	 34.61994801
No	 -30.54701295	 6.10940259	 32.58348048
No	 -32.58348048	 4.07293506	 36.65641554
No	 -32.58348048	 6.10940259	 38.69288307
No	 -30.54701295	 6.10940259	 36.65641554
Co	 -32.58348048	 8.14587012	 -40.72935060
No	 -32.58348048	 10.18233765	 -38.69288307
No	 -30.54701295	 8.14587012	 -38.69288307
Co	 -30.54701295	 10.18233765	 -40.72935060
No	 -32.58348048	 8.14587012	 -36.65641554
No	 -32.58348048	 10.18233765	 -34.61994801
No	 -30.54701295	 8.14587012	 -34.61994801
No	 -30.54701295	 10.18233765	 -36.65641554
No	 -32.58348048	 8.14587012	 -32.58348048
No	 -32.58348048	 10.18233765	 -30.54701295
No	 -30.54701295	 8.14587012	 -30.54701295
No	 -30.54701295	 10.18233765	 -32.58348048
No	 -32.58348048	 8.14587012	 -28.51054542
No	 -32.58348048	 10.18233765	 -26.47407789
No	 -30.54701295	 8.14587012	 -26.47407789
No	 -30.54701295	 10.18233765	 -28.51054542
No	 -32.58348048	 8.14587012	 -24.43761036
No	 -32.58348048	 10.18233765	 -22.40114283
No	 -30.54701295	 8.14587012	 -22.40114283
No	 -30.54701295	 10.18233765	 -24.43761036
No	 -30.54701295	 10.18233765	 -20.36467530
No	 -32.58348048	 10.18233765	 22.40114283
No	 -30.54701295	 8.14587012	 22.40114283
No	 -30.54701295	 10.18233765	 20.36467530
No	 -32.58348048	 8.14587012	 24.43761036
No	 -32.58348048	 10.18233765	 26.47407789
No	 -30.54701295	 8.14587012	 26.47407789
No	 -30.54701295	 10.18233765	 24.43761036
No	 -32.58348048	 8.14587012	 28.51054542
No	 -32.58348048	 10.18233765	 30.54701295
No	 -30.54701295	 8.14587012	 30.54701295
No	 -30.54701295	 10.18233765	 28.51054542
No	 -32.58348048	 8.14587012	 32.58348048
No	 -32.58348048	 10.18233765	 34.61994801
No	 -30.54701295	 8.14587012	 34.61994801
No	 -30.54701295	 10.18233765	 32.58348048
No	 -32.58348048	 8.14587012	 36.65641554
No	 -32.58348048	 10.18233765	 38.69288307
No	 -30.54701295	 8.14587012	 38.69288307
No	 -30.54701295	 10.18233765	 36.65641554
Co	 -32.58348048	 12.21880518	 -40.72935060
No	 -32.58348048	 14.25527271	 -38.69288307
No	 -30.54701295	 12.21880518	 -38.69288307
Co	 -30.54701295	 14.25527271	 -40.72935060
No	 -32.58348048	 12.21880518	 -36.65641554
No	 -32.58348048	 14.25527271	 -34.61994801
No	 -30.54701295	 12.21880518	 -34.61994801
No	 -30.54701295	 14.25527271	 -36.65641554
No	 -32.58348048	 12.21880518	 -32.58348048
No	 -32.58348048	 14.25527271	 -30.54701295
No	 -30.54701295	 12.21880518	 -30.54701295
No	 -30.54701295	 14.25527271	 -32.58348048
No	 -32.58348048	 12.21880518	 -28.51054542
No	 -32.58348048	 14.25527271	 -26.47407789
No	 -30.54701295	 12.21880518	 -26.47407789
No	 -30.54701295	 14.25527271	 -28.51054542
No	 -32.58348048	 12.21880518	 -24.43761036
No	 -32.58348048	 14.25527271	 -22.40114283
No	 -30.54701295	 12.21880518	 -22.40114283
No	 -30.54701295	 14.25527271	 -24.43761036
No	 -32.58348048	 12.21880518	 -20.36467530
No	 -32.58348048	 14.25527271	 -18.32820777
No	 -30.54701295	 12.21880518	 -18.32820777
No	 -30.54701295	 14.25527271	 -20.36467530
No	 -30.54701295	 14.25527271	 -16.29174024
No	 -32.58348048	 14.25527271	 18.32820777
No	 -30.54701295	 12.21880518	 18.32820777
No	 -30.54701295	 14.25527271	 16.29174024
No	 -32.58348048	 12.21880518	 20.36467530
No	 -32.58348048	 14.25527271	 22.40114283
No	 -30.54701295	 12.21880518	 22.40114283
No	 -30.54701295	 14.25527271	 20.36467530
No	 -32.58348048	 12.21880518	 24.43761036
No	 -32.58348048	 14.25527271	 26.47407789
No	 -30.54701295	 12.21880518	 26.47407789
No	 -30.54701295	 14.25527271	 24.43761036
No	 -32.58348048	 12.21880518	 28.51054542
No	 -32.58348048	 14.25527271	 30.54701295
No	 -30.54701295	 12.21880518	 30.54701295
No	 -30.54701295	 14.25527271	 28.51054542
No	 -32.58348048	 12.21880518	 32.58348048
No	 -32.58348048	 14.25527271	 34.61994801
No	 -30.54701295	 12.21880518	 34.61994801
No	 -30.54701295	 14.25527271	 32.58348048
No	 -32.58348048	 12.21880518	 36.65641554
No	 -32.58348048	 14.25527271	 38.69288307
No	 -30.54701295	 12.21880518	 38.69288307
No	 -30.54701295	 14.25527271	 36.65641554
Co	 -32.58348048	 16.29174024	 -40.72935060
No	 -32.58348048	 18.32820777	 -38.69288307
No	 -30.54701295	 16.29174024	 -38.69288307
Co	 -30.54701295	 18.32820777	 -40.72935060
No	 -32.58348048	 16.29174024	 -36.65641554
No	 -32.58348048	 18.32820777	 -34.61994801
No	 -30.54701295	 16.29174024	 -34.61994801
No	 -30.54701295	 18.32820777	 -36.65641554
No	 -32.58348048	 16.29174024	 -32.58348048
No	 -32.58348048	 18.32820777	 -30.54701295
No	 -30.54701295	 16.29174024	 -30.54701295
No	 -30.54701295	 18.32820777	 -32.58348048
No	 -32.58348048	 16.29174024	 -28.51054542
No	 -32.58348048	 18.32820777	 -26.47407789
No	 -30.54701295	 16.29174024	 -26.47407789
No	 -30.54701295	 18.32820777	 -28.51054542
No	 -32.58348048	 16.29174024	 -24.43761036
No	 -32.58348048	 18.32820777	 -22.40114283
No	 -30.54701295	 16.29174024	 -22.40114283
No	 -30.54701295	 18.32820777	 -24.43761036
No	 -32.58348048	 16.29174024	 -20.36467530
No	 -32.58348048	 18.32820777	 -18.32820777
No	 -30.54701295	 16.29174024	 -18.32820777
No	 -30.54701295	 18.32820777	 -20.36467530
No	 -32.58348048	 16.29174024	 -16.29174024
No	 -32.58348048	 18.32820777	 -14.25527271
No	 -30.54701295	 16.29174024	 -14.25527271
No	 -30.54701295	 18.32820777	 -16.29174024
No	 -30.54701295	 18.32820777	 -12.21880518
No	 -32.58348048	 18.32820777	 14.25527271
No	 -30.54701295	 16.29174024	 14.25527271
No	 -30.54701295	 18.32820777	 12.21880518
No	 -32.58348048	 16.29174024	 16.29174024
No	 -32.58348048	 18.32820777	 18.32820777
No	 -30.54701295	 16.29174024	 18.32820777
No	 -30.54701295	 18.32820777	 16.29174024
No	 -32.58348048	 16.29174024	 20.36467530
No	 -32.58348048	 18.32820777	 22.40114283
No	 -30.54701295	 16.29174024	 22.40114283
No	 -30.54701295	 18.32820777	 20.36467530
No	 -32.58348048	 16.29174024	 24.43761036
No	 -32.58348048	 18.32820777	 26.47407789
No	 -30.54701295	 16.29174024	 26.47407789
No	 -30.54701295	 18.32820777	 24.43761036
No	 -32.58348048	 16.29174024	 28.51054542
No	 -32.58348048	 18.32820777	 30.54701295
No	 -30.54701295	 16.29174024	 30.54701295
No	 -30.54701295	 18.32820777	 28.51054542
No	 -32.58348048	 16.29174024	 32.58348048
No	 -32.58348048	 18.32820777	 34.61994801
No	 -30.54701295	 16.29174024	 34.61994801
No	 -30.54701295	 18.32820777	 32.58348048
No	 -32.58348048	 16.29174024	 36.65641554
No	 -32.58348048	 18.32820777	 38.69288307
No	 -30.54701295	 16.29174024	 38.69288307
No	 -30.54701295	 18.32820777	 36.65641554
Co	 -32.58348048	 20.36467530	 -40.72935060
No	 -32.58348048	 22.40114283	 -38.69288307
No	 -30.54701295	 20.36467530	 -38.69288307
Co	 -30.54701295	 22.40114283	 -40.72935060
No	 -32.58348048	 20.36467530	 -36.65641554
No	 -32.58348048	 22.40114283	 -34.61994801
No	 -30.54701295	 20.36467530	 -34.61994801
No	 -30.54701295	 22.40114283	 -36.65641554
No	 -32.58348048	 20.36467530	 -32.58348048
No	 -32.58348048	 22.40114283	 -30.54701295
No	 -30.54701295	 20.36467530	 -30.54701295
No	 -30.54701295	 22.40114283	 -32.58348048
No	 -32.58348048	 20.36467530	 -28.51054542
No	 -32.58348048	 22.40114283	 -26.47407789
No	 -30.54701295	 20.36467530	 -26.47407789
No	 -30.54701295	 22.40114283	 -28.51054542
No	 -32.58348048	 20.36467530	 -24.43761036
No	 -32.58348048	 22.40114283	 -22.40114283
No	 -30.54701295	 20.36467530	 -22.40114283
No	 -30.54701295	 22.40114283	 -24.43761036
No	 -32.58348048	 20.36467530	 -20.36467530
No	 -32.58348048	 22.40114283	 -18.32820777
No	 -30.54701295	 20.36467530	 -18.32820777
No	 -30.54701295	 22.40114283	 -20.36467530
No	 -32.58348048	 20.36467530	 -16.29174024
No	 -32.58348048	 22.40114283	 -14.25527271
No	 -30.54701295	 20.36467530	 -14.25527271
No	 -30.54701295	 22.40114283	 -16.29174024
No	 -32.58348048	 20.36467530	 -12.21880518
No	 -32.58348048	 22.40114283	 -10.18233765
No	 -30.54701295	 20.36467530	 -10.18233765
No	 -30.54701295	 22.40114283	 -12.21880518
No	 -30.54701295	 22.40114283	 -8.14587012
No	 -32.58348048	 22.40114283	 10.18233765
No	 -30.54701295	 20.36467530	 10.18233765
No	 -30.54701295	 22.40114283	 8.14587012
No	 -32.58348048	 20.36467530	 12.21880518
No	 -32.58348048	 22.40114283	 14.25527271
No	 -30.54701295	 20.36467530	 14.25527271
No	 -30.54701295	 22.40114283	 12.21880518
No	 -32.58348048	 20.36467530	 16.29174024
No	 -32.58348048	 22.40114283	 18.32820777
No	 -30.54701295	 20.36467530	 18.32820777
No	 -30.54701295	 22.40114283	 16.29174024
No	 -32.58348048	 20.36467530	 20.36467530
No	 -32.58348048	 22.40114283	 22.40114283
No	 -30.54701295	 20.36467530	 22.40114283
No	 -30.54701295	 22.40114283	 20.36467530
No	 -32.58348048	 20.36467530	 24.43761036
No	 -32.58348048	 22.40114283	 26.47407789
No	 -30.54701295	 20.36467530	 26.47407789
No	 -30.54701295	 22.40114283	 24.43761036
No	 -32.58348048	 20.36467530	 28.51054542
No	 -32.58348048	 22.40114283	 30.54701295
No	 -30.54701295	 20.36467530	 30.54701295
No	 -30.54701295	 22.40114283	 28.51054542
No	 -32.58348048	 20.36467530	 32.58348048
No	 -32.58348048	 22.40114283	 34.61994801
No	 -30.54701295	 20.36467530	 34.61994801
No	 -30.54701295	 22.40114283	 32.58348048
No	 -32.58348048	 20.36467530	 36.65641554
No	 -32.58348048	 22.40114283	 38.69288307
No	 -30.54701295	 20.36467530	 38.69288307
No	 -30.54701295	 22.40114283	 36.65641554
Co	 -32.58348048	 24.43761036	 -40.72935060
No	 -32.58348048	 26.47407789	 -38.69288307
No	 -30.54701295	 24.43761036	 -38.69288307
Co	 -30.54701295	 26.47407789	 -40.72935060
No	 -32.58348048	 24.43761036	 -36.65641554
No	 -32.58348048	 26.47407789	 -34.61994801
No	 -30.54701295	 24.43761036	 -34.61994801
No	 -30.54701295	 26.47407789	 -36.65641554
No	 -32.58348048	 24.43761036	 -32.58348048
No	 -32.58348048	 26.47407789	 -30.54701295
No	 -30.54701295	 24.43761036	 -30.54701295
No	 -30.54701295	 26.47407789	 -32.58348048
No	 -32.58348048	 24.43761036	 -28.51054542
No	 -32.58348048	 26.47407789	 -26.47407789
No	 -30.54701295	 24.43761036	 -26.47407789
No	 -30.54701295	 26.47407789	 -28.51054542
No	 -32.58348048	 24.43761036	 -24.43761036
No	 -32.58348048	 26.47407789	 -22.40114283
No	 -30.54701295	 24.43761036	 -22.40114283
No	 -30.54701295	 26.47407789	 -24.43761036
No	 -32.58348048	 24.43761036	 -20.36467530
No	 -32.58348048	 26.47407789	 -18.32820777
No	 -30.54701295	 24.43761036	 -18.32820777
No	 -30.54701295	 26.47407789	 -20.36467530
No	 -32.58348048	 24.43761036	 -16.29174024
No	 -32.58348048	 26.47407789	 -14.25527271
No	 -30.54701295	 24.43761036	 -14.25527271
No	 -30.54701295	 26.47407789	 -16.29174024
No	 -32.58348048	 24.43761036	 -12.21880518
No	 -32.58348048	 26.47407789	 -10.18233765
No	 -30.54701295	 24.43761036	 -10.18233765
No	 -30.54701295	 26.47407789	 -12.21880518
No	 -32.58348048	 24.43761036	 -8.14587012
No	 -32.58348048	 26.47407789	 -6.10940259
No	 -30.54701295	 24.43761036	 -6.10940259
No	 -30.54701295	 26.47407789	 -8.14587012
No	 -30.54701295	 26.47407789	 -4.07293506
No	 -32.58348048	 26.47407789	 6.10940259
No	 -30.54701295	 24.43761036	 6.10940259
No	 -30.54701295	 26.47407789	 4.07293506
No	 -32.58348048	 24.43761036	 8.14587012
No	 -32.58348048	 26.47407789	 10.18233765
No	 -30.54701295	 24.43761036	 10.18233765
No	 -30.54701295	 26.47407789	 8.14587012
No	 -32.58348048	 24.43761036	 12.21880518
No	 -32.58348048	 26.47407789	 14.25527271
No	 -30.54701295	 24.43761036	 14.25527271
No	 -30.54701295	 26.47407789	 12.21880518
No	 -32.58348048	 24.43761036	 16.29174024
No	 -32.58348048	 26.47407789	 18.32820777
No	 -30.54701295	 24.43761036	 18.32820777
No	 -30.54701295	 26.47407789	 16.29174024
No	 -32.58348048	 24.43761036	 20.36467530
No	 -32.58348048	 26.47407789	 22.40114283
No	 -30.54701295	 24.43761036	 22.40114283
No	 -30.54701295	 26.47407789	 20.36467530
No	 -32.58348048	 24.43761036	 24.43761036
No	 -32.58348048	 26.47407789	 26.47407789
No	 -30.54701295	 24.43761036	 26.47407789
No	 -30.54701295	 26.47407789	 24.43761036
No	 -32.58348048	 24.43761036	 28.51054542
No	 -32.58348048	 26.47407789	 30.54701295
No	 -30.54701295	 24.43761036	 30.54701295
No	 -30.54701295	 26.47407789	 28.51054542
No	 -32.58348048	 24.43761036	 32.58348048
No	 -32.58348048	 26.47407789	 34.61994801
No	 -30.54701295	 24.43761036	 34.61994801
No	 -30.54701295	 26.47407789	 32.58348048
No	 -32.58348048	 24.43761036	 36.65641554
No	 -32.58348048	 26.47407789	 38.69288307
No	 -30.54701295	 24.43761036	 38.69288307
No	 -30.54701295	 26.47407789	 36.65641554
Co	 -32.58348048	 28.51054542	 -40.72935060
No	 -32.58348048	 30.54701295	 -38.69288307
No	 -30.54701295	 28.51054542	 -38.69288307
Co	 -30.54701295	 30.54701295	 -40.72935060
No	 -32.58348048	 28.51054542	 -36.65641554
No	 -32.58348048	 30.54701295	 -34.61994801
No	 -30.54701295	 28.51054542	 -34.61994801
No	 -30.54701295	 30.54701295	 -36.65641554
No	 -32.58348048	 28.51054542	 -32.58348048
No	 -32.58348048	 30.54701295	 -30.54701295
No	 -30.54701295	 28.51054542	 -30.54701295
No	 -30.54701295	 30.54701295	 -32.58348048
No	 -32.58348048	 28.51054542	 -28.51054542
No	 -32.58348048	 30.54701295	 -26.47407789
No	 -30.54701295	 28.51054542	 -26.47407789
No	 -30.54701295	 30.54701295	 -28.51054542
No	 -32.58348048	 28.51054542	 -24.43761036
No	 -32.58348048	 30.54701295	 -22.40114283
No	 -30.54701295	 28.51054542	 -22.40114283
No	 -30.54701295	 30.54701295	 -24.43761036
No	 -32.58348048	 28.51054542	 -20.36467530
No	 -32.58348048	 30.54701295	 -18.32820777
No	 -30.54701295	 28.51054542	 -18.32820777
No	 -30.54701295	 30.54701295	 -20.36467530
No	 -32.58348048	 28.51054542	 -16.29174024
No	 -32.58348048	 30.54701295	 -14.25527271
No	 -30.54701295	 28.51054542	 -14.25527271
No	 -30.54701295	 30.54701295	 -16.29174024
No	 -32.58348048	 28.51054542	 -12.21880518
No	 -32.58348048	 30.54701295	 -10.18233765
No	 -30.54701295	 28.51054542	 -10.18233765
No	 -30.54701295	 30.54701295	 -12.21880518
No	 -32.58348048	 28.51054542	 -8.14587012
No	 -32.58348048	 30.54701295	 -6.10940259
No	 -30.54701295	 28.51054542	 -6.10940259
No	 -30.54701295	 30.54701295	 -8.14587012
No	 -32.58348048	 28.51054542	 -4.07293506
No	 -32.58348048	 30.54701295	 -2.03646753
No	 -30.54701295	 28.51054542	 -2.03646753
No	 -30.54701295	 30.54701295	 -4.07293506
No	 -32.58348048	 30.54701295	 2.03646753
No	 -30.54701295	 28.51054542	 2.03646753
No	 -30.54701295	 30.54701295	 -0.00000000
No	 -32.58348048	 28.51054542	 4.07293506
No	 -32.58348048	 30.54701295	 6.10940259
No	 -30.54701295	 28.51054542	 6.10940259
No	 -30.54701295	 30.54701295	 4.07293506
No	 -32.58348048	 28.51054542	 8.14587012
No	 -32.58348048	 30.54701295	 10.18233765
No	 -30.54701295	 28.51054542	 10.18233765
No	 -30.54701295	 30.54701295	 8.14587012
No	 -32.58348048	 28.51054542	 12.21880518
No	 -32.58348048	 30.54701295	 14.25527271
No	 -30.54701295	 28.51054542	 14.25527271
No	 -30.54701295	 30.54701295	 12.21880518
No	 -32.58348048	 28.51054542	 16.29174024
No	 -32.58348048	 30.54701295	 18.32820777
No	 -30.54701295	 28.51054542	 18.32820777
No	 -30.54701295	 30.54701295	 16.29174024
No	 -32.58348048	 28.51054542	 20.36467530
No	 -32.58348048	 30.54701295	 22.40114283
No	 -30.54701295	 28.51054542	 22.40114283
No	 -30.54701295	 30.54701295	 20.36467530
No	 -32.58348048	 28.51054542	 24.43761036
No	 -32.58348048	 30.54701295	 26.47407789
No	 -30.54701295	 28.51054542	 26.47407789
No	 -30.54701295	 30.54701295	 24.43761036
No	 -32.58348048	 28.51054542	 28.51054542
No	 -32.58348048	 30.54701295	 30.54701295
No	 -30.54701295	 28.51054542	 30.54701295
No	 -30.54701295	 30.54701295	 28.51054542
No	 -32.58348048	 28.51054542	 32.58348048
No	 -32.58348048	 30.54701295	 34.61994801
No	 -30.54701295	 28.51054542	 34.61994801
No	 -30.54701295	 30.54701295	 32.58348048
No	 -32.58348048	 28.51054542	 36.65641554
No	 -32.58348048	 30.54701295	 38.69288307
No	 -30.54701295	 28.51054542	 38.69288307
No	 -30.54701295	 30.54701295	 36.65641554
Co	 -32.58348048	 32.58348048	 -40.72935060
No	 -32.58348048	 34.61994801	 -38.69288307
No	 -30.54701295	 32.58348048	 -38.69288307
Co	 -30.54701295	 34.61994801	 -40.72935060
No	 -32.58348048	 32.58348048	 -36.65641554
No	 -32.58348048	 34.61994801	 -34.61994801
No	 -30.54701295	 32.58348048	 -34.61994801
No	 -30.54701295	 34.61994801	 -36.65641554
No	 -32.58348048	 32.58348048	 -32.58348048
No	 -32.58348048	 34.61994801	 -30.54701295
No	 -30.54701295	 32.58348048	 -30.54701295
No	 -30.54701295	 34.61994801	 -32.58348048
No	 -32.58348048	 32.58348048	 -28.51054542
No	 -32.58348048	 34.61994801	 -26.47407789
No	 -30.54701295	 32.58348048	 -26.47407789
No	 -30.54701295	 34.61994801	 -28.51054542
No	 -32.58348048	 32.58348048	 -24.43761036
No	 -32.58348048	 34.61994801	 -22.40114283
No	 -30.54701295	 32.58348048	 -22.40114283
No	 -30.54701295	 34.61994801	 -24.43761036
No	 -32.58348048	 32.58348048	 -20.36467530
No	 -32.58348048	 34.61994801	 -18.32820777
No	 -30.54701295	 32.58348048	 -18.32820777
No	 -30.54701295	 34.61994801	 -20.36467530
No	 -32.58348048	 32.58348048	 -16.29174024
No	 -32.58348048	 34.61994801	 -14.25527271
No	 -30.54701295	 32.58348048	 -14.25527271
No	 -30.54701295	 34.61994801	 -16.29174024
No	 -32.58348048	 32.58348048	 -12.21880518
No	 -32.58348048	 34.61994801	 -10.18233765
No	 -30.54701295	 32.58348048	 -10.18233765
No	 -30.54701295	 34.61994801	 -12.21880518
No	 -32.58348048	 32.58348048	 -8.14587012
No	 -32.58348048	 34.61994801	 -6.10940259
No	 -30.54701295	 32.58348048	 -6.10940259
No	 -30.54701295	 34.61994801	 -8.14587012
No	 -32.58348048	 32.58348048	 -4.07293506
No	 -32.58348048	 34.61994801	 -2.03646753
No	 -30.54701295	 32.58348048	 -2.03646753
No	 -30.54701295	 34.61994801	 -4.07293506
No	 -32.58348048	 32.58348048	 -0.00000000
No	 -32.58348048	 34.61994801	 2.03646753
No	 -30.54701295	 32.58348048	 2.03646753
No	 -32.58348048	 32.58348048	 4.07293506
No	 -32.58348048	 34.61994801	 6.10940259
No	 -30.54701295	 32.58348048	 6.10940259
No	 -30.54701295	 34.61994801	 4.07293506
No	 -32.58348048	 32.58348048	 8.14587012
No	 -32.58348048	 34.61994801	 10.18233765
No	 -30.54701295	 32.58348048	 10.18233765
No	 -30.54701295	 34.61994801	 8.14587012
No	 -32.58348048	 32.58348048	 12.21880518
No	 -32.58348048	 34.61994801	 14.25527271
No	 -30.54701295	 32.58348048	 14.25527271
No	 -30.54701295	 34.61994801	 12.21880518
No	 -32.58348048	 32.58348048	 16.29174024
No	 -32.58348048	 34.61994801	 18.32820777
No	 -30.54701295	 32.58348048	 18.32820777
No	 -30.54701295	 34.61994801	 16.29174024
No	 -32.58348048	 32.58348048	 20.36467530
No	 -32.58348048	 34.61994801	 22.40114283
No	 -30.54701295	 32.58348048	 22.40114283
No	 -30.54701295	 34.61994801	 20.36467530
No	 -32.58348048	 32.58348048	 24.43761036
No	 -32.58348048	 34.61994801	 26.47407789
No	 -30.54701295	 32.58348048	 26.47407789
No	 -30.54701295	 34.61994801	 24.43761036
No	 -32.58348048	 32.58348048	 28.51054542
No	 -32.58348048	 34.61994801	 30.54701295
No	 -30.54701295	 32.58348048	 30.54701295
No	 -30.54701295	 34.61994801	 28.51054542
No	 -32.58348048	 32.58348048	 32.58348048
No	 -32.58348048	 34.61994801	 34.61994801
No	 -30.54701295	 32.58348048	 34.61994801
No	 -30.54701295	 34.61994801	 32.58348048
No	 -32.58348048	 32.58348048	 36.65641554
No	 -32.58348048	 34.61994801	 38.69288307
No	 -30.54701295	 32.58348048	 38.69288307
No	 -30.54701295	 34.61994801	 36.65641554
Co	 -32.58348048	 36.65641554	 -40.72935060
No	 -32.58348048	 38.69288307	 -38.69288307
No	 -30.54701295	 36.65641554	 -38.69288307
Co	 -30.54701295	 38.69288307	 -40.72935060
No	 -32.58348048	 36.65641554	 -36.65641554
No	 -32.58348048	 38.69288307	 -34.61994801
No	 -30.54701295	 36.65641554	 -34.61994801
No	 -30.54701295	 38.69288307	 -36.65641554
No	 -32.58348048	 36.65641554	 -32.58348048
No	 -32.58348048	 38.69288307	 -30.54701295
No	 -30.54701295	 36.65641554	 -30.54701295
No	 -30.54701295	 38.69288307	 -32.58348048
No	 -32.58348048	 36.65641554	 -28.51054542
No	 -32.58348048	 38.69288307	 -26.47407789
No	 -30.54701295	 36.65641554	 -26.47407789
No	 -30.54701295	 38.69288307	 -28.51054542
No	 -32.58348048	 36.65641554	 -24.43761036
No	 -32.58348048	 38.69288307	 -22.40114283
No	 -30.54701295	 36.65641554	 -22.40114283
No	 -30.54701295	 38.69288307	 -24.43761036
No	 -32.58348048	 36.65641554	 -20.36467530
No	 -32.58348048	 38.69288307	 -18.32820777
No	 -30.54701295	 36.65641554	 -18.32820777
No	 -30.54701295	 38.69288307	 -20.36467530
No	 -32.58348048	 36.65641554	 -16.29174024
No	 -32.58348048	 38.69288307	 -14.25527271
No	 -30.54701295	 36.65641554	 -14.25527271
No	 -30.54701295	 38.69288307	 -16.29174024
No	 -32.58348048	 36.65641554	 -12.21880518
No	 -32.58348048	 38.69288307	 -10.18233765
No	 -30.54701295	 36.65641554	 -10.18233765
No	 -30.54701295	 38.69288307	 -12.21880518
No	 -32.58348048	 36.65641554	 -8.14587012
No	 -32.58348048	 38.69288307	 -6.10940259
No	 -30.54701295	 36.65641554	 -6.10940259
No	 -30.54701295	 38.69288307	 -8.14587012
No	 -32.58348048	 36.65641554	 -4.07293506
No	 -32.58348048	 36.65641554	 4.07293506
No	 -32.58348048	 38.69288307	 6.10940259
No	 -30.54701295	 36.65641554	 6.10940259
No	 -32.58348048	 36.65641554	 8.14587012
No	 -32.58348048	 38.69288307	 10.18233765
No	 -30.54701295	 36.65641554	 10.18233765
No	 -30.54701295	 38.69288307	 8.14587012
No	 -32.58348048	 36.65641554	 12.21880518
No	 -32.58348048	 38.69288307	 14.25527271
No	 -30.54701295	 36.65641554	 14.25527271
No	 -30.54701295	 38.69288307	 12.21880518
No	 -32.58348048	 36.65641554	 16.29174024
No	 -32.58348048	 38.69288307	 18.32820777
No	 -30.54701295	 36.65641554	 18.32820777
No	 -30.54701295	 38.69288307	 16.29174024
No	 -32.58348048	 36.65641554	 20.36467530
No	 -32.58348048	 38.69288307	 22.40114283
No	 -30.54701295	 36.65641554	 22.40114283
No	 -30.54701295	 38.69288307	 20.36467530
No	 -32.58348048	 36.65641554	 24.43761036
No	 -32.58348048	 38.69288307	 26.47407789
No	 -30.54701295	 36.65641554	 26.47407789
No	 -30.54701295	 38.69288307	 24.43761036
No	 -32.58348048	 36.65641554	 28.51054542
No	 -32.58348048	 38.69288307	 30.54701295
No	 -30.54701295	 36.65641554	 30.54701295
No	 -30.54701295	 38.69288307	 28.51054542
No	 -32.58348048	 36.65641554	 32.58348048
No	 -32.58348048	 38.69288307	 34.61994801
No	 -30.54701295	 36.65641554	 34.61994801
No	 -30.54701295	 38.69288307	 32.58348048
No	 -32.58348048	 36.65641554	 36.65641554
No	 -32.58348048	 38.69288307	 38.69288307
No	 -30.54701295	 36.65641554	 38.69288307
No	 -30.54701295	 38.69288307	 36.65641554
Co	 -28.51054542	 -40.72935060	 -40.72935060
No	 -28.51054542	 -38.69288307	 -38.69288307
Co	 -26.47407789	 -40.72935060	 -38.69288307
Co	 -26.47407789	 -38.69288307	 -40.72935060
Co	 -28.51054542	 -40.72935060	 -36.65641554
No	 -28.51054542	 -38.69288307	 -34.61994801
Co	 -26.47407789	 -40.72935060	 -34.61994801
No	 -26.47407789	 -38.69288307	 -36.65641554
Co	 -28.51054542	 -40.72935060	 -32.58348048
No	 -28.51054542	 -38.69288307	 -30.54701295
Co	 -26.47407789	 -40.72935060	 -30.54701295
No	 -26.47407789	 -38.69288307	 -32.58348048
Co	 -28.51054542	 -40.72935060	 -28.51054542
No	 -28.51054542	 -38.69288307	 -26.47407789
Co	 -26.47407789	 -40.72935060	 -26.47407789
No	 -26.47407789	 -38.69288307	 -28.51054542
Co	 -28.51054542	 -40.72935060	 -24.43761036
No	 -28.51054542	 -38.69288307	 -22.40114283
Co	 -26.47407789	 -40.72935060	 -22.40114283
No	 -26.47407789	 -38.69288307	 -24.43761036
Co	 -28.51054542	 -40.72935060	 -20.36467530
No	 -28.51054542	 -38.69288307	 -18.32820777
Co	 -26.47407789	 -40.72935060	 -18.32820777
No	 -26.47407789	 -38.69288307	 -20.36467530
Co	 -28.51054542	 -40.72935060	 -16.29174024
No	 -28.51054542	 -38.69288307	 -14.25527271
Co	 -26.47407789	 -40.72935060	 -14.25527271
No	 -26.47407789	 -38.69288307	 -16.29174024
Co	 -28.51054542	 -40.72935060	 -12.21880518
No	 -28.51054542	 -38.69288307	 -10.18233765
Co	 -26.47407789	 -40.72935060	 -10.18233765
No	 -26.47407789	 -38.69288307	 -12.21880518
Co	 -28.51054542	 -40.72935060	 -8.14587012
Co	 -28.51054542	 -40.72935060	 8.14587012
No	 -28.51054542	 -38.69288307	 10.18233765
Co	 -26.47407789	 -40.72935060	 10.18233765
Co	 -28.51054542	 -40.72935060	 12.21880518
No	 -28.51054542	 -38.69288307	 14.25527271
Co	 -26.47407789	 -40.72935060	 14.25527271
No	 -26.47407789	 -38.69288307	 12.21880518
Co	 -28.51054542	 -40.72935060	 16.29174024
No	 -28.51054542	 -38.69288307	 18.32820777
Co	 -26.47407789	 -40.72935060	 18.32820777
No	 -26.47407789	 -38.69288307	 16.29174024
Co	 -28.51054542	 -40.72935060	 20.36467530
No	 -28.51054542	 -38.69288307	 22.40114283
Co	 -26.47407789	 -40.72935060	 22.40114283
No	 -26.47407789	 -38.69288307	 20.36467530
Co	 -28.51054542	 -40.72935060	 24.43761036
No	 -28.51054542	 -38.69288307	 26.47407789
Co	 -26.47407789	 -40.72935060	 26.47407789
No	 -26.47407789	 -38.69288307	 24.43761036
Co	 -28.51054542	 -40.72935060	 28.51054542
No	 -28.51054542	 -38.69288307	 30.54701295
Co	 -26.47407789	 -40.72935060	 30.54701295
No	 -26.47407789	 -38.69288307	 28.51054542
Co	 -28.51054542	 -40.72935060	 32.58348048
No	 -28.51054542	 -38.69288307	 34.61994801
Co	 -26.47407789	 -40.72935060	 34.61994801
No	 -26.47407789	 -38.69288307	 32.58348048
Co	 -28.51054542	 -40.72935060	 36.65641554
No	 -28.51054542	 -38.69288307	 38.69288307
Co	 -26.47407789	 -40.72935060	 38.69288307
No	 -26.47407789	 -38.69288307	 36.65641554
Co	 -28.51054542	 -36.65641554	 -40.72935060
No	 -28.51054542	 -34.61994801	 -38.69288307
No	 -26.47407789	 -36.65641554	 -38.69288307
Co	 -26.47407789	 -34.61994801	 -40.72935060
No	 -28.51054542	 -36.65641554	 -36.65641554
No	 -28.51054542	 -34.61994801	 -34.61994801
No	 -26.47407789	 -36.65641554	 -34.61994801
No	 -26.47407789	 -34.61994801	 -36.65641554
No	 -28.51054542	 -36.65641554	 -32.58348048
No	 -28.51054542	 -34.61994801	 -30.54701295
No	 -26.47407789	 -36.65641554	 -30.54701295
No	 -26.47407789	 -34.61994801	 -32.58348048
No	 -28.51054542	 -36.65641554	 -28.51054542
No	 -28.51054542	 -34.61994801	 -26.47407789
No	 -26.47407789	 -36.65641554	 -26.47407789
No	 -26.47407789	 -34.61994801	 -28.51054542
No	 -28.51054542	 -36.65641554	 -24.43761036
No	 -28.51054542	 -34.61994801	 -22.40114283
No	 -26.47407789	 -36.65641554	 -22.40114283
No	 -26.47407789	 -34.61994801	 -24.43761036
No	 -28.51054542	 -36.65641554	 -20.36467530
No	 -28.51054542	 -34.61994801	 -18.32820777
No	 -26.47407789	 -36.65641554	 -18.32820777
No	 -26.47407789	 -34.61994801	 -20.36467530
No	 -28.51054542	 -36.65641554	 -16.29174024
No	 -28.51054542	 -34.61994801	 -14.25527271
No	 -26.47407789	 -36.65641554	 -14.25527271
No	 -26.47407789	 -34.61994801	 -16.29174024
No	 -28.51054542	 -36.65641554	 -12.21880518
No	 -28.51054542	 -34.61994801	 -10.18233765
No	 -26.47407789	 -36.65641554	 -10.18233765
No	 -26.47407789	 -34.61994801	 -12.21880518
No	 -28.51054542	 -36.65641554	 -8.14587012
No	 -28.51054542	 -34.61994801	 -6.10940259
No	 -26.47407789	 -34.61994801	 -8.14587012
No	 -28.51054542	 -34.61994801	 6.10940259
No	 -28.51054542	 -36.65641554	 8.14587012
No	 -28.51054542	 -34.61994801	 10.18233765
No	 -26.47407789	 -36.65641554	 10.18233765
No	 -26.47407789	 -34.61994801	 8.14587012
No	 -28.51054542	 -36.65641554	 12.21880518
No	 -28.51054542	 -34.61994801	 14.25527271
No	 -26.47407789	 -36.65641554	 14.25527271
No	 -26.47407789	 -34.61994801	 12.21880518
No	 -28.51054542	 -36.65641554	 16.29174024
No	 -28.51054542	 -34.61994801	 18.32820777
No	 -26.47407789	 -36.65641554	 18.32820777
No	 -26.47407789	 -34.61994801	 16.29174024
No	 -28.51054542	 -36.65641554	 20.36467530
No	 -28.51054542	 -34.61994801	 22.40114283
No	 -26.47407789	 -36.65641554	 22.40114283
No	 -26.47407789	 -34.61994801	 20.36467530
No	 -28.51054542	 -36.65641554	 24.43761036
No	 -28.51054542	 -34.61994801	 26.47407789
No	 -26.47407789	 -36.65641554	 26.47407789
No	 -26.47407789	 -34.61994801	 24.43761036
No	 -28.51054542	 -36.65641554	 28.51054542
No	 -28.51054542	 -34.61994801	 30.54701295
No	 -26.47407789	 -36.65641554	 30.54701295
No	 -26.47407789	 -34.61994801	 28.51054542
No	 -28.51054542	 -36.65641554	 32.58348048
No	 -28.51054542	 -34.61994801	 34.61994801
No	 -26.47407789	 -36.65641554	 34.61994801
No	 -26.47407789	 -34.61994801	 32.58348048
No	 -28.51054542	 -36.65641554	 36.65641554
No	 -28.51054542	 -34.61994801	 38.69288307
No	 -26.47407789	 -36.65641554	 38.69288307
No	 -26.47407789	 -34.61994801	 36.65641554
Co	 -28.51054542	 -32.58348048	 -40.72935060
No	 -28.51054542	 -30.54701295	 -38.69288307
No	 -26.47407789	 -32.58348048	 -38.69288307
Co	 -26.47407789	 -30.54701295	 -40.72935060
No	 -28.51054542	 -32.58348048	 -36.65641554
No	 -28.51054542	 -30.54701295	 -34.61994801
No	 -26.47407789	 -32.58348048	 -34.61994801
No	 -26.47407789	 -30.54701295	 -36.65641554
No	 -28.51054542	 -32.58348048	 -32.58348048
No	 -28.51054542	 -30.54701295	 -30.54701295
No	 -26.47407789	 -32.58348048	 -30.54701295
No	 -26.47407789	 -30.54701295	 -32.58348048
No	 -28.51054542	 -32.58348048	 -28.51054542
No	 -28.51054542	 -30.54701295	 -26.47407789
No	 -26.47407789	 -32.58348048	 -26.47407789
No	 -26.47407789	 -30.54701295	 -28.51054542
No	 -28.51054542	 -32.58348048	 -24.43761036
No	 -28.51054542	 -30.54701295	 -22.40114283
No	 -26.47407789	 -32.58348048	 -22.40114283
No	 -26.47407789	 -30.54701295	 -24.43761036
No	 -28.51054542	 -32.58348048	 -20.36467530
No	 -28.51054542	 -30.54701295	 -18.32820777
No	 -26.47407789	 -32.58348048	 -18.32820777
No	 -26.47407789	 -30.54701295	 -20.36467530
No	 -28.51054542	 -32.58348048	 -16.29174024
No	 -28.51054542	 -30.54701295	 -14.25527271
No	 -26.47407789	 -32.58348048	 -14.25527271
No	 -26.47407789	 -30.54701295	 -16.29174024
No	 -28.51054542	 -32.58348048	 -12.21880518
No	 -28.51054542	 -30.54701295	 -10.18233765
No	 -26.47407789	 -32.58348048	 -10.18233765
No	 -26.47407789	 -30.54701295	 -12.21880518
No	 -28.51054542	 -32.58348048	 -8.14587012
No	 -28.51054542	 -30.54701295	 -6.10940259
No	 -26.47407789	 -32.58348048	 -6.10940259
No	 -26.47407789	 -30.54701295	 -8.14587012
No	 -28.51054542	 -32.58348048	 -4.07293506
No	 -28.51054542	 -30.54701295	 -2.03646753
No	 -26.47407789	 -30.54701295	 -4.07293506
No	 -28.51054542	 -30.54701295	 2.03646753
No	 -28.51054542	 -32.58348048	 4.07293506
No	 -28.51054542	 -30.54701295	 6.10940259
No	 -26.47407789	 -32.58348048	 6.10940259
No	 -26.47407789	 -30.54701295	 4.07293506
No	 -28.51054542	 -32.58348048	 8.14587012
No	 -28.51054542	 -30.54701295	 10.18233765
No	 -26.47407789	 -32.58348048	 10.18233765
No	 -26.47407789	 -30.54701295	 8.14587012
No	 -28.51054542	 -32.58348048	 12.21880518
No	 -28.51054542	 -30.54701295	 14.25527271
No	 -26.47407789	 -32.58348048	 14.25527271
No	 -26.47407789	 -30.54701295	 12.21880518
No	 -28.51054542	 -32.58348048	 16.29174024
No	 -28.51054542	 -30.54701295	 18.32820777
No	 -26.47407789	 -32.58348048	 18.32820777
No	 -26.47407789	 -30.54701295	 16.29174024
No	 -28.51054542	 -32.58348048	 20.36467530
No	 -28.51054542	 -30.54701295	 22.40114283
No	 -26.47407789	 -32.58348048	 22.40114283
No	 -26.47407789	 -30.54701295	 20.36467530
No	 -28.51054542	 -32.58348048	 24.43761036
No	 -28.51054542	 -30.54701295	 26.47407789
No	 -26.47407789	 -32.58348048	 26.47407789
No	 -26.47407789	 -30.54701295	 24.43761036
No	 -28.51054542	 -32.58348048	 28.51054542
No	 -28.51054542	 -30.54701295	 30.54701295
No	 -26.47407789	 -32.58348048	 30.54701295
No	 -26.47407789	 -30.54701295	 28.51054542
No	 -28.51054542	 -32.58348048	 32.58348048
No	 -28.51054542	 -30.54701295	 34.61994801
No	 -26.47407789	 -32.58348048	 34.61994801
No	 -26.47407789	 -30.54701295	 32.58348048
No	 -28.51054542	 -32.58348048	 36.65641554
No	 -28.51054542	 -30.54701295	 38.69288307
No	 -26.47407789	 -32.58348048	 38.69288307
No	 -26.47407789	 -30.54701295	 36.65641554
Co	 -28.51054542	 -28.51054542	 -40.72935060
No	 -28.51054542	 -26.47407789	 -38.69288307
No	 -26.47407789	 -28.51054542	 -38.69288307
Co	 -26.47407789	 -26.47407789	 -40.72935060
No	 -28.51054542	 -28.51054542	 -36.65641554
No	 -28.51054542	 -26.47407789	 -34.61994801
No	 -26.47407789	 -28.51054542	 -34.61994801
No	 -26.47407789	 -26.47407789	 -36.65641554
No	 -28.51054542	 -28.51054542	 -32.58348048
No	 -28.51054542	 -26.47407789	 -30.54701295
No	 -26.47407789	 -28.51054542	 -30.54701295
No	 -26.47407789	 -26.47407789	 -32.58348048
No	 -28.51054542	 -28.51054542	 -28.51054542
No	 -28.51054542	 -26.47407789	 -26.47407789
No	 -26.47407789	 -28.51054542	 -26.47407789
No	 -26.47407789	 -26.47407789	 -28.51054542
No	 -28.51054542	 -28.51054542	 -24.43761036
No	 -28.51054542	 -26.47407789	 -22.40114283
No	 -26.47407789	 -28.51054542	 -22.40114283
No	 -26.47407789	 -26.47407789	 -24.43761036
No	 -28.51054542	 -28.51054542	 -20.36467530
No	 -28.51054542	 -26.47407789	 -18.32820777
No	 -26.47407789	 -28.51054542	 -18.32820777
No	 -26.47407789	 -26.47407789	 -20.36467530
No	 -28.51054542	 -28.51054542	 -16.29174024
No	 -28.51054542	 -26.47407789	 -14.25527271
No	 -26.47407789	 -28.51054542	 -14.25527271
No	 -26.47407789	 -26.47407789	 -16.29174024
No	 -28.51054542	 -28.51054542	 -12.21880518
No	 -28.51054542	 -26.47407789	 -10.18233765
No	 -26.47407789	 -28.51054542	 -10.18233765
No	 -26.47407789	 -26.47407789	 -12.21880518
No	 -28.51054542	 -28.51054542	 -8.14587012
No	 -28.51054542	 -26.47407789	 -6.10940259
No	 -26.47407789	 -28.51054542	 -6.10940259
No	 -26.47407789	 -26.47407789	 -8.14587012
No	 -28.51054542	 -28.51054542	 -4.07293506
No	 -28.51054542	 -26.47407789	 -2.03646753
No	 -26.47407789	 -28.51054542	 -2.03646753
No	 -26.47407789	 -26.47407789	 -4.07293506
No	 -28.51054542	 -28.51054542	 -0.00000000
No	 -28.51054542	 -26.47407789	 2.03646753
No	 -26.47407789	 -28.51054542	 2.03646753
No	 -26.47407789	 -26.47407789	 -0.00000000
No	 -28.51054542	 -28.51054542	 4.07293506
No	 -28.51054542	 -26.47407789	 6.10940259
No	 -26.47407789	 -28.51054542	 6.10940259
No	 -26.47407789	 -26.47407789	 4.07293506
No	 -28.51054542	 -28.51054542	 8.14587012
No	 -28.51054542	 -26.47407789	 10.18233765
No	 -26.47407789	 -28.51054542	 10.18233765
No	 -26.47407789	 -26.47407789	 8.14587012
No	 -28.51054542	 -28.51054542	 12.21880518
No	 -28.51054542	 -26.47407789	 14.25527271
No	 -26.47407789	 -28.51054542	 14.25527271
No	 -26.47407789	 -26.47407789	 12.21880518
No	 -28.51054542	 -28.51054542	 16.29174024
No	 -28.51054542	 -26.47407789	 18.32820777
No	 -26.47407789	 -28.51054542	 18.32820777
No	 -26.47407789	 -26.47407789	 16.29174024
No	 -28.51054542	 -28.51054542	 20.36467530
No	 -28.51054542	 -26.47407789	 22.40114283
No	 -26.47407789	 -28.51054542	 22.40114283
No	 -26.47407789	 -26.47407789	 20.36467530
No	 -28.51054542	 -28.51054542	 24.43761036
No	 -28.51054542	 -26.47407789	 26.47407789
No	 -26.47407789	 -28.51054542	 26.47407789
No	 -26.47407789	 -26.47407789	 24.43761036
No	 -28.51054542	 -28.51054542	 28.51054542
No	 -28.51054542	 -26.47407789	 30.54701295
No	 -26.47407789	 -28.51054542	 30.54701295
No	 -26.47407789	 -26.47407789	 28.51054542
No	 -28.51054542	 -28.51054542	 32.58348048
No	 -28.51054542	 -26.47407789	 34.61994801
No	 -26.47407789	 -28.51054542	 34.61994801
No	 -26.47407789	 -26.47407789	 32.58348048
No	 -28.51054542	 -28.51054542	 36.65641554
No	 -28.51054542	 -26.47407789	 38.69288307
No	 -26.47407789	 -28.51054542	 38.69288307
No	 -26.47407789	 -26.47407789	 36.65641554
Co	 -28.51054542	 -24.43761036	 -40.72935060
No	 -28.51054542	 -22.40114283	 -38.69288307
No	 -26.47407789	 -24.43761036	 -38.69288307
Co	 -26.47407789	 -22.40114283	 -40.72935060
No	 -28.51054542	 -24.43761036	 -36.65641554
No	 -28.51054542	 -22.40114283	 -34.61994801
No	 -26.47407789	 -24.43761036	 -34.61994801
No	 -26.47407789	 -22.40114283	 -36.65641554
No	 -28.51054542	 -24.43761036	 -32.58348048
No	 -28.51054542	 -22.40114283	 -30.54701295
No	 -26.47407789	 -24.43761036	 -30.54701295
No	 -26.47407789	 -22.40114283	 -32.58348048
No	 -28.51054542	 -24.43761036	 -28.51054542
No	 -28.51054542	 -22.40114283	 -26.47407789
No	 -26.47407789	 -24.43761036	 -26.47407789
No	 -26.47407789	 -22.40114283	 -28.51054542
No	 -28.51054542	 -24.43761036	 -24.43761036
No	 -28.51054542	 -22.40114283	 -22.40114283
No	 -26.47407789	 -24.43761036	 -22.40114283
No	 -26.47407789	 -22.40114283	 -24.43761036
No	 -28.51054542	 -24.43761036	 -20.36467530
No	 -28.51054542	 -22.40114283	 -18.32820777
No	 -26.47407789	 -24.43761036	 -18.32820777
No	 -26.47407789	 -22.40114283	 -20.36467530
No	 -28.51054542	 -24.43761036	 -16.29174024
No	 -28.51054542	 -22.40114283	 -14.25527271
No	 -26.47407789	 -24.43761036	 -14.25527271
No	 -26.47407789	 -22.40114283	 -16.29174024
No	 -28.51054542	 -24.43761036	 -12.21880518
No	 -28.51054542	 -22.40114283	 -10.18233765
No	 -26.47407789	 -24.43761036	 -10.18233765
No	 -26.47407789	 -22.40114283	 -12.21880518
No	 -28.51054542	 -24.43761036	 -8.14587012
No	 -28.51054542	 -22.40114283	 -6.10940259
No	 -26.47407789	 -24.43761036	 -6.10940259
No	 -26.47407789	 -22.40114283	 -8.14587012
No	 -28.51054542	 -24.43761036	 -4.07293506
No	 -26.47407789	 -24.43761036	 -2.03646753
No	 -26.47407789	 -22.40114283	 -4.07293506
No	 -26.47407789	 -24.43761036	 2.03646753
No	 -28.51054542	 -24.43761036	 4.07293506
No	 -28.51054542	 -22.40114283	 6.10940259
No	 -26.47407789	 -24.43761036	 6.10940259
No	 -26.47407789	 -22.40114283	 4.07293506
No	 -28.51054542	 -24.43761036	 8.14587012
No	 -28.51054542	 -22.40114283	 10.18233765
No	 -26.47407789	 -24.43761036	 10.18233765
No	 -26.47407789	 -22.40114283	 8.14587012
No	 -28.51054542	 -24.43761036	 12.21880518
No	 -28.51054542	 -22.40114283	 14.25527271
No	 -26.47407789	 -24.43761036	 14.25527271
No	 -26.47407789	 -22.40114283	 12.21880518
No	 -28.51054542	 -24.43761036	 16.29174024
No	 -28.51054542	 -22.40114283	 18.32820777
No	 -26.47407789	 -24.43761036	 18.32820777
No	 -26.47407789	 -22.40114283	 16.29174024
No	 -28.51054542	 -24.43761036	 20.36467530
No	 -28.51054542	 -22.40114283	 22.40114283
No	 -26.47407789	 -24.43761036	 22.40114283
No	 -26.47407789	 -22.40114283	 20.36467530
No	 -28.51054542	 -24.43761036	 24.43761036
No	 -28.51054542	 -22.40114283	 26.47407789
No	 -26.47407789	 -24.43761036	 26.47407789
No	 -26.47407789	 -22.40114283	 24.43761036
No	 -28.51054542	 -24.43761036	 28.51054542
No	 -28.51054542	 -22.40114283	 30.54701295
No	 -26.47407789	 -24.43761036	 30.54701295
No	 -26.47407789	 -22.40114283	 28.51054542
No	 -28.51054542	 -24.43761036	 32.58348048
No	 -28.51054542	 -22.40114283	 34.61994801
No	 -26.47407789	 -24.43761036	 34.61994801
No	 -26.47407789	 -22.40114283	 32.58348048
No	 -28.51054542	 -24.43761036	 36.65641554
No	 -28.51054542	 -22.40114283	 38.69288307
No	 -26.47407789	 -24.43761036	 38.69288307
No	 -26.47407789	 -22.40114283	 36.65641554
Co	 -28.51054542	 -20.36467530	 -40.72935060
No	 -28.51054542	 -18.32820777	 -38.69288307
No	 -26.47407789	 -20.36467530	 -38.69288307
Co	 -26.47407789	 -18.32820777	 -40.72935060
No	 -28.51054542	 -20.36467530	 -36.65641554
No	 -28.51054542	 -18.32820777	 -34.61994801
No	 -26.47407789	 -20.36467530	 -34.61994801
No	 -26.47407789	 -18.32820777	 -36.65641554
No	 -28.51054542	 -20.36467530	 -32.58348048
No	 -28.51054542	 -18.32820777	 -30.54701295
No	 -26.47407789	 -20.36467530	 -30.54701295
No	 -26.47407789	 -18.32820777	 -32.58348048
No	 -28.51054542	 -20.36467530	 -28.51054542
No	 -28.51054542	 -18.32820777	 -26.47407789
No	 -26.47407789	 -20.36467530	 -26.47407789
No	 -26.47407789	 -18.32820777	 -28.51054542
No	 -28.51054542	 -20.36467530	 -24.43761036
No	 -28.51054542	 -18.32820777	 -22.40114283
No	 -26.47407789	 -20.36467530	 -22.40114283
No	 -26.47407789	 -18.32820777	 -24.43761036
No	 -28.51054542	 -20.36467530	 -20.36467530
No	 -28.51054542	 -18.32820777	 -18.32820777
No	 -26.47407789	 -20.36467530	 -18.32820777
No	 -26.47407789	 -18.32820777	 -20.36467530
No	 -28.51054542	 -20.36467530	 -16.29174024
No	 -28.51054542	 -18.32820777	 -14.25527271
No	 -26.47407789	 -20.36467530	 -14.25527271
No	 -26.47407789	 -18.32820777	 -16.29174024
No	 -28.51054542	 -20.36467530	 -12.21880518
No	 -28.51054542	 -18.32820777	 -10.18233765
No	 -26.47407789	 -20.36467530	 -10.18233765
No	 -26.47407789	 -18.32820777	 -12.21880518
No	 -28.51054542	 -20.36467530	 -8.14587012
No	 -26.47407789	 -20.36467530	 -6.10940259
No	 -26.47407789	 -18.32820777	 -8.14587012
No	 -26.47407789	 -20.36467530	 6.10940259
No	 -28.51054542	 -20.36467530	 8.14587012
No	 -28.51054542	 -18.32820777	 10.18233765
No	 -26.47407789	 -20.36467530	 10.18233765
No	 -26.47407789	 -18.32820777	 8.14587012
No	 -28.51054542	 -20.36467530	 12.21880518
No	 -28.51054542	 -18.32820777	 14.25527271
No	 -26.47407789	 -20.36467530	 14.25527271
No	 -26.47407789	 -18.32820777	 12.21880518
No	 -28.51054542	 -20.36467530	 16.29174024
No	 -28.51054542	 -18.32820777	 18.32820777
No	 -26.47407789	 -20.36467530	 18.32820777
No	 -26.47407789	 -18.32820777	 16.29174024
No	 -28.51054542	 -20.36467530	 20.36467530
No	 -28.51054542	 -18.32820777	 22.40114283
No	 -26.47407789	 -20.36467530	 22.40114283
No	 -26.47407789	 -18.32820777	 20.36467530
No	 -28.51054542	 -20.36467530	 24.43761036
No	 -28.51054542	 -18.32820777	 26.47407789
No	 -26.47407789	 -20.36467530	 26.47407789
No	 -26.47407789	 -18.32820777	 24.43761036
No	 -28.51054542	 -20.36467530	 28.51054542
No	 -28.51054542	 -18.32820777	 30.54701295
No	 -26.47407789	 -20.36467530	 30.54701295
No	 -26.47407789	 -18.32820777	 28.51054542
No	 -28.51054542	 -20.36467530	 32.58348048
No	 -28.51054542	 -18.32820777	 34.61994801
No	 -26.47407789	 -20.36467530	 34.61994801
No	 -26.47407789	 -18.32820777	 32.58348048
No	 -28.51054542	 -20.36467530	 36.65641554
No	 -28.51054542	 -18.32820777	 38.69288307
No	 -26.47407789	 -20.36467530	 38.69288307
No	 -26.47407789	 -18.32820777	 36.65641554
Co	 -28.51054542	 -16.29174024	 -40.72935060
No	 -28.51054542	 -14.25527271	 -38.69288307
No	 -26.47407789	 -16.29174024	 -38.69288307
Co	 -26.47407789	 -14.25527271	 -40.72935060
No	 -28.51054542	 -16.29174024	 -36.65641554
No	 -28.51054542	 -14.25527271	 -34.61994801
No	 -26.47407789	 -16.29174024	 -34.61994801
No	 -26.47407789	 -14.25527271	 -36.65641554
No	 -28.51054542	 -16.29174024	 -32.58348048
No	 -28.51054542	 -14.25527271	 -30.54701295
No	 -26.47407789	 -16.29174024	 -30.54701295
No	 -26.47407789	 -14.25527271	 -32.58348048
No	 -28.51054542	 -16.29174024	 -28.51054542
No	 -28.51054542	 -14.25527271	 -26.47407789
No	 -26.47407789	 -16.29174024	 -26.47407789
No	 -26.47407789	 -14.25527271	 -28.51054542
No	 -28.51054542	 -16.29174024	 -24.43761036
No	 -28.51054542	 -14.25527271	 -22.40114283
No	 -26.47407789	 -16.29174024	 -22.40114283
No	 -26.47407789	 -14.25527271	 -24.43761036
No	 -28.51054542	 -16.29174024	 -20.36467530
No	 -28.51054542	 -14.25527271	 -18.32820777
No	 -26.47407789	 -16.29174024	 -18.32820777
No	 -26.47407789	 -14.25527271	 -20.36467530
No	 -28.51054542	 -16.29174024	 -16.29174024
No	 -28.51054542	 -14.25527271	 -14.25527271
No	 -26.47407789	 -16.29174024	 -14.25527271
No	 -26.47407789	 -14.25527271	 -16.29174024
No	 -28.51054542	 -16.29174024	 -12.21880518
No	 -26.47407789	 -16.29174024	 -10.18233765
No	 -26.47407789	 -14.25527271	 -12.21880518
No	 -26.47407789	 -16.29174024	 10.18233765
No	 -28.51054542	 -16.29174024	 12.21880518
No	 -28.51054542	 -14.25527271	 14.25527271
No	 -26.47407789	 -16.29174024	 14.25527271
No	 -26.47407789	 -14.25527271	 12.21880518
No	 -28.51054542	 -16.29174024	 16.29174024
No	 -28.51054542	 -14.25527271	 18.32820777
No	 -26.47407789	 -16.29174024	 18.32820777
No	 -26.47407789	 -14.25527271	 16.29174024
No	 -28.51054542	 -16.29174024	 20.36467530
No	 -28.51054542	 -14.25527271	 22.40114283
No	 -26.47407789	 -16.29174024	 22.40114283
No	 -26.47407789	 -14.25527271	 20.36467530
No	 -28.51054542	 -16.29174024	 24.43761036
No	 -28.51054542	 -14.25527271	 26.47407789
No	 -26.47407789	 -16.29174024	 26.47407789
No	 -26.47407789	 -14.25527271	 24.43761036
No	 -28.51054542	 -16.29174024	 28.51054542
No	 -28.51054542	 -14.25527271	 30.54701295
No	 -26.47407789	 -16.29174024	 30.54701295
No	 -26.47407789	 -14.25527271	 28.51054542
No	 -28.51054542	 -16.29174024	 32.58348048
No	 -28.51054542	 -14.25527271	 34.61994801
No	 -26.47407789	 -16.29174024	 34.61994801
No	 -26.47407789	 -14.25527271	 32.58348048
No	 -28.51054542	 -16.29174024	 36.65641554
No	 -28.51054542	 -14.25527271	 38.69288307
No	 -26.47407789	 -16.29174024	 38.69288307
No	 -26.47407789	 -14.25527271	 36.65641554
Co	 -28.51054542	 -12.21880518	 -40.72935060
No	 -28.51054542	 -10.18233765	 -38.69288307
No	 -26.47407789	 -12.21880518	 -38.69288307
Co	 -26.47407789	 -10.18233765	 -40.72935060
No	 -28.51054542	 -12.21880518	 -36.65641554
No	 -28.51054542	 -10.18233765	 -34.61994801
No	 -26.47407789	 -12.21880518	 -34.61994801
No	 -26.47407789	 -10.18233765	 -36.65641554
No	 -28.51054542	 -12.21880518	 -32.58348048
No	 -28.51054542	 -10.18233765	 -30.54701295
No	 -26.47407789	 -12.21880518	 -30.54701295
No	 -26.47407789	 -10.18233765	 -32.58348048
No	 -28.51054542	 -12.21880518	 -28.51054542
No	 -28.51054542	 -10.18233765	 -26.47407789
No	 -26.47407789	 -12.21880518	 -26.47407789
No	 -26.47407789	 -10.18233765	 -28.51054542
No	 -28.51054542	 -12.21880518	 -24.43761036
No	 -28.51054542	 -10.18233765	 -22.40114283
No	 -26.47407789	 -12.21880518	 -22.40114283
No	 -26.47407789	 -10.18233765	 -24.43761036
No	 -28.51054542	 -12.21880518	 -20.36467530
No	 -28.51054542	 -10.18233765	 -18.32820777
No	 -26.47407789	 -12.21880518	 -18.32820777
No	 -26.47407789	 -10.18233765	 -20.36467530
No	 -28.51054542	 -12.21880518	 -16.29174024
No	 -26.47407789	 -12.21880518	 -14.25527271
No	 -26.47407789	 -10.18233765	 -16.29174024
No	 -26.47407789	 -12.21880518	 14.25527271
No	 -28.51054542	 -12.21880518	 16.29174024
No	 -28.51054542	 -10.18233765	 18.32820777
No	 -26.47407789	 -12.21880518	 18.32820777
No	 -26.47407789	 -10.18233765	 16.29174024
No	 -28.51054542	 -12.21880518	 20.36467530
No	 -28.51054542	 -10.18233765	 22.40114283
No	 -26.47407789	 -12.21880518	 22.40114283
No	 -26.47407789	 -10.18233765	 20.36467530
No	 -28.51054542	 -12.21880518	 24.43761036
No	 -28.51054542	 -10.18233765	 26.47407789
No	 -26.47407789	 -12.21880518	 26.47407789
No	 -26.47407789	 -10.18233765	 24.43761036
No	 -28.51054542	 -12.21880518	 28.51054542
No	 -28.51054542	 -10.18233765	 30.54701295
No	 -26.47407789	 -12.21880518	 30.54701295
No	 -26.47407789	 -10.18233765	 28.51054542
No	 -28.51054542	 -12.21880518	 32.58348048
No	 -28.51054542	 -10.18233765	 34.61994801
No	 -26.47407789	 -12.21880518	 34.61994801
No	 -26.47407789	 -10.18233765	 32.58348048
No	 -28.51054542	 -12.21880518	 36.65641554
No	 -28.51054542	 -10.18233765	 38.69288307
No	 -26.47407789	 -12.21880518	 38.69288307
No	 -26.47407789	 -10.18233765	 36.65641554
Co	 -28.51054542	 -8.14587012	 -40.72935060
No	 -28.51054542	 -8.14587012	 -36.65641554
No	 -28.51054542	 -6.10940259	 -34.61994801
No	 -26.47407789	 -8.14587012	 -34.61994801
No	 -28.51054542	 -8.14587012	 -32.58348048
No	 -28.51054542	 -6.10940259	 -30.54701295
No	 -26.47407789	 -8.14587012	 -30.54701295
No	 -26.47407789	 -6.10940259	 -32.58348048
No	 -28.51054542	 -8.14587012	 -28.51054542
No	 -28.51054542	 -6.10940259	 -26.47407789
No	 -26.47407789	 -8.14587012	 -26.47407789
No	 -26.47407789	 -6.10940259	 -28.51054542
No	 -28.51054542	 -8.14587012	 -24.43761036
No	 -28.51054542	 -6.10940259	 -22.40114283
No	 -26.47407789	 -8.14587012	 -22.40114283
No	 -26.47407789	 -6.10940259	 -24.43761036
No	 -28.51054542	 -8.14587012	 -20.36467530
No	 -26.47407789	 -8.14587012	 -18.32820777
No	 -26.47407789	 -6.10940259	 -20.36467530
No	 -26.47407789	 -8.14587012	 18.32820777
No	 -28.51054542	 -8.14587012	 20.36467530
No	 -28.51054542	 -6.10940259	 22.40114283
No	 -26.47407789	 -8.14587012	 22.40114283
No	 -26.47407789	 -6.10940259	 20.36467530
No	 -28.51054542	 -8.14587012	 24.43761036
No	 -28.51054542	 -6.10940259	 26.47407789
No	 -26.47407789	 -8.14587012	 26.47407789
No	 -26.47407789	 -6.10940259	 24.43761036
No	 -28.51054542	 -8.14587012	 28.51054542
No	 -28.51054542	 -6.10940259	 30.54701295
No	 -26.47407789	 -8.14587012	 30.54701295
No	 -26.47407789	 -6.10940259	 28.51054542
No	 -28.51054542	 -8.14587012	 32.58348048
No	 -28.51054542	 -6.10940259	 34.61994801
No	 -26.47407789	 -8.14587012	 34.61994801
No	 -26.47407789	 -6.10940259	 32.58348048
No	 -28.51054542	 -8.14587012	 36.65641554
No	 -28.51054542	 -4.07293506	 -32.58348048
No	 -28.51054542	 -2.03646753	 -30.54701295
No	 -26.47407789	 -4.07293506	 -30.54701295
No	 -28.51054542	 -4.07293506	 -28.51054542
No	 -28.51054542	 -2.03646753	 -26.47407789
No	 -26.47407789	 -4.07293506	 -26.47407789
No	 -26.47407789	 -2.03646753	 -28.51054542
No	 -28.51054542	 -4.07293506	 -24.43761036
No	 -26.47407789	 -4.07293506	 -22.40114283
No	 -26.47407789	 -2.03646753	 -24.43761036
No	 -26.47407789	 -4.07293506	 22.40114283
No	 -28.51054542	 -4.07293506	 24.43761036
No	 -28.51054542	 -2.03646753	 26.47407789
No	 -26.47407789	 -4.07293506	 26.47407789
No	 -26.47407789	 -2.03646753	 24.43761036
No	 -28.51054542	 -4.07293506	 28.51054542
No	 -28.51054542	 -2.03646753	 30.54701295
No	 -26.47407789	 -4.07293506	 30.54701295
No	 -26.47407789	 -2.03646753	 28.51054542
No	 -28.51054542	 -4.07293506	 32.58348048
No	 -28.51054542	 2.03646753	 -30.54701295
No	 -28.51054542	 -0.00000000	 -28.51054542
No	 -28.51054542	 2.03646753	 -26.47407789
No	 -26.47407789	 -0.00000000	 -26.47407789
No	 -26.47407789	 2.03646753	 -28.51054542
No	 -26.47407789	 2.03646753	 -24.43761036
No	 -28.51054542	 2.03646753	 26.47407789
No	 -26.47407789	 -0.00000000	 26.47407789
No	 -26.47407789	 2.03646753	 24.43761036
No	 -28.51054542	 -0.00000000	 28.51054542
No	 -28.51054542	 2.03646753	 30.54701295
No	 -26.47407789	 2.03646753	 28.51054542
No	 -28.51054542	 6.10940259	 -34.61994801
No	 -28.51054542	 4.07293506	 -32.58348048
No	 -28.51054542	 6.10940259	 -30.54701295
No	 -26.47407789	 4.07293506	 -30.54701295
No	 -26.47407789	 6.10940259	 -32.58348048
No	 -28.51054542	 4.07293506	 -28.51054542
No	 -28.51054542	 6.10940259	 -26.47407789
No	 -26.47407789	 4.07293506	 -26.47407789
No	 -26.47407789	 6.10940259	 -28.51054542
No	 -28.51054542	 4.07293506	 -24.43761036
No	 -28.51054542	 6.10940259	 -22.40114283
No	 -26.47407789	 4.07293506	 -22.40114283
No	 -26.47407789	 6.10940259	 -24.43761036
No	 -26.47407789	 6.10940259	 -20.36467530
No	 -28.51054542	 6.10940259	 22.40114283
No	 -26.47407789	 4.07293506	 22.40114283
No	 -26.47407789	 6.10940259	 20.36467530
No	 -28.51054542	 4.07293506	 24.43761036
No	 -28.51054542	 6.10940259	 26.47407789
No	 -26.47407789	 4.07293506	 26.47407789
No	 -26.47407789	 6.10940259	 24.43761036
No	 -28.51054542	 4.07293506	 28.51054542
No	 -28.51054542	 6.10940259	 30.54701295
No	 -26.47407789	 4.07293506	 30.54701295
No	 -26.47407789	 6.10940259	 28.51054542
No	 -28.51054542	 4.07293506	 32.58348048
No	 -28.51054542	 6.10940259	 34.61994801
No	 -26.47407789	 6.10940259	 32.58348048
Co	 -28.51054542	 8.14587012	 -40.72935060
No	 -28.51054542	 10.18233765	 -38.69288307
Co	 -26.47407789	 10.18233765	 -40.72935060
No	 -28.51054542	 8.14587012	 -36.65641554
No	 -28.51054542	 10.18233765	 -34.61994801
No	 -26.47407789	 8.14587012	 -34.61994801
No	 -26.47407789	 10.18233765	 -36.65641554
No	 -28.51054542	 8.14587012	 -32.58348048
No	 -28.51054542	 10.18233765	 -30.54701295
No	 -26.47407789	 8.14587012	 -30.54701295
No	 -26.47407789	 10.18233765	 -32.58348048
No	 -28.51054542	 8.14587012	 -28.51054542
No	 -28.51054542	 10.18233765	 -26.47407789
No	 -26.47407789	 8.14587012	 -26.47407789
No	 -26.47407789	 10.18233765	 -28.51054542
No	 -28.51054542	 8.14587012	 -24.43761036
No	 -28.51054542	 10.18233765	 -22.40114283
No	 -26.47407789	 8.14587012	 -22.40114283
No	 -26.47407789	 10.18233765	 -24.43761036
No	 -28.51054542	 8.14587012	 -20.36467530
No	 -28.51054542	 10.18233765	 -18.32820777
No	 -26.47407789	 8.14587012	 -18.32820777
No	 -26.47407789	 10.18233765	 -20.36467530
No	 -26.47407789	 10.18233765	 -16.29174024
No	 -28.51054542	 10.18233765	 18.32820777
No	 -26.47407789	 8.14587012	 18.32820777
No	 -26.47407789	 10.18233765	 16.29174024
No	 -28.51054542	 8.14587012	 20.36467530
No	 -28.51054542	 10.18233765	 22.40114283
No	 -26.47407789	 8.14587012	 22.40114283
No	 -26.47407789	 10.18233765	 20.36467530
No	 -28.51054542	 8.14587012	 24.43761036
No	 -28.51054542	 10.18233765	 26.47407789
No	 -26.47407789	 8.14587012	 26.47407789
No	 -26.47407789	 10.18233765	 24.43761036
No	 -28.51054542	 8.14587012	 28.51054542
No	 -28.51054542	 10.18233765	 30.54701295
No	 -26.47407789	 8.14587012	 30.54701295
No	 -26.47407789	 10.18233765	 28.51054542
No	 -28.51054542	 8.14587012	 32.58348048
No	 -28.51054542	 10.18233765	 34.61994801
No	 -26.47407789	 8.14587012	 34.61994801
No	 -26.47407789	 10.18233765	 32.58348048
No	 -28.51054542	 8.14587012	 36.65641554
No	 -28.51054542	 10.18233765	 38.69288307
No	 -26.47407789	 10.18233765	 36.65641554
Co	 -28.51054542	 12.21880518	 -40.72935060
No	 -28.51054542	 14.25527271	 -38.69288307
No	 -26.47407789	 12.21880518	 -38.69288307
Co	 -26.47407789	 14.25527271	 -40.72935060
No	 -28.51054542	 12.21880518	 -36.65641554
No	 -28.51054542	 14.25527271	 -34.61994801
No	 -26.47407789	 12.21880518	 -34.61994801
No	 -26.47407789	 14.25527271	 -36.65641554
No	 -28.51054542	 12.21880518	 -32.58348048
No	 -28.51054542	 14.25527271	 -30.54701295
No	 -26.47407789	 12.21880518	 -30.54701295
No	 -26.47407789	 14.25527271	 -32.58348048
No	 -28.51054542	 12.21880518	 -28.51054542
No	 -28.51054542	 14.25527271	 -26.47407789
No	 -26.47407789	 12.21880518	 -26.47407789
No	 -26.47407789	 14.25527271	 -28.51054542
No	 -28.51054542	 12.21880518	 -24.43761036
No	 -28.51054542	 14.25527271	 -22.40114283
No	 -26.47407789	 12.21880518	 -22.40114283
No	 -26.47407789	 14.25527271	 -24.43761036
No	 -28.51054542	 12.21880518	 -20.36467530
No	 -28.51054542	 14.25527271	 -18.32820777
No	 -26.47407789	 12.21880518	 -18.32820777
No	 -26.47407789	 14.25527271	 -20.36467530
No	 -28.51054542	 12.21880518	 -16.29174024
No	 -28.51054542	 14.25527271	 -14.25527271
No	 -26.47407789	 12.21880518	 -14.25527271
No	 -26.47407789	 14.25527271	 -16.29174024
No	 -26.47407789	 14.25527271	 -12.21880518
No	 -28.51054542	 14.25527271	 14.25527271
No	 -26.47407789	 12.21880518	 14.25527271
No	 -26.47407789	 14.25527271	 12.21880518
No	 -28.51054542	 12.21880518	 16.29174024
No	 -28.51054542	 14.25527271	 18.32820777
No	 -26.47407789	 12.21880518	 18.32820777
No	 -26.47407789	 14.25527271	 16.29174024
No	 -28.51054542	 12.21880518	 20.36467530
No	 -28.51054542	 14.25527271	 22.40114283
No	 -26.47407789	 12.21880518	 22.40114283
No	 -26.47407789	 14.25527271	 20.36467530
No	 -28.51054542	 12.21880518	 24.43761036
No	 -28.51054542	 14.25527271	 26.47407789
No	 -26.47407789	 12.21880518	 26.47407789
No	 -26.47407789	 14.25527271	 24.43761036
No	 -28.51054542	 12.21880518	 28.51054542
No	 -28.51054542	 14.25527271	 30.54701295
No	 -26.47407789	 12.21880518	 30.54701295
No	 -26.47407789	 14.25527271	 28.51054542
No	 -28.51054542	 12.21880518	 32.58348048
No	 -28.51054542	 14.25527271	 34.61994801
No	 -26.47407789	 12.21880518	 34.61994801
No	 -26.47407789	 14.25527271	 32.58348048
No	 -28.51054542	 12.21880518	 36.65641554
No	 -28.51054542	 14.25527271	 38.69288307
No	 -26.47407789	 12.21880518	 38.69288307
No	 -26.47407789	 14.25527271	 36.65641554
Co	 -28.51054542	 16.29174024	 -40.72935060
No	 -28.51054542	 18.32820777	 -38.69288307
No	 -26.47407789	 16.29174024	 -38.69288307
Co	 -26.47407789	 18.32820777	 -40.72935060
No	 -28.51054542	 16.29174024	 -36.65641554
No	 -28.51054542	 18.32820777	 -34.61994801
No	 -26.47407789	 16.29174024	 -34.61994801
No	 -26.47407789	 18.32820777	 -36.65641554
No	 -28.51054542	 16.29174024	 -32.58348048
No	 -28.51054542	 18.32820777	 -30.54701295
No	 -26.47407789	 16.29174024	 -30.54701295
No	 -26.47407789	 18.32820777	 -32.58348048
No	 -28.51054542	 16.29174024	 -28.51054542
No	 -28.51054542	 18.32820777	 -26.47407789
No	 -26.47407789	 16.29174024	 -26.47407789
No	 -26.47407789	 18.32820777	 -28.51054542
No	 -28.51054542	 16.29174024	 -24.43761036
No	 -28.51054542	 18.32820777	 -22.40114283
No	 -26.47407789	 16.29174024	 -22.40114283
No	 -26.47407789	 18.32820777	 -24.43761036
No	 -28.51054542	 16.29174024	 -20.36467530
No	 -28.51054542	 18.32820777	 -18.32820777
No	 -26.47407789	 16.29174024	 -18.32820777
No	 -26.47407789	 18.32820777	 -20.36467530
No	 -28.51054542	 16.29174024	 -16.29174024
No	 -28.51054542	 18.32820777	 -14.25527271
No	 -26.47407789	 16.29174024	 -14.25527271
No	 -26.47407789	 18.32820777	 -16.29174024
No	 -28.51054542	 16.29174024	 -12.21880518
No	 -28.51054542	 18.32820777	 -10.18233765
No	 -26.47407789	 16.29174024	 -10.18233765
No	 -26.47407789	 18.32820777	 -12.21880518
No	 -26.47407789	 18.32820777	 -8.14587012
No	 -28.51054542	 18.32820777	 10.18233765
No	 -26.47407789	 16.29174024	 10.18233765
No	 -26.47407789	 18.32820777	 8.14587012
No	 -28.51054542	 16.29174024	 12.21880518
No	 -28.51054542	 18.32820777	 14.25527271
No	 -26.47407789	 16.29174024	 14.25527271
No	 -26.47407789	 18.32820777	 12.21880518
No	 -28.51054542	 16.29174024	 16.29174024
No	 -28.51054542	 18.32820777	 18.32820777
No	 -26.47407789	 16.29174024	 18.32820777
No	 -26.47407789	 18.32820777	 16.29174024
No	 -28.51054542	 16.29174024	 20.36467530
No	 -28.51054542	 18.32820777	 22.40114283
No	 -26.47407789	 16.29174024	 22.40114283
No	 -26.47407789	 18.32820777	 20.36467530
No	 -28.51054542	 16.29174024	 24.43761036
No	 -28.51054542	 18.32820777	 26.47407789
No	 -26.47407789	 16.29174024	 26.47407789
No	 -26.47407789	 18.32820777	 24.43761036
No	 -28.51054542	 16.29174024	 28.51054542
No	 -28.51054542	 18.32820777	 30.54701295
No	 -26.47407789	 16.29174024	 30.54701295
No	 -26.47407789	 18.32820777	 28.51054542
No	 -28.51054542	 16.29174024	 32.58348048
No	 -28.51054542	 18.32820777	 34.61994801
No	 -26.47407789	 16.29174024	 34.61994801
No	 -26.47407789	 18.32820777	 32.58348048
No	 -28.51054542	 16.29174024	 36.65641554
No	 -28.51054542	 18.32820777	 38.69288307
No	 -26.47407789	 16.29174024	 38.69288307
No	 -26.47407789	 18.32820777	 36.65641554
Co	 -28.51054542	 20.36467530	 -40.72935060
No	 -28.51054542	 22.40114283	 -38.69288307
No	 -26.47407789	 20.36467530	 -38.69288307
Co	 -26.47407789	 22.40114283	 -40.72935060
No	 -28.51054542	 20.36467530	 -36.65641554
No	 -28.51054542	 22.40114283	 -34.61994801
No	 -26.47407789	 20.36467530	 -34.61994801
No	 -26.47407789	 22.40114283	 -36.65641554
No	 -28.51054542	 20.36467530	 -32.58348048
No	 -28.51054542	 22.40114283	 -30.54701295
No	 -26.47407789	 20.36467530	 -30.54701295
No	 -26.47407789	 22.40114283	 -32.58348048
No	 -28.51054542	 20.36467530	 -28.51054542
No	 -28.51054542	 22.40114283	 -26.47407789
No	 -26.47407789	 20.36467530	 -26.47407789
No	 -26.47407789	 22.40114283	 -28.51054542
No	 -28.51054542	 20.36467530	 -24.43761036
No	 -28.51054542	 22.40114283	 -22.40114283
No	 -26.47407789	 20.36467530	 -22.40114283
No	 -26.47407789	 22.40114283	 -24.43761036
No	 -28.51054542	 20.36467530	 -20.36467530
No	 -28.51054542	 22.40114283	 -18.32820777
No	 -26.47407789	 20.36467530	 -18.32820777
No	 -26.47407789	 22.40114283	 -20.36467530
No	 -28.51054542	 20.36467530	 -16.29174024
No	 -28.51054542	 22.40114283	 -14.25527271
No	 -26.47407789	 20.36467530	 -14.25527271
No	 -26.47407789	 22.40114283	 -16.29174024
No	 -28.51054542	 20.36467530	 -12.21880518
No	 -28.51054542	 22.40114283	 -10.18233765
No	 -26.47407789	 20.36467530	 -10.18233765
No	 -26.47407789	 22.40114283	 -12.21880518
No	 -28.51054542	 20.36467530	 -8.14587012
No	 -28.51054542	 22.40114283	 -6.10940259
No	 -26.47407789	 20.36467530	 -6.10940259
No	 -26.47407789	 22.40114283	 -8.14587012
No	 -26.47407789	 22.40114283	 -4.07293506
No	 -28.51054542	 22.40114283	 6.10940259
No	 -26.47407789	 20.36467530	 6.10940259
No	 -26.47407789	 22.40114283	 4.07293506
No	 -28.51054542	 20.36467530	 8.14587012
No	 -28.51054542	 22.40114283	 10.18233765
No	 -26.47407789	 20.36467530	 10.18233765
No	 -26.47407789	 22.40114283	 8.14587012
No	 -28.51054542	 20.36467530	 12.21880518
No	 -28.51054542	 22.40114283	 14.25527271
No	 -26.47407789	 20.36467530	 14.25527271
No	 -26.47407789	 22.40114283	 12.21880518
No	 -28.51054542	 20.36467530	 16.29174024
No	 -28.51054542	 22.40114283	 18.32820777
No	 -26.47407789	 20.36467530	 18.32820777
No	 -26.47407789	 22.40114283	 16.29174024
No	 -28.51054542	 20.36467530	 20.36467530
No	 -28.51054542	 22.40114283	 22.40114283
No	 -26.47407789	 20.36467530	 22.40114283
No	 -26.47407789	 22.40114283	 20.36467530
No	 -28.51054542	 20.36467530	 24.43761036
No	 -28.51054542	 22.40114283	 26.47407789
No	 -26.47407789	 20.36467530	 26.47407789
No	 -26.47407789	 22.40114283	 24.43761036
No	 -28.51054542	 20.36467530	 28.51054542
No	 -28.51054542	 22.40114283	 30.54701295
No	 -26.47407789	 20.36467530	 30.54701295
No	 -26.47407789	 22.40114283	 28.51054542
No	 -28.51054542	 20.36467530	 32.58348048
No	 -28.51054542	 22.40114283	 34.61994801
No	 -26.47407789	 20.36467530	 34.61994801
No	 -26.47407789	 22.40114283	 32.58348048
No	 -28.51054542	 20.36467530	 36.65641554
No	 -28.51054542	 22.40114283	 38.69288307
No	 -26.47407789	 20.36467530	 38.69288307
No	 -26.47407789	 22.40114283	 36.65641554
Co	 -28.51054542	 24.43761036	 -40.72935060
No	 -28.51054542	 26.47407789	 -38.69288307
No	 -26.47407789	 24.43761036	 -38.69288307
Co	 -26.47407789	 26.47407789	 -40.72935060
No	 -28.51054542	 24.43761036	 -36.65641554
No	 -28.51054542	 26.47407789	 -34.61994801
No	 -26.47407789	 24.43761036	 -34.61994801
No	 -26.47407789	 26.47407789	 -36.65641554
No	 -28.51054542	 24.43761036	 -32.58348048
No	 -28.51054542	 26.47407789	 -30.54701295
No	 -26.47407789	 24.43761036	 -30.54701295
No	 -26.47407789	 26.47407789	 -32.58348048
No	 -28.51054542	 24.43761036	 -28.51054542
No	 -28.51054542	 26.47407789	 -26.47407789
No	 -26.47407789	 24.43761036	 -26.47407789
No	 -26.47407789	 26.47407789	 -28.51054542
No	 -28.51054542	 24.43761036	 -24.43761036
No	 -28.51054542	 26.47407789	 -22.40114283
No	 -26.47407789	 24.43761036	 -22.40114283
No	 -26.47407789	 26.47407789	 -24.43761036
No	 -28.51054542	 24.43761036	 -20.36467530
No	 -28.51054542	 26.47407789	 -18.32820777
No	 -26.47407789	 24.43761036	 -18.32820777
No	 -26.47407789	 26.47407789	 -20.36467530
No	 -28.51054542	 24.43761036	 -16.29174024
No	 -28.51054542	 26.47407789	 -14.25527271
No	 -26.47407789	 24.43761036	 -14.25527271
No	 -26.47407789	 26.47407789	 -16.29174024
No	 -28.51054542	 24.43761036	 -12.21880518
No	 -28.51054542	 26.47407789	 -10.18233765
No	 -26.47407789	 24.43761036	 -10.18233765
No	 -26.47407789	 26.47407789	 -12.21880518
No	 -28.51054542	 24.43761036	 -8.14587012
No	 -28.51054542	 26.47407789	 -6.10940259
No	 -26.47407789	 24.43761036	 -6.10940259
No	 -26.47407789	 26.47407789	 -8.14587012
No	 -28.51054542	 24.43761036	 -4.07293506
No	 -28.51054542	 26.47407789	 -2.03646753
No	 -26.47407789	 24.43761036	 -2.03646753
No	 -26.47407789	 26.47407789	 -4.07293506
No	 -28.51054542	 26.47407789	 2.03646753
No	 -26.47407789	 24.43761036	 2.03646753
No	 -26.47407789	 26.47407789	 -0.00000000
No	 -28.51054542	 24.43761036	 4.07293506
No	 -28.51054542	 26.47407789	 6.10940259
No	 -26.47407789	 24.43761036	 6.10940259
No	 -26.47407789	 26.47407789	 4.07293506
No	 -28.51054542	 24.43761036	 8.14587012
No	 -28.51054542	 26.47407789	 10.18233765
No	 -26.47407789	 24.43761036	 10.18233765
No	 -26.47407789	 26.47407789	 8.14587012
No	 -28.51054542	 24.43761036	 12.21880518
No	 -28.51054542	 26.47407789	 14.25527271
No	 -26.47407789	 24.43761036	 14.25527271
No	 -26.47407789	 26.47407789	 12.21880518
No	 -28.51054542	 24.43761036	 16.29174024
No	 -28.51054542	 26.47407789	 18.32820777
No	 -26.47407789	 24.43761036	 18.32820777
No	 -26.47407789	 26.47407789	 16.29174024
No	 -28.51054542	 24.43761036	 20.36467530
No	 -28.51054542	 26.47407789	 22.40114283
No	 -26.47407789	 24.43761036	 22.40114283
No	 -26.47407789	 26.47407789	 20.36467530
No	 -28.51054542	 24.43761036	 24.43761036
No	 -28.51054542	 26.47407789	 26.47407789
No	 -26.47407789	 24.43761036	 26.47407789
No	 -26.47407789	 26.47407789	 24.43761036
No	 -28.51054542	 24.43761036	 28.51054542
No	 -28.51054542	 26.47407789	 30.54701295
No	 -26.47407789	 24.43761036	 30.54701295
No	 -26.47407789	 26.47407789	 28.51054542
No	 -28.51054542	 24.43761036	 32.58348048
No	 -28.51054542	 26.47407789	 34.61994801
No	 -26.47407789	 24.43761036	 34.61994801
No	 -26.47407789	 26.47407789	 32.58348048
No	 -28.51054542	 24.43761036	 36.65641554
No	 -28.51054542	 26.47407789	 38.69288307
No	 -26.47407789	 24.43761036	 38.69288307
No	 -26.47407789	 26.47407789	 36.65641554
Co	 -28.51054542	 28.51054542	 -40.72935060
No	 -28.51054542	 30.54701295	 -38.69288307
No	 -26.47407789	 28.51054542	 -38.69288307
Co	 -26.47407789	 30.54701295	 -40.72935060
No	 -28.51054542	 28.51054542	 -36.65641554
No	 -28.51054542	 30.54701295	 -34.61994801
No	 -26.47407789	 28.51054542	 -34.61994801
No	 -26.47407789	 30.54701295	 -36.65641554
No	 -28.51054542	 28.51054542	 -32.58348048
No	 -28.51054542	 30.54701295	 -30.54701295
No	 -26.47407789	 28.51054542	 -30.54701295
No	 -26.47407789	 30.54701295	 -32.58348048
No	 -28.51054542	 28.51054542	 -28.51054542
No	 -28.51054542	 30.54701295	 -26.47407789
No	 -26.47407789	 28.51054542	 -26.47407789
No	 -26.47407789	 30.54701295	 -28.51054542
No	 -28.51054542	 28.51054542	 -24.43761036
No	 -28.51054542	 30.54701295	 -22.40114283
No	 -26.47407789	 28.51054542	 -22.40114283
No	 -26.47407789	 30.54701295	 -24.43761036
No	 -28.51054542	 28.51054542	 -20.36467530
No	 -28.51054542	 30.54701295	 -18.32820777
No	 -26.47407789	 28.51054542	 -18.32820777
No	 -26.47407789	 30.54701295	 -20.36467530
No	 -28.51054542	 28.51054542	 -16.29174024
No	 -28.51054542	 30.54701295	 -14.25527271
No	 -26.47407789	 28.51054542	 -14.25527271
No	 -26.47407789	 30.54701295	 -16.29174024
No	 -28.51054542	 28.51054542	 -12.21880518
No	 -28.51054542	 30.54701295	 -10.18233765
No	 -26.47407789	 28.51054542	 -10.18233765
No	 -26.47407789	 30.54701295	 -12.21880518
No	 -28.51054542	 28.51054542	 -8.14587012
No	 -28.51054542	 30.54701295	 -6.10940259
No	 -26.47407789	 28.51054542	 -6.10940259
No	 -26.47407789	 30.54701295	 -8.14587012
No	 -28.51054542	 28.51054542	 -4.07293506
No	 -28.51054542	 30.54701295	 -2.03646753
No	 -26.47407789	 28.51054542	 -2.03646753
No	 -26.47407789	 30.54701295	 -4.07293506
No	 -28.51054542	 28.51054542	 -0.00000000
No	 -28.51054542	 30.54701295	 2.03646753
No	 -26.47407789	 28.51054542	 2.03646753
No	 -28.51054542	 28.51054542	 4.07293506
No	 -28.51054542	 30.54701295	 6.10940259
No	 -26.47407789	 28.51054542	 6.10940259
No	 -26.47407789	 30.54701295	 4.07293506
No	 -28.51054542	 28.51054542	 8.14587012
No	 -28.51054542	 30.54701295	 10.18233765
No	 -26.47407789	 28.51054542	 10.18233765
No	 -26.47407789	 30.54701295	 8.14587012
No	 -28.51054542	 28.51054542	 12.21880518
No	 -28.51054542	 30.54701295	 14.25527271
No	 -26.47407789	 28.51054542	 14.25527271
No	 -26.47407789	 30.54701295	 12.21880518
No	 -28.51054542	 28.51054542	 16.29174024
No	 -28.51054542	 30.54701295	 18.32820777
No	 -26.47407789	 28.51054542	 18.32820777
No	 -26.47407789	 30.54701295	 16.29174024
No	 -28.51054542	 28.51054542	 20.36467530
No	 -28.51054542	 30.54701295	 22.40114283
No	 -26.47407789	 28.51054542	 22.40114283
No	 -26.47407789	 30.54701295	 20.36467530
No	 -28.51054542	 28.51054542	 24.43761036
No	 -28.51054542	 30.54701295	 26.47407789
No	 -26.47407789	 28.51054542	 26.47407789
No	 -26.47407789	 30.54701295	 24.43761036
No	 -28.51054542	 28.51054542	 28.51054542
No	 -28.51054542	 30.54701295	 30.54701295
No	 -26.47407789	 28.51054542	 30.54701295
No	 -26.47407789	 30.54701295	 28.51054542
No	 -28.51054542	 28.51054542	 32.58348048
No	 -28.51054542	 30.54701295	 34.61994801
No	 -26.47407789	 28.51054542	 34.61994801
No	 -26.47407789	 30.54701295	 32.58348048
No	 -28.51054542	 28.51054542	 36.65641554
No	 -28.51054542	 30.54701295	 38.69288307
No	 -26.47407789	 28.51054542	 38.69288307
No	 -26.47407789	 30.54701295	 36.65641554
Co	 -28.51054542	 32.58348048	 -40.72935060
No	 -28.51054542	 34.61994801	 -38.69288307
No	 -26.47407789	 32.58348048	 -38.69288307
Co	 -26.47407789	 34.61994801	 -40.72935060
No	 -28.51054542	 32.58348048	 -36.65641554
No	 -28.51054542	 34.61994801	 -34.61994801
No	 -26.47407789	 32.58348048	 -34.61994801
No	 -26.47407789	 34.61994801	 -36.65641554
No	 -28.51054542	 32.58348048	 -32.58348048
No	 -28.51054542	 34.61994801	 -30.54701295
No	 -26.47407789	 32.58348048	 -30.54701295
No	 -26.47407789	 34.61994801	 -32.58348048
No	 -28.51054542	 32.58348048	 -28.51054542
No	 -28.51054542	 34.61994801	 -26.47407789
No	 -26.47407789	 32.58348048	 -26.47407789
No	 -26.47407789	 34.61994801	 -28.51054542
No	 -28.51054542	 32.58348048	 -24.43761036
No	 -28.51054542	 34.61994801	 -22.40114283
No	 -26.47407789	 32.58348048	 -22.40114283
No	 -26.47407789	 34.61994801	 -24.43761036
No	 -28.51054542	 32.58348048	 -20.36467530
No	 -28.51054542	 34.61994801	 -18.32820777
No	 -26.47407789	 32.58348048	 -18.32820777
No	 -26.47407789	 34.61994801	 -20.36467530
No	 -28.51054542	 32.58348048	 -16.29174024
No	 -28.51054542	 34.61994801	 -14.25527271
No	 -26.47407789	 32.58348048	 -14.25527271
No	 -26.47407789	 34.61994801	 -16.29174024
No	 -28.51054542	 32.58348048	 -12.21880518
No	 -28.51054542	 34.61994801	 -10.18233765
No	 -26.47407789	 32.58348048	 -10.18233765
No	 -26.47407789	 34.61994801	 -12.21880518
No	 -28.51054542	 32.58348048	 -8.14587012
No	 -28.51054542	 34.61994801	 -6.10940259
No	 -26.47407789	 32.58348048	 -6.10940259
No	 -26.47407789	 34.61994801	 -8.14587012
No	 -28.51054542	 32.58348048	 -4.07293506
No	 -28.51054542	 32.58348048	 4.07293506
No	 -28.51054542	 34.61994801	 6.10940259
No	 -26.47407789	 32.58348048	 6.10940259
No	 -28.51054542	 32.58348048	 8.14587012
No	 -28.51054542	 34.61994801	 10.18233765
No	 -26.47407789	 32.58348048	 10.18233765
No	 -26.47407789	 34.61994801	 8.14587012
No	 -28.51054542	 32.58348048	 12.21880518
No	 -28.51054542	 34.61994801	 14.25527271
No	 -26.47407789	 32.58348048	 14.25527271
No	 -26.47407789	 34.61994801	 12.21880518
No	 -28.51054542	 32.58348048	 16.29174024
No	 -28.51054542	 34.61994801	 18.32820777
No	 -26.47407789	 32.58348048	 18.32820777
No	 -26.47407789	 34.61994801	 16.29174024
No	 -28.51054542	 32.58348048	 20.36467530
No	 -28.51054542	 34.61994801	 22.40114283
No	 -26.47407789	 32.58348048	 22.40114283
No	 -26.47407789	 34.61994801	 20.36467530
No	 -28.51054542	 32.58348048	 24.43761036
No	 -28.51054542	 34.61994801	 26.47407789
No	 -26.47407789	 32.58348048	 26.47407789
No	 -26.47407789	 34.61994801	 24.43761036
No	 -28.51054542	 32.58348048	 28.51054542
No	 -28.51054542	 34.61994801	 30.54701295
No	 -26.47407789	 32.58348048	 30.54701295
No	 -26.47407789	 34.61994801	 28.51054542
No	 -28.51054542	 32.58348048	 32.58348048
No	 -28.51054542	 34.61994801	 34.61994801
No	 -26.47407789	 32.58348048	 34.61994801
No	 -26.47407789	 34.61994801	 32.58348048
No	 -28.51054542	 32.58348048	 36.65641554
No	 -28.51054542	 34.61994801	 38.69288307
No	 -26.47407789	 32.58348048	 38.69288307
No	 -26.47407789	 34.61994801	 36.65641554
Co	 -28.51054542	 36.65641554	 -40.72935060
No	 -28.51054542	 38.69288307	 -38.69288307
No	 -26.47407789	 36.65641554	 -38.69288307
Co	 -26.47407789	 38.69288307	 -40.72935060
No	 -28.51054542	 36.65641554	 -36.65641554
No	 -28.51054542	 38.69288307	 -34.61994801
No	 -26.47407789	 36.65641554	 -34.61994801
No	 -26.47407789	 38.69288307	 -36.65641554
No	 -28.51054542	 36.65641554	 -32.58348048
No	 -28.51054542	 38.69288307	 -30.54701295
No	 -26.47407789	 36.65641554	 -30.54701295
No	 -26.47407789	 38.69288307	 -32.58348048
No	 -28.51054542	 36.65641554	 -28.51054542
No	 -28.51054542	 38.69288307	 -26.47407789
No	 -26.47407789	 36.65641554	 -26.47407789
No	 -26.47407789	 38.69288307	 -28.51054542
No	 -28.51054542	 36.65641554	 -24.43761036
No	 -28.51054542	 38.69288307	 -22.40114283
No	 -26.47407789	 36.65641554	 -22.40114283
No	 -26.47407789	 38.69288307	 -24.43761036
No	 -28.51054542	 36.65641554	 -20.36467530
No	 -28.51054542	 38.69288307	 -18.32820777
No	 -26.47407789	 36.65641554	 -18.32820777
No	 -26.47407789	 38.69288307	 -20.36467530
No	 -28.51054542	 36.65641554	 -16.29174024
No	 -28.51054542	 38.69288307	 -14.25527271
No	 -26.47407789	 36.65641554	 -14.25527271
No	 -26.47407789	 38.69288307	 -16.29174024
No	 -28.51054542	 36.65641554	 -12.21880518
No	 -28.51054542	 38.69288307	 -10.18233765
No	 -26.47407789	 36.65641554	 -10.18233765
No	 -26.47407789	 38.69288307	 -12.21880518
No	 -28.51054542	 36.65641554	 -8.14587012
No	 -28.51054542	 36.65641554	 8.14587012
No	 -28.51054542	 38.69288307	 10.18233765
No	 -26.47407789	 36.65641554	 10.18233765
No	 -28.51054542	 36.65641554	 12.21880518
No	 -28.51054542	 38.69288307	 14.25527271
No	 -26.47407789	 36.65641554	 14.25527271
No	 -26.47407789	 38.69288307	 12.21880518
No	 -28.51054542	 36.65641554	 16.29174024
No	 -28.51054542	 38.69288307	 18.32820777
No	 -26.47407789	 36.65641554	 18.32820777
No	 -26.47407789	 38.69288307	 16.29174024
No	 -28.51054542	 36.65641554	 20.36467530
No	 -28.51054542	 38.69288307	 22.40114283
No	 -26.47407789	 36.65641554	 22.40114283
No	 -26.47407789	 38.69288307	 20.36467530
No	 -28.51054542	 36.65641554	 24.43761036
No	 -28.51054542	 38.69288307	 26.47407789
No	 -26.47407789	 36.65641554	 26.47407789
No	 -26.47407789	 38.69288307	 24.43761036
No	 -28.51054542	 36.65641554	 28.51054542
No	 -28.51054542	 38.69288307	 30.54701295
No	 -26.47407789	 36.65641554	 30.54701295
No	 -26.47407789	 38.69288307	 28.51054542
No	 -28.51054542	 36.65641554	 32.58348048
No	 -28.51054542	 38.69288307	 34.61994801
No	 -26.47407789	 36.65641554	 34.61994801
No	 -26.47407789	 38.69288307	 32.58348048
No	 -28.51054542	 36.65641554	 36.65641554
No	 -28.51054542	 38.69288307	 38.69288307
No	 -26.47407789	 36.65641554	 38.69288307
No	 -26.47407789	 38.69288307	 36.65641554
Co	 -24.43761036	 -40.72935060	 -40.72935060
No	 -24.43761036	 -38.69288307	 -38.69288307
Co	 -22.40114283	 -40.72935060	 -38.69288307
Co	 -22.40114283	 -38.69288307	 -40.72935060
Co	 -24.43761036	 -40.72935060	 -36.65641554
No	 -24.43761036	 -38.69288307	 -34.61994801
Co	 -22.40114283	 -40.72935060	 -34.61994801
No	 -22.40114283	 -38.69288307	 -36.65641554
Co	 -24.43761036	 -40.72935060	 -32.58348048
No	 -24.43761036	 -38.69288307	 -30.54701295
Co	 -22.40114283	 -40.72935060	 -30.54701295
No	 -22.40114283	 -38.69288307	 -32.58348048
Co	 -24.43761036	 -40.72935060	 -28.51054542
No	 -24.43761036	 -38.69288307	 -26.47407789
Co	 -22.40114283	 -40.72935060	 -26.47407789
No	 -22.40114283	 -38.69288307	 -28.51054542
Co	 -24.43761036	 -40.72935060	 -24.43761036
No	 -24.43761036	 -38.69288307	 -22.40114283
Co	 -22.40114283	 -40.72935060	 -22.40114283
No	 -22.40114283	 -38.69288307	 -24.43761036
Co	 -24.43761036	 -40.72935060	 -20.36467530
No	 -24.43761036	 -38.69288307	 -18.32820777
Co	 -22.40114283	 -40.72935060	 -18.32820777
No	 -22.40114283	 -38.69288307	 -20.36467530
Co	 -24.43761036	 -40.72935060	 -16.29174024
No	 -24.43761036	 -38.69288307	 -14.25527271
Co	 -22.40114283	 -40.72935060	 -14.25527271
No	 -22.40114283	 -38.69288307	 -16.29174024
Co	 -24.43761036	 -40.72935060	 -12.21880518
Co	 -24.43761036	 -40.72935060	 12.21880518
No	 -24.43761036	 -38.69288307	 14.25527271
Co	 -22.40114283	 -40.72935060	 14.25527271
Co	 -24.43761036	 -40.72935060	 16.29174024
No	 -24.43761036	 -38.69288307	 18.32820777
Co	 -22.40114283	 -40.72935060	 18.32820777
No	 -22.40114283	 -38.69288307	 16.29174024
Co	 -24.43761036	 -40.72935060	 20.36467530
No	 -24.43761036	 -38.69288307	 22.40114283
Co	 -22.40114283	 -40.72935060	 22.40114283
No	 -22.40114283	 -38.69288307	 20.36467530
Co	 -24.43761036	 -40.72935060	 24.43761036
No	 -24.43761036	 -38.69288307	 26.47407789
Co	 -22.40114283	 -40.72935060	 26.47407789
No	 -22.40114283	 -38.69288307	 24.43761036
Co	 -24.43761036	 -40.72935060	 28.51054542
No	 -24.43761036	 -38.69288307	 30.54701295
Co	 -22.40114283	 -40.72935060	 30.54701295
No	 -22.40114283	 -38.69288307	 28.51054542
Co	 -24.43761036	 -40.72935060	 32.58348048
No	 -24.43761036	 -38.69288307	 34.61994801
Co	 -22.40114283	 -40.72935060	 34.61994801
No	 -22.40114283	 -38.69288307	 32.58348048
Co	 -24.43761036	 -40.72935060	 36.65641554
No	 -24.43761036	 -38.69288307	 38.69288307
Co	 -22.40114283	 -40.72935060	 38.69288307
No	 -22.40114283	 -38.69288307	 36.65641554
Co	 -24.43761036	 -36.65641554	 -40.72935060
No	 -24.43761036	 -34.61994801	 -38.69288307
No	 -22.40114283	 -36.65641554	 -38.69288307
Co	 -22.40114283	 -34.61994801	 -40.72935060
No	 -24.43761036	 -36.65641554	 -36.65641554
No	 -24.43761036	 -34.61994801	 -34.61994801
No	 -22.40114283	 -36.65641554	 -34.61994801
No	 -22.40114283	 -34.61994801	 -36.65641554
No	 -24.43761036	 -36.65641554	 -32.58348048
No	 -24.43761036	 -34.61994801	 -30.54701295
No	 -22.40114283	 -36.65641554	 -30.54701295
No	 -22.40114283	 -34.61994801	 -32.58348048
No	 -24.43761036	 -36.65641554	 -28.51054542
No	 -24.43761036	 -34.61994801	 -26.47407789
No	 -22.40114283	 -36.65641554	 -26.47407789
No	 -22.40114283	 -34.61994801	 -28.51054542
No	 -24.43761036	 -36.65641554	 -24.43761036
No	 -24.43761036	 -34.61994801	 -22.40114283
No	 -22.40114283	 -36.65641554	 -22.40114283
No	 -22.40114283	 -34.61994801	 -24.43761036
No	 -24.43761036	 -36.65641554	 -20.36467530
No	 -24.43761036	 -34.61994801	 -18.32820777
No	 -22.40114283	 -36.65641554	 -18.32820777
No	 -22.40114283	 -34.61994801	 -20.36467530
No	 -24.43761036	 -36.65641554	 -16.29174024
No	 -24.43761036	 -34.61994801	 -14.25527271
No	 -22.40114283	 -36.65641554	 -14.25527271
No	 -22.40114283	 -34.61994801	 -16.29174024
No	 -24.43761036	 -36.65641554	 -12.21880518
No	 -24.43761036	 -34.61994801	 -10.18233765
No	 -22.40114283	 -34.61994801	 -12.21880518
No	 -24.43761036	 -34.61994801	 10.18233765
No	 -24.43761036	 -36.65641554	 12.21880518
No	 -24.43761036	 -34.61994801	 14.25527271
No	 -22.40114283	 -36.65641554	 14.25527271
No	 -22.40114283	 -34.61994801	 12.21880518
No	 -24.43761036	 -36.65641554	 16.29174024
No	 -24.43761036	 -34.61994801	 18.32820777
No	 -22.40114283	 -36.65641554	 18.32820777
No	 -22.40114283	 -34.61994801	 16.29174024
No	 -24.43761036	 -36.65641554	 20.36467530
No	 -24.43761036	 -34.61994801	 22.40114283
No	 -22.40114283	 -36.65641554	 22.40114283
No	 -22.40114283	 -34.61994801	 20.36467530
No	 -24.43761036	 -36.65641554	 24.43761036
No	 -24.43761036	 -34.61994801	 26.47407789
No	 -22.40114283	 -36.65641554	 26.47407789
No	 -22.40114283	 -34.61994801	 24.43761036
No	 -24.43761036	 -36.65641554	 28.51054542
No	 -24.43761036	 -34.61994801	 30.54701295
No	 -22.40114283	 -36.65641554	 30.54701295
No	 -22.40114283	 -34.61994801	 28.51054542
No	 -24.43761036	 -36.65641554	 32.58348048
No	 -24.43761036	 -34.61994801	 34.61994801
No	 -22.40114283	 -36.65641554	 34.61994801
No	 -22.40114283	 -34.61994801	 32.58348048
No	 -24.43761036	 -36.65641554	 36.65641554
No	 -24.43761036	 -34.61994801	 38.69288307
No	 -22.40114283	 -36.65641554	 38.69288307
No	 -22.40114283	 -34.61994801	 36.65641554
Co	 -24.43761036	 -32.58348048	 -40.72935060
No	 -24.43761036	 -30.54701295	 -38.69288307
No	 -22.40114283	 -32.58348048	 -38.69288307
Co	 -22.40114283	 -30.54701295	 -40.72935060
No	 -24.43761036	 -32.58348048	 -36.65641554
No	 -24.43761036	 -30.54701295	 -34.61994801
No	 -22.40114283	 -32.58348048	 -34.61994801
No	 -22.40114283	 -30.54701295	 -36.65641554
No	 -24.43761036	 -32.58348048	 -32.58348048
No	 -24.43761036	 -30.54701295	 -30.54701295
No	 -22.40114283	 -32.58348048	 -30.54701295
No	 -22.40114283	 -30.54701295	 -32.58348048
No	 -24.43761036	 -32.58348048	 -28.51054542
No	 -24.43761036	 -30.54701295	 -26.47407789
No	 -22.40114283	 -32.58348048	 -26.47407789
No	 -22.40114283	 -30.54701295	 -28.51054542
No	 -24.43761036	 -32.58348048	 -24.43761036
No	 -24.43761036	 -30.54701295	 -22.40114283
No	 -22.40114283	 -32.58348048	 -22.40114283
No	 -22.40114283	 -30.54701295	 -24.43761036
No	 -24.43761036	 -32.58348048	 -20.36467530
No	 -24.43761036	 -30.54701295	 -18.32820777
No	 -22.40114283	 -32.58348048	 -18.32820777
No	 -22.40114283	 -30.54701295	 -20.36467530
No	 -24.43761036	 -32.58348048	 -16.29174024
No	 -24.43761036	 -30.54701295	 -14.25527271
No	 -22.40114283	 -32.58348048	 -14.25527271
No	 -22.40114283	 -30.54701295	 -16.29174024
No	 -24.43761036	 -32.58348048	 -12.21880518
No	 -24.43761036	 -30.54701295	 -10.18233765
No	 -22.40114283	 -32.58348048	 -10.18233765
No	 -22.40114283	 -30.54701295	 -12.21880518
No	 -24.43761036	 -32.58348048	 -8.14587012
No	 -24.43761036	 -30.54701295	 -6.10940259
No	 -22.40114283	 -30.54701295	 -8.14587012
No	 -24.43761036	 -30.54701295	 6.10940259
No	 -24.43761036	 -32.58348048	 8.14587012
No	 -24.43761036	 -30.54701295	 10.18233765
No	 -22.40114283	 -32.58348048	 10.18233765
No	 -22.40114283	 -30.54701295	 8.14587012
No	 -24.43761036	 -32.58348048	 12.21880518
No	 -24.43761036	 -30.54701295	 14.25527271
No	 -22.40114283	 -32.58348048	 14.25527271
No	 -22.40114283	 -30.54701295	 12.21880518
No	 -24.43761036	 -32.58348048	 16.29174024
No	 -24.43761036	 -30.54701295	 18.32820777
No	 -22.40114283	 -32.58348048	 18.32820777
No	 -22.40114283	 -30.54701295	 16.29174024
No	 -24.43761036	 -32.58348048	 20.36467530
No	 -24.43761036	 -30.54701295	 22.40114283
No	 -22.40114283	 -32.58348048	 22.40114283
No	 -22.40114283	 -30.54701295	 20.36467530
No	 -24.43761036	 -32.58348048	 24.43761036
No	 -24.43761036	 -30.54701295	 26.47407789
No	 -22.40114283	 -32.58348048	 26.47407789
No	 -22.40114283	 -30.54701295	 24.43761036
No	 -24.43761036	 -32.58348048	 28.51054542
No	 -24.43761036	 -30.54701295	 30.54701295
No	 -22.40114283	 -32.58348048	 30.54701295
No	 -22.40114283	 -30.54701295	 28.51054542
No	 -24.43761036	 -32.58348048	 32.58348048
No	 -24.43761036	 -30.54701295	 34.61994801
No	 -22.40114283	 -32.58348048	 34.61994801
No	 -22.40114283	 -30.54701295	 32.58348048
No	 -24.43761036	 -32.58348048	 36.65641554
No	 -24.43761036	 -30.54701295	 38.69288307
No	 -22.40114283	 -32.58348048	 38.69288307
No	 -22.40114283	 -30.54701295	 36.65641554
Co	 -24.43761036	 -28.51054542	 -40.72935060
No	 -24.43761036	 -26.47407789	 -38.69288307
No	 -22.40114283	 -28.51054542	 -38.69288307
Co	 -22.40114283	 -26.47407789	 -40.72935060
No	 -24.43761036	 -28.51054542	 -36.65641554
No	 -24.43761036	 -26.47407789	 -34.61994801
No	 -22.40114283	 -28.51054542	 -34.61994801
No	 -22.40114283	 -26.47407789	 -36.65641554
No	 -24.43761036	 -28.51054542	 -32.58348048
No	 -24.43761036	 -26.47407789	 -30.54701295
No	 -22.40114283	 -28.51054542	 -30.54701295
No	 -22.40114283	 -26.47407789	 -32.58348048
No	 -24.43761036	 -28.51054542	 -28.51054542
No	 -24.43761036	 -26.47407789	 -26.47407789
No	 -22.40114283	 -28.51054542	 -26.47407789
No	 -22.40114283	 -26.47407789	 -28.51054542
No	 -24.43761036	 -28.51054542	 -24.43761036
No	 -24.43761036	 -26.47407789	 -22.40114283
No	 -22.40114283	 -28.51054542	 -22.40114283
No	 -22.40114283	 -26.47407789	 -24.43761036
No	 -24.43761036	 -28.51054542	 -20.36467530
No	 -24.43761036	 -26.47407789	 -18.32820777
No	 -22.40114283	 -28.51054542	 -18.32820777
No	 -22.40114283	 -26.47407789	 -20.36467530
No	 -24.43761036	 -28.51054542	 -16.29174024
No	 -24.43761036	 -26.47407789	 -14.25527271
No	 -22.40114283	 -28.51054542	 -14.25527271
No	 -22.40114283	 -26.47407789	 -16.29174024
No	 -24.43761036	 -28.51054542	 -12.21880518
No	 -24.43761036	 -26.47407789	 -10.18233765
No	 -22.40114283	 -28.51054542	 -10.18233765
No	 -22.40114283	 -26.47407789	 -12.21880518
No	 -24.43761036	 -28.51054542	 -8.14587012
No	 -24.43761036	 -26.47407789	 -6.10940259
No	 -22.40114283	 -28.51054542	 -6.10940259
No	 -22.40114283	 -26.47407789	 -8.14587012
No	 -24.43761036	 -28.51054542	 -4.07293506
No	 -24.43761036	 -26.47407789	 -2.03646753
No	 -22.40114283	 -26.47407789	 -4.07293506
No	 -24.43761036	 -26.47407789	 2.03646753
No	 -24.43761036	 -28.51054542	 4.07293506
No	 -24.43761036	 -26.47407789	 6.10940259
No	 -22.40114283	 -28.51054542	 6.10940259
No	 -22.40114283	 -26.47407789	 4.07293506
No	 -24.43761036	 -28.51054542	 8.14587012
No	 -24.43761036	 -26.47407789	 10.18233765
No	 -22.40114283	 -28.51054542	 10.18233765
No	 -22.40114283	 -26.47407789	 8.14587012
No	 -24.43761036	 -28.51054542	 12.21880518
No	 -24.43761036	 -26.47407789	 14.25527271
No	 -22.40114283	 -28.51054542	 14.25527271
No	 -22.40114283	 -26.47407789	 12.21880518
No	 -24.43761036	 -28.51054542	 16.29174024
No	 -24.43761036	 -26.47407789	 18.32820777
No	 -22.40114283	 -28.51054542	 18.32820777
No	 -22.40114283	 -26.47407789	 16.29174024
No	 -24.43761036	 -28.51054542	 20.36467530
No	 -24.43761036	 -26.47407789	 22.40114283
No	 -22.40114283	 -28.51054542	 22.40114283
No	 -22.40114283	 -26.47407789	 20.36467530
No	 -24.43761036	 -28.51054542	 24.43761036
No	 -24.43761036	 -26.47407789	 26.47407789
No	 -22.40114283	 -28.51054542	 26.47407789
No	 -22.40114283	 -26.47407789	 24.43761036
No	 -24.43761036	 -28.51054542	 28.51054542
No	 -24.43761036	 -26.47407789	 30.54701295
No	 -22.40114283	 -28.51054542	 30.54701295
No	 -22.40114283	 -26.47407789	 28.51054542
No	 -24.43761036	 -28.51054542	 32.58348048
No	 -24.43761036	 -26.47407789	 34.61994801
No	 -22.40114283	 -28.51054542	 34.61994801
No	 -22.40114283	 -26.47407789	 32.58348048
No	 -24.43761036	 -28.51054542	 36.65641554
No	 -24.43761036	 -26.47407789	 38.69288307
No	 -22.40114283	 -28.51054542	 38.69288307
No	 -22.40114283	 -26.47407789	 36.65641554
Co	 -24.43761036	 -24.43761036	 -40.72935060
No	 -24.43761036	 -22.40114283	 -38.69288307
No	 -22.40114283	 -24.43761036	 -38.69288307
Co	 -22.40114283	 -22.40114283	 -40.72935060
No	 -24.43761036	 -24.43761036	 -36.65641554
No	 -24.43761036	 -22.40114283	 -34.61994801
No	 -22.40114283	 -24.43761036	 -34.61994801
No	 -22.40114283	 -22.40114283	 -36.65641554
No	 -24.43761036	 -24.43761036	 -32.58348048
No	 -24.43761036	 -22.40114283	 -30.54701295
No	 -22.40114283	 -24.43761036	 -30.54701295
No	 -22.40114283	 -22.40114283	 -32.58348048
No	 -24.43761036	 -24.43761036	 -28.51054542
No	 -24.43761036	 -22.40114283	 -26.47407789
No	 -22.40114283	 -24.43761036	 -26.47407789
No	 -22.40114283	 -22.40114283	 -28.51054542
No	 -24.43761036	 -24.43761036	 -24.43761036
No	 -24.43761036	 -22.40114283	 -22.40114283
No	 -22.40114283	 -24.43761036	 -22.40114283
No	 -22.40114283	 -22.40114283	 -24.43761036
No	 -24.43761036	 -24.43761036	 -20.36467530
No	 -24.43761036	 -22.40114283	 -18.32820777
No	 -22.40114283	 -24.43761036	 -18.32820777
No	 -22.40114283	 -22.40114283	 -20.36467530
No	 -24.43761036	 -24.43761036	 -16.29174024
No	 -24.43761036	 -22.40114283	 -14.25527271
No	 -22.40114283	 -24.43761036	 -14.25527271
No	 -22.40114283	 -22.40114283	 -16.29174024
No	 -24.43761036	 -24.43761036	 -12.21880518
No	 -24.43761036	 -22.40114283	 -10.18233765
No	 -22.40114283	 -24.43761036	 -10.18233765
No	 -22.40114283	 -22.40114283	 -12.21880518
No	 -24.43761036	 -24.43761036	 -8.14587012
No	 -24.43761036	 -22.40114283	 -6.10940259
No	 -22.40114283	 -24.43761036	 -6.10940259
No	 -22.40114283	 -22.40114283	 -8.14587012
No	 -24.43761036	 -24.43761036	 -4.07293506
No	 -24.43761036	 -22.40114283	 -2.03646753
No	 -22.40114283	 -24.43761036	 -2.03646753
No	 -22.40114283	 -22.40114283	 -4.07293506
No	 -24.43761036	 -24.43761036	 -0.00000000
No	 -24.43761036	 -22.40114283	 2.03646753
No	 -22.40114283	 -24.43761036	 2.03646753
No	 -22.40114283	 -22.40114283	 -0.00000000
No	 -24.43761036	 -24.43761036	 4.07293506
No	 -24.43761036	 -22.40114283	 6.10940259
No	 -22.40114283	 -24.43761036	 6.10940259
No	 -22.40114283	 -22.40114283	 4.07293506
No	 -24.43761036	 -24.43761036	 8.14587012
No	 -24.43761036	 -22.40114283	 10.18233765
No	 -22.40114283	 -24.43761036	 10.18233765
No	 -22.40114283	 -22.40114283	 8.14587012
No	 -24.43761036	 -24.43761036	 12.21880518
No	 -24.43761036	 -22.40114283	 14.25527271
No	 -22.40114283	 -24.43761036	 14.25527271
No	 -22.40114283	 -22.40114283	 12.21880518
No	 -24.43761036	 -24.43761036	 16.29174024
No	 -24.43761036	 -22.40114283	 18.32820777
No	 -22.40114283	 -24.43761036	 18.32820777
No	 -22.40114283	 -22.40114283	 16.29174024
No	 -24.43761036	 -24.43761036	 20.36467530
No	 -24.43761036	 -22.40114283	 22.40114283
No	 -22.40114283	 -24.43761036	 22.40114283
No	 -22.40114283	 -22.40114283	 20.36467530
No	 -24.43761036	 -24.43761036	 24.43761036
No	 -24.43761036	 -22.40114283	 26.47407789
No	 -22.40114283	 -24.43761036	 26.47407789
No	 -22.40114283	 -22.40114283	 24.43761036
No	 -24.43761036	 -24.43761036	 28.51054542
No	 -24.43761036	 -22.40114283	 30.54701295
No	 -22.40114283	 -24.43761036	 30.54701295
No	 -22.40114283	 -22.40114283	 28.51054542
No	 -24.43761036	 -24.43761036	 32.58348048
No	 -24.43761036	 -22.40114283	 34.61994801
No	 -22.40114283	 -24.43761036	 34.61994801
No	 -22.40114283	 -22.40114283	 32.58348048
No	 -24.43761036	 -24.43761036	 36.65641554
No	 -24.43761036	 -22.40114283	 38.69288307
No	 -22.40114283	 -24.43761036	 38.69288307
No	 -22.40114283	 -22.40114283	 36.65641554
Co	 -24.43761036	 -20.36467530	 -40.72935060
No	 -24.43761036	 -18.32820777	 -38.69288307
No	 -22.40114283	 -20.36467530	 -38.69288307
Co	 -22.40114283	 -18.32820777	 -40.72935060
No	 -24.43761036	 -20.36467530	 -36.65641554
No	 -24.43761036	 -18.32820777	 -34.61994801
No	 -22.40114283	 -20.36467530	 -34.61994801
No	 -22.40114283	 -18.32820777	 -36.65641554
No	 -24.43761036	 -20.36467530	 -32.58348048
No	 -24.43761036	 -18.32820777	 -30.54701295
No	 -22.40114283	 -20.36467530	 -30.54701295
No	 -22.40114283	 -18.32820777	 -32.58348048
No	 -24.43761036	 -20.36467530	 -28.51054542
No	 -24.43761036	 -18.32820777	 -26.47407789
No	 -22.40114283	 -20.36467530	 -26.47407789
No	 -22.40114283	 -18.32820777	 -28.51054542
No	 -24.43761036	 -20.36467530	 -24.43761036
No	 -24.43761036	 -18.32820777	 -22.40114283
No	 -22.40114283	 -20.36467530	 -22.40114283
No	 -22.40114283	 -18.32820777	 -24.43761036
No	 -24.43761036	 -20.36467530	 -20.36467530
No	 -24.43761036	 -18.32820777	 -18.32820777
No	 -22.40114283	 -20.36467530	 -18.32820777
No	 -22.40114283	 -18.32820777	 -20.36467530
No	 -24.43761036	 -20.36467530	 -16.29174024
No	 -24.43761036	 -18.32820777	 -14.25527271
No	 -22.40114283	 -20.36467530	 -14.25527271
No	 -22.40114283	 -18.32820777	 -16.29174024
No	 -24.43761036	 -20.36467530	 -12.21880518
No	 -24.43761036	 -18.32820777	 -10.18233765
No	 -22.40114283	 -20.36467530	 -10.18233765
No	 -22.40114283	 -18.32820777	 -12.21880518
No	 -24.43761036	 -20.36467530	 -8.14587012
No	 -24.43761036	 -18.32820777	 -6.10940259
No	 -22.40114283	 -20.36467530	 -6.10940259
No	 -22.40114283	 -18.32820777	 -8.14587012
No	 -24.43761036	 -20.36467530	 -4.07293506
No	 -22.40114283	 -20.36467530	 -2.03646753
No	 -22.40114283	 -18.32820777	 -4.07293506
No	 -22.40114283	 -20.36467530	 2.03646753
No	 -24.43761036	 -20.36467530	 4.07293506
No	 -24.43761036	 -18.32820777	 6.10940259
No	 -22.40114283	 -20.36467530	 6.10940259
No	 -22.40114283	 -18.32820777	 4.07293506
No	 -24.43761036	 -20.36467530	 8.14587012
No	 -24.43761036	 -18.32820777	 10.18233765
No	 -22.40114283	 -20.36467530	 10.18233765
No	 -22.40114283	 -18.32820777	 8.14587012
No	 -24.43761036	 -20.36467530	 12.21880518
No	 -24.43761036	 -18.32820777	 14.25527271
No	 -22.40114283	 -20.36467530	 14.25527271
No	 -22.40114283	 -18.32820777	 12.21880518
No	 -24.43761036	 -20.36467530	 16.29174024
No	 -24.43761036	 -18.32820777	 18.32820777
No	 -22.40114283	 -20.36467530	 18.32820777
No	 -22.40114283	 -18.32820777	 16.29174024
No	 -24.43761036	 -20.36467530	 20.36467530
No	 -24.43761036	 -18.32820777	 22.40114283
No	 -22.40114283	 -20.36467530	 22.40114283
No	 -22.40114283	 -18.32820777	 20.36467530
No	 -24.43761036	 -20.36467530	 24.43761036
No	 -24.43761036	 -18.32820777	 26.47407789
No	 -22.40114283	 -20.36467530	 26.47407789
No	 -22.40114283	 -18.32820777	 24.43761036
No	 -24.43761036	 -20.36467530	 28.51054542
No	 -24.43761036	 -18.32820777	 30.54701295
No	 -22.40114283	 -20.36467530	 30.54701295
No	 -22.40114283	 -18.32820777	 28.51054542
No	 -24.43761036	 -20.36467530	 32.58348048
No	 -24.43761036	 -18.32820777	 34.61994801
No	 -22.40114283	 -20.36467530	 34.61994801
No	 -22.40114283	 -18.32820777	 32.58348048
No	 -24.43761036	 -20.36467530	 36.65641554
No	 -24.43761036	 -18.32820777	 38.69288307
No	 -22.40114283	 -20.36467530	 38.69288307
No	 -22.40114283	 -18.32820777	 36.65641554
Co	 -24.43761036	 -16.29174024	 -40.72935060
No	 -24.43761036	 -14.25527271	 -38.69288307
No	 -22.40114283	 -16.29174024	 -38.69288307
Co	 -22.40114283	 -14.25527271	 -40.72935060
No	 -24.43761036	 -16.29174024	 -36.65641554
No	 -24.43761036	 -14.25527271	 -34.61994801
No	 -22.40114283	 -16.29174024	 -34.61994801
No	 -22.40114283	 -14.25527271	 -36.65641554
No	 -24.43761036	 -16.29174024	 -32.58348048
No	 -24.43761036	 -14.25527271	 -30.54701295
No	 -22.40114283	 -16.29174024	 -30.54701295
No	 -22.40114283	 -14.25527271	 -32.58348048
No	 -24.43761036	 -16.29174024	 -28.51054542
No	 -24.43761036	 -14.25527271	 -26.47407789
No	 -22.40114283	 -16.29174024	 -26.47407789
No	 -22.40114283	 -14.25527271	 -28.51054542
No	 -24.43761036	 -16.29174024	 -24.43761036
No	 -24.43761036	 -14.25527271	 -22.40114283
No	 -22.40114283	 -16.29174024	 -22.40114283
No	 -22.40114283	 -14.25527271	 -24.43761036
No	 -24.43761036	 -16.29174024	 -20.36467530
No	 -24.43761036	 -14.25527271	 -18.32820777
No	 -22.40114283	 -16.29174024	 -18.32820777
No	 -22.40114283	 -14.25527271	 -20.36467530
No	 -24.43761036	 -16.29174024	 -16.29174024
No	 -24.43761036	 -14.25527271	 -14.25527271
No	 -22.40114283	 -16.29174024	 -14.25527271
No	 -22.40114283	 -14.25527271	 -16.29174024
No	 -24.43761036	 -16.29174024	 -12.21880518
No	 -24.43761036	 -14.25527271	 -10.18233765
No	 -22.40114283	 -16.29174024	 -10.18233765
No	 -22.40114283	 -14.25527271	 -12.21880518
No	 -24.43761036	 -16.29174024	 -8.14587012
No	 -22.40114283	 -16.29174024	 -6.10940259
No	 -22.40114283	 -14.25527271	 -8.14587012
No	 -22.40114283	 -16.29174024	 6.10940259
No	 -24.43761036	 -16.29174024	 8.14587012
No	 -24.43761036	 -14.25527271	 10.18233765
No	 -22.40114283	 -16.29174024	 10.18233765
No	 -22.40114283	 -14.25527271	 8.14587012
No	 -24.43761036	 -16.29174024	 12.21880518
No	 -24.43761036	 -14.25527271	 14.25527271
No	 -22.40114283	 -16.29174024	 14.25527271
No	 -22.40114283	 -14.25527271	 12.21880518
No	 -24.43761036	 -16.29174024	 16.29174024
No	 -24.43761036	 -14.25527271	 18.32820777
No	 -22.40114283	 -16.29174024	 18.32820777
No	 -22.40114283	 -14.25527271	 16.29174024
No	 -24.43761036	 -16.29174024	 20.36467530
No	 -24.43761036	 -14.25527271	 22.40114283
No	 -22.40114283	 -16.29174024	 22.40114283
No	 -22.40114283	 -14.25527271	 20.36467530
No	 -24.43761036	 -16.29174024	 24.43761036
No	 -24.43761036	 -14.25527271	 26.47407789
No	 -22.40114283	 -16.29174024	 26.47407789
No	 -22.40114283	 -14.25527271	 24.43761036
No	 -24.43761036	 -16.29174024	 28.51054542
No	 -24.43761036	 -14.25527271	 30.54701295
No	 -22.40114283	 -16.29174024	 30.54701295
No	 -22.40114283	 -14.25527271	 28.51054542
No	 -24.43761036	 -16.29174024	 32.58348048
No	 -24.43761036	 -14.25527271	 34.61994801
No	 -22.40114283	 -16.29174024	 34.61994801
No	 -22.40114283	 -14.25527271	 32.58348048
No	 -24.43761036	 -16.29174024	 36.65641554
No	 -24.43761036	 -14.25527271	 38.69288307
No	 -22.40114283	 -16.29174024	 38.69288307
No	 -22.40114283	 -14.25527271	 36.65641554
Co	 -24.43761036	 -12.21880518	 -40.72935060
No	 -24.43761036	 -12.21880518	 -36.65641554
No	 -24.43761036	 -10.18233765	 -34.61994801
No	 -22.40114283	 -12.21880518	 -34.61994801
No	 -24.43761036	 -12.21880518	 -32.58348048
No	 -24.43761036	 -10.18233765	 -30.54701295
No	 -22.40114283	 -12.21880518	 -30.54701295
No	 -22.40114283	 -10.18233765	 -32.58348048
No	 -24.43761036	 -12.21880518	 -28.51054542
No	 -24.43761036	 -10.18233765	 -26.47407789
No	 -22.40114283	 -12.21880518	 -26.47407789
No	 -22.40114283	 -10.18233765	 -28.51054542
No	 -24.43761036	 -12.21880518	 -24.43761036
No	 -24.43761036	 -10.18233765	 -22.40114283
No	 -22.40114283	 -12.21880518	 -22.40114283
No	 -22.40114283	 -10.18233765	 -24.43761036
No	 -24.43761036	 -12.21880518	 -20.36467530
No	 -24.43761036	 -10.18233765	 -18.32820777
No	 -22.40114283	 -12.21880518	 -18.32820777
No	 -22.40114283	 -10.18233765	 -20.36467530
No	 -24.43761036	 -12.21880518	 -16.29174024
No	 -24.43761036	 -10.18233765	 -14.25527271
No	 -22.40114283	 -12.21880518	 -14.25527271
No	 -22.40114283	 -10.18233765	 -16.29174024
No	 -24.43761036	 -12.21880518	 -12.21880518
No	 -22.40114283	 -12.21880518	 -10.18233765
No	 -22.40114283	 -10.18233765	 -12.21880518
No	 -22.40114283	 -12.21880518	 10.18233765
No	 -24.43761036	 -12.21880518	 12.21880518
No	 -24.43761036	 -10.18233765	 14.25527271
No	 -22.40114283	 -12.21880518	 14.25527271
No	 -22.40114283	 -10.18233765	 12.21880518
No	 -24.43761036	 -12.21880518	 16.29174024
No	 -24.43761036	 -10.18233765	 18.32820777
No	 -22.40114283	 -12.21880518	 18.32820777
No	 -22.40114283	 -10.18233765	 16.29174024
No	 -24.43761036	 -12.21880518	 20.36467530
No	 -24.43761036	 -10.18233765	 22.40114283
No	 -22.40114283	 -12.21880518	 22.40114283
No	 -22.40114283	 -10.18233765	 20.36467530
No	 -24.43761036	 -12.21880518	 24.43761036
No	 -24.43761036	 -10.18233765	 26.47407789
No	 -22.40114283	 -12.21880518	 26.47407789
No	 -22.40114283	 -10.18233765	 24.43761036
No	 -24.43761036	 -12.21880518	 28.51054542
No	 -24.43761036	 -10.18233765	 30.54701295
No	 -22.40114283	 -12.21880518	 30.54701295
No	 -22.40114283	 -10.18233765	 28.51054542
No	 -24.43761036	 -12.21880518	 32.58348048
No	 -24.43761036	 -10.18233765	 34.61994801
No	 -22.40114283	 -12.21880518	 34.61994801
No	 -22.40114283	 -10.18233765	 32.58348048
No	 -24.43761036	 -12.21880518	 36.65641554
No	 -24.43761036	 -8.14587012	 -32.58348048
No	 -24.43761036	 -6.10940259	 -30.54701295
No	 -22.40114283	 -8.14587012	 -30.54701295
No	 -24.43761036	 -8.14587012	 -28.51054542
No	 -24.43761036	 -6.10940259	 -26.47407789
No	 -22.40114283	 -8.14587012	 -26.47407789
No	 -22.40114283	 -6.10940259	 -28.51054542
No	 -24.43761036	 -8.14587012	 -24.43761036
No	 -24.43761036	 -6.10940259	 -22.40114283
No	 -22.40114283	 -8.14587012	 -22.40114283
No	 -22.40114283	 -6.10940259	 -24.43761036
No	 -24.43761036	 -8.14587012	 -20.36467530
No	 -24.43761036	 -6.10940259	 -18.32820777
No	 -22.40114283	 -8.14587012	 -18.32820777
No	 -22.40114283	 -6.10940259	 -20.36467530
No	 -24.43761036	 -8.14587012	 -16.29174024
No	 -22.40114283	 -8.14587012	 -14.25527271
No	 -22.40114283	 -6.10940259	 -16.29174024
No	 -22.40114283	 -8.14587012	 14.25527271
No	 -24.43761036	 -8.14587012	 16.29174024
No	 -24.43761036	 -6.10940259	 18.32820777
No	 -22.40114283	 -8.14587012	 18.32820777
No	 -22.40114283	 -6.10940259	 16.29174024
No	 -24.43761036	 -8.14587012	 20.36467530
No	 -24.43761036	 -6.10940259	 22.40114283
No	 -22.40114283	 -8.14587012	 22.40114283
No	 -22.40114283	 -6.10940259	 20.36467530
No	 -24.43761036	 -8.14587012	 24.43761036
No	 -24.43761036	 -6.10940259	 26.47407789
No	 -22.40114283	 -8.14587012	 26.47407789
No	 -22.40114283	 -6.10940259	 24.43761036
No	 -24.43761036	 -8.14587012	 28.51054542
No	 -24.43761036	 -6.10940259	 30.54701295
No	 -22.40114283	 -8.14587012	 30.54701295
No	 -22.40114283	 -6.10940259	 28.51054542
No	 -24.43761036	 -8.14587012	 32.58348048
No	 -24.43761036	 -4.07293506	 -28.51054542
No	 -24.43761036	 -2.03646753	 -26.47407789
No	 -22.40114283	 -4.07293506	 -26.47407789
No	 -24.43761036	 -4.07293506	 -24.43761036
No	 -24.43761036	 -2.03646753	 -22.40114283
No	 -22.40114283	 -4.07293506	 -22.40114283
No	 -22.40114283	 -2.03646753	 -24.43761036
No	 -24.43761036	 -4.07293506	 -20.36467530
No	 -22.40114283	 -4.07293506	 -18.32820777
No	 -22.40114283	 -2.03646753	 -20.36467530
No	 -22.40114283	 -4.07293506	 18.32820777
No	 -24.43761036	 -4.07293506	 20.36467530
No	 -24.43761036	 -2.03646753	 22.40114283
No	 -22.40114283	 -4.07293506	 22.40114283
No	 -22.40114283	 -2.03646753	 20.36467530
No	 -24.43761036	 -4.07293506	 24.43761036
No	 -24.43761036	 -2.03646753	 26.47407789
No	 -22.40114283	 -4.07293506	 26.47407789
No	 -22.40114283	 -2.03646753	 24.43761036
No	 -24.43761036	 -4.07293506	 28.51054542
No	 -24.43761036	 2.03646753	 -26.47407789
No	 -24.43761036	 -0.00000000	 -24.43761036
No	 -24.43761036	 2.03646753	 -22.40114283
No	 -22.40114283	 -0.00000000	 -22.40114283
No	 -22.40114283	 2.03646753	 -24.43761036
No	 -22.40114283	 2.03646753	 -20.36467530
No	 -24.43761036	 2.03646753	 22.40114283
No	 -22.40114283	 -0.00000000	 22.40114283
No	 -22.40114283	 2.03646753	 20.36467530
No	 -24.43761036	 -0.00000000	 24.43761036
No	 -24.43761036	 2.03646753	 26.47407789
No	 -22.40114283	 2.03646753	 24.43761036
No	 -24.43761036	 6.10940259	 -30.54701295
No	 -24.43761036	 4.07293506	 -28.51054542
No	 -24.43761036	 6.10940259	 -26.47407789
No	 -22.40114283	 4.07293506	 -26.47407789
No	 -22.40114283	 6.10940259	 -28.51054542
No	 -24.43761036	 4.07293506	 -24.43761036
No	 -24.43761036	 6.10940259	 -22.40114283
No	 -22.40114283	 4.07293506	 -22.40114283
No	 -22.40114283	 6.10940259	 -24.43761036
No	 -24.43761036	 4.07293506	 -20.36467530
No	 -24.43761036	 6.10940259	 -18.32820777
No	 -22.40114283	 4.07293506	 -18.32820777
No	 -22.40114283	 6.10940259	 -20.36467530
No	 -22.40114283	 6.10940259	 -16.29174024
No	 -24.43761036	 6.10940259	 18.32820777
No	 -22.40114283	 4.07293506	 18.32820777
No	 -22.40114283	 6.10940259	 16.29174024
No	 -24.43761036	 4.07293506	 20.36467530
No	 -24.43761036	 6.10940259	 22.40114283
No	 -22.40114283	 4.07293506	 22.40114283
No	 -22.40114283	 6.10940259	 20.36467530
No	 -24.43761036	 4.07293506	 24.43761036
No	 -24.43761036	 6.10940259	 26.47407789
No	 -22.40114283	 4.07293506	 26.47407789
No	 -22.40114283	 6.10940259	 24.43761036
No	 -24.43761036	 4.07293506	 28.51054542
No	 -24.43761036	 6.10940259	 30.54701295
No	 -22.40114283	 6.10940259	 28.51054542
No	 -24.43761036	 10.18233765	 -34.61994801
No	 -24.43761036	 8.14587012	 -32.58348048
No	 -24.43761036	 10.18233765	 -30.54701295
No	 -22.40114283	 8.14587012	 -30.54701295
No	 -22.40114283	 10.18233765	 -32.58348048
No	 -24.43761036	 8.14587012	 -28.51054542
No	 -24.43761036	 10.18233765	 -26.47407789
No	 -22.40114283	 8.14587012	 -26.47407789
No	 -22.40114283	 10.18233765	 -28.51054542
No	 -24.43761036	 8.14587012	 -24.43761036
No	 -24.43761036	 10.18233765	 -22.40114283
No	 -22.40114283	 8.14587012	 -22.40114283
No	 -22.40114283	 10.18233765	 -24.43761036
No	 -24.43761036	 8.14587012	 -20.36467530
No	 -24.43761036	 10.18233765	 -18.32820777
No	 -22.40114283	 8.14587012	 -18.32820777
No	 -22.40114283	 10.18233765	 -20.36467530
No	 -24.43761036	 8.14587012	 -16.29174024
No	 -24.43761036	 10.18233765	 -14.25527271
No	 -22.40114283	 8.14587012	 -14.25527271
No	 -22.40114283	 10.18233765	 -16.29174024
No	 -22.40114283	 10.18233765	 -12.21880518
No	 -24.43761036	 10.18233765	 14.25527271
No	 -22.40114283	 8.14587012	 14.25527271
No	 -22.40114283	 10.18233765	 12.21880518
No	 -24.43761036	 8.14587012	 16.29174024
No	 -24.43761036	 10.18233765	 18.32820777
No	 -22.40114283	 8.14587012	 18.32820777
No	 -22.40114283	 10.18233765	 16.29174024
No	 -24.43761036	 8.14587012	 20.36467530
No	 -24.43761036	 10.18233765	 22.40114283
No	 -22.40114283	 8.14587012	 22.40114283
No	 -22.40114283	 10.18233765	 20.36467530
No	 -24.43761036	 8.14587012	 24.43761036
No	 -24.43761036	 10.18233765	 26.47407789
No	 -22.40114283	 8.14587012	 26.47407789
No	 -22.40114283	 10.18233765	 24.43761036
No	 -24.43761036	 8.14587012	 28.51054542
No	 -24.43761036	 10.18233765	 30.54701295
No	 -22.40114283	 8.14587012	 30.54701295
No	 -22.40114283	 10.18233765	 28.51054542
No	 -24.43761036	 8.14587012	 32.58348048
No	 -24.43761036	 10.18233765	 34.61994801
No	 -22.40114283	 10.18233765	 32.58348048
Co	 -24.43761036	 12.21880518	 -40.72935060
No	 -24.43761036	 14.25527271	 -38.69288307
Co	 -22.40114283	 14.25527271	 -40.72935060
No	 -24.43761036	 12.21880518	 -36.65641554
No	 -24.43761036	 14.25527271	 -34.61994801
No	 -22.40114283	 12.21880518	 -34.61994801
No	 -22.40114283	 14.25527271	 -36.65641554
No	 -24.43761036	 12.21880518	 -32.58348048
No	 -24.43761036	 14.25527271	 -30.54701295
No	 -22.40114283	 12.21880518	 -30.54701295
No	 -22.40114283	 14.25527271	 -32.58348048
No	 -24.43761036	 12.21880518	 -28.51054542
No	 -24.43761036	 14.25527271	 -26.47407789
No	 -22.40114283	 12.21880518	 -26.47407789
No	 -22.40114283	 14.25527271	 -28.51054542
No	 -24.43761036	 12.21880518	 -24.43761036
No	 -24.43761036	 14.25527271	 -22.40114283
No	 -22.40114283	 12.21880518	 -22.40114283
No	 -22.40114283	 14.25527271	 -24.43761036
No	 -24.43761036	 12.21880518	 -20.36467530
No	 -24.43761036	 14.25527271	 -18.32820777
No	 -22.40114283	 12.21880518	 -18.32820777
No	 -22.40114283	 14.25527271	 -20.36467530
No	 -24.43761036	 12.21880518	 -16.29174024
No	 -24.43761036	 14.25527271	 -14.25527271
No	 -22.40114283	 12.21880518	 -14.25527271
No	 -22.40114283	 14.25527271	 -16.29174024
No	 -24.43761036	 12.21880518	 -12.21880518
No	 -24.43761036	 14.25527271	 -10.18233765
No	 -22.40114283	 12.21880518	 -10.18233765
No	 -22.40114283	 14.25527271	 -12.21880518
No	 -22.40114283	 14.25527271	 -8.14587012
No	 -24.43761036	 14.25527271	 10.18233765
No	 -22.40114283	 12.21880518	 10.18233765
No	 -22.40114283	 14.25527271	 8.14587012
No	 -24.43761036	 12.21880518	 12.21880518
No	 -24.43761036	 14.25527271	 14.25527271
No	 -22.40114283	 12.21880518	 14.25527271
No	 -22.40114283	 14.25527271	 12.21880518
No	 -24.43761036	 12.21880518	 16.29174024
No	 -24.43761036	 14.25527271	 18.32820777
No	 -22.40114283	 12.21880518	 18.32820777
No	 -22.40114283	 14.25527271	 16.29174024
No	 -24.43761036	 12.21880518	 20.36467530
No	 -24.43761036	 14.25527271	 22.40114283
No	 -22.40114283	 12.21880518	 22.40114283
No	 -22.40114283	 14.25527271	 20.36467530
No	 -24.43761036	 12.21880518	 24.43761036
No	 -24.43761036	 14.25527271	 26.47407789
No	 -22.40114283	 12.21880518	 26.47407789
No	 -22.40114283	 14.25527271	 24.43761036
No	 -24.43761036	 12.21880518	 28.51054542
No	 -24.43761036	 14.25527271	 30.54701295
No	 -22.40114283	 12.21880518	 30.54701295
No	 -22.40114283	 14.25527271	 28.51054542
No	 -24.43761036	 12.21880518	 32.58348048
No	 -24.43761036	 14.25527271	 34.61994801
No	 -22.40114283	 12.21880518	 34.61994801
No	 -22.40114283	 14.25527271	 32.58348048
No	 -24.43761036	 12.21880518	 36.65641554
No	 -24.43761036	 14.25527271	 38.69288307
No	 -22.40114283	 14.25527271	 36.65641554
Co	 -24.43761036	 16.29174024	 -40.72935060
No	 -24.43761036	 18.32820777	 -38.69288307
No	 -22.40114283	 16.29174024	 -38.69288307
Co	 -22.40114283	 18.32820777	 -40.72935060
No	 -24.43761036	 16.29174024	 -36.65641554
No	 -24.43761036	 18.32820777	 -34.61994801
No	 -22.40114283	 16.29174024	 -34.61994801
No	 -22.40114283	 18.32820777	 -36.65641554
No	 -24.43761036	 16.29174024	 -32.58348048
No	 -24.43761036	 18.32820777	 -30.54701295
No	 -22.40114283	 16.29174024	 -30.54701295
No	 -22.40114283	 18.32820777	 -32.58348048
No	 -24.43761036	 16.29174024	 -28.51054542
No	 -24.43761036	 18.32820777	 -26.47407789
No	 -22.40114283	 16.29174024	 -26.47407789
No	 -22.40114283	 18.32820777	 -28.51054542
No	 -24.43761036	 16.29174024	 -24.43761036
No	 -24.43761036	 18.32820777	 -22.40114283
No	 -22.40114283	 16.29174024	 -22.40114283
No	 -22.40114283	 18.32820777	 -24.43761036
No	 -24.43761036	 16.29174024	 -20.36467530
No	 -24.43761036	 18.32820777	 -18.32820777
No	 -22.40114283	 16.29174024	 -18.32820777
No	 -22.40114283	 18.32820777	 -20.36467530
No	 -24.43761036	 16.29174024	 -16.29174024
No	 -24.43761036	 18.32820777	 -14.25527271
No	 -22.40114283	 16.29174024	 -14.25527271
No	 -22.40114283	 18.32820777	 -16.29174024
No	 -24.43761036	 16.29174024	 -12.21880518
No	 -24.43761036	 18.32820777	 -10.18233765
No	 -22.40114283	 16.29174024	 -10.18233765
No	 -22.40114283	 18.32820777	 -12.21880518
No	 -24.43761036	 16.29174024	 -8.14587012
No	 -24.43761036	 18.32820777	 -6.10940259
No	 -22.40114283	 16.29174024	 -6.10940259
No	 -22.40114283	 18.32820777	 -8.14587012
No	 -22.40114283	 18.32820777	 -4.07293506
No	 -24.43761036	 18.32820777	 6.10940259
No	 -22.40114283	 16.29174024	 6.10940259
No	 -22.40114283	 18.32820777	 4.07293506
No	 -24.43761036	 16.29174024	 8.14587012
No	 -24.43761036	 18.32820777	 10.18233765
No	 -22.40114283	 16.29174024	 10.18233765
No	 -22.40114283	 18.32820777	 8.14587012
No	 -24.43761036	 16.29174024	 12.21880518
No	 -24.43761036	 18.32820777	 14.25527271
No	 -22.40114283	 16.29174024	 14.25527271
No	 -22.40114283	 18.32820777	 12.21880518
No	 -24.43761036	 16.29174024	 16.29174024
No	 -24.43761036	 18.32820777	 18.32820777
No	 -22.40114283	 16.29174024	 18.32820777
No	 -22.40114283	 18.32820777	 16.29174024
No	 -24.43761036	 16.29174024	 20.36467530
No	 -24.43761036	 18.32820777	 22.40114283
No	 -22.40114283	 16.29174024	 22.40114283
No	 -22.40114283	 18.32820777	 20.36467530
No	 -24.43761036	 16.29174024	 24.43761036
No	 -24.43761036	 18.32820777	 26.47407789
No	 -22.40114283	 16.29174024	 26.47407789
No	 -22.40114283	 18.32820777	 24.43761036
No	 -24.43761036	 16.29174024	 28.51054542
No	 -24.43761036	 18.32820777	 30.54701295
No	 -22.40114283	 16.29174024	 30.54701295
No	 -22.40114283	 18.32820777	 28.51054542
No	 -24.43761036	 16.29174024	 32.58348048
No	 -24.43761036	 18.32820777	 34.61994801
No	 -22.40114283	 16.29174024	 34.61994801
No	 -22.40114283	 18.32820777	 32.58348048
No	 -24.43761036	 16.29174024	 36.65641554
No	 -24.43761036	 18.32820777	 38.69288307
No	 -22.40114283	 16.29174024	 38.69288307
No	 -22.40114283	 18.32820777	 36.65641554
Co	 -24.43761036	 20.36467530	 -40.72935060
No	 -24.43761036	 22.40114283	 -38.69288307
No	 -22.40114283	 20.36467530	 -38.69288307
Co	 -22.40114283	 22.40114283	 -40.72935060
No	 -24.43761036	 20.36467530	 -36.65641554
No	 -24.43761036	 22.40114283	 -34.61994801
No	 -22.40114283	 20.36467530	 -34.61994801
No	 -22.40114283	 22.40114283	 -36.65641554
No	 -24.43761036	 20.36467530	 -32.58348048
No	 -24.43761036	 22.40114283	 -30.54701295
No	 -22.40114283	 20.36467530	 -30.54701295
No	 -22.40114283	 22.40114283	 -32.58348048
No	 -24.43761036	 20.36467530	 -28.51054542
No	 -24.43761036	 22.40114283	 -26.47407789
No	 -22.40114283	 20.36467530	 -26.47407789
No	 -22.40114283	 22.40114283	 -28.51054542
No	 -24.43761036	 20.36467530	 -24.43761036
No	 -24.43761036	 22.40114283	 -22.40114283
No	 -22.40114283	 20.36467530	 -22.40114283
No	 -22.40114283	 22.40114283	 -24.43761036
No	 -24.43761036	 20.36467530	 -20.36467530
No	 -24.43761036	 22.40114283	 -18.32820777
No	 -22.40114283	 20.36467530	 -18.32820777
No	 -22.40114283	 22.40114283	 -20.36467530
No	 -24.43761036	 20.36467530	 -16.29174024
No	 -24.43761036	 22.40114283	 -14.25527271
No	 -22.40114283	 20.36467530	 -14.25527271
No	 -22.40114283	 22.40114283	 -16.29174024
No	 -24.43761036	 20.36467530	 -12.21880518
No	 -24.43761036	 22.40114283	 -10.18233765
No	 -22.40114283	 20.36467530	 -10.18233765
No	 -22.40114283	 22.40114283	 -12.21880518
No	 -24.43761036	 20.36467530	 -8.14587012
No	 -24.43761036	 22.40114283	 -6.10940259
No	 -22.40114283	 20.36467530	 -6.10940259
No	 -22.40114283	 22.40114283	 -8.14587012
No	 -24.43761036	 20.36467530	 -4.07293506
No	 -24.43761036	 22.40114283	 -2.03646753
No	 -22.40114283	 20.36467530	 -2.03646753
No	 -22.40114283	 22.40114283	 -4.07293506
No	 -24.43761036	 22.40114283	 2.03646753
No	 -22.40114283	 20.36467530	 2.03646753
No	 -22.40114283	 22.40114283	 -0.00000000
No	 -24.43761036	 20.36467530	 4.07293506
No	 -24.43761036	 22.40114283	 6.10940259
No	 -22.40114283	 20.36467530	 6.10940259
No	 -22.40114283	 22.40114283	 4.07293506
No	 -24.43761036	 20.36467530	 8.14587012
No	 -24.43761036	 22.40114283	 10.18233765
No	 -22.40114283	 20.36467530	 10.18233765
No	 -22.40114283	 22.40114283	 8.14587012
No	 -24.43761036	 20.36467530	 12.21880518
No	 -24.43761036	 22.40114283	 14.25527271
No	 -22.40114283	 20.36467530	 14.25527271
No	 -22.40114283	 22.40114283	 12.21880518
No	 -24.43761036	 20.36467530	 16.29174024
No	 -24.43761036	 22.40114283	 18.32820777
No	 -22.40114283	 20.36467530	 18.32820777
No	 -22.40114283	 22.40114283	 16.29174024
No	 -24.43761036	 20.36467530	 20.36467530
No	 -24.43761036	 22.40114283	 22.40114283
No	 -22.40114283	 20.36467530	 22.40114283
No	 -22.40114283	 22.40114283	 20.36467530
No	 -24.43761036	 20.36467530	 24.43761036
No	 -24.43761036	 22.40114283	 26.47407789
No	 -22.40114283	 20.36467530	 26.47407789
No	 -22.40114283	 22.40114283	 24.43761036
No	 -24.43761036	 20.36467530	 28.51054542
No	 -24.43761036	 22.40114283	 30.54701295
No	 -22.40114283	 20.36467530	 30.54701295
No	 -22.40114283	 22.40114283	 28.51054542
No	 -24.43761036	 20.36467530	 32.58348048
No	 -24.43761036	 22.40114283	 34.61994801
No	 -22.40114283	 20.36467530	 34.61994801
No	 -22.40114283	 22.40114283	 32.58348048
No	 -24.43761036	 20.36467530	 36.65641554
No	 -24.43761036	 22.40114283	 38.69288307
No	 -22.40114283	 20.36467530	 38.69288307
No	 -22.40114283	 22.40114283	 36.65641554
Co	 -24.43761036	 24.43761036	 -40.72935060
No	 -24.43761036	 26.47407789	 -38.69288307
No	 -22.40114283	 24.43761036	 -38.69288307
Co	 -22.40114283	 26.47407789	 -40.72935060
No	 -24.43761036	 24.43761036	 -36.65641554
No	 -24.43761036	 26.47407789	 -34.61994801
No	 -22.40114283	 24.43761036	 -34.61994801
No	 -22.40114283	 26.47407789	 -36.65641554
No	 -24.43761036	 24.43761036	 -32.58348048
No	 -24.43761036	 26.47407789	 -30.54701295
No	 -22.40114283	 24.43761036	 -30.54701295
No	 -22.40114283	 26.47407789	 -32.58348048
No	 -24.43761036	 24.43761036	 -28.51054542
No	 -24.43761036	 26.47407789	 -26.47407789
No	 -22.40114283	 24.43761036	 -26.47407789
No	 -22.40114283	 26.47407789	 -28.51054542
No	 -24.43761036	 24.43761036	 -24.43761036
No	 -24.43761036	 26.47407789	 -22.40114283
No	 -22.40114283	 24.43761036	 -22.40114283
No	 -22.40114283	 26.47407789	 -24.43761036
No	 -24.43761036	 24.43761036	 -20.36467530
No	 -24.43761036	 26.47407789	 -18.32820777
No	 -22.40114283	 24.43761036	 -18.32820777
No	 -22.40114283	 26.47407789	 -20.36467530
No	 -24.43761036	 24.43761036	 -16.29174024
No	 -24.43761036	 26.47407789	 -14.25527271
No	 -22.40114283	 24.43761036	 -14.25527271
No	 -22.40114283	 26.47407789	 -16.29174024
No	 -24.43761036	 24.43761036	 -12.21880518
No	 -24.43761036	 26.47407789	 -10.18233765
No	 -22.40114283	 24.43761036	 -10.18233765
No	 -22.40114283	 26.47407789	 -12.21880518
No	 -24.43761036	 24.43761036	 -8.14587012
No	 -24.43761036	 26.47407789	 -6.10940259
No	 -22.40114283	 24.43761036	 -6.10940259
No	 -22.40114283	 26.47407789	 -8.14587012
No	 -24.43761036	 24.43761036	 -4.07293506
No	 -24.43761036	 26.47407789	 -2.03646753
No	 -22.40114283	 24.43761036	 -2.03646753
No	 -22.40114283	 26.47407789	 -4.07293506
No	 -24.43761036	 24.43761036	 -0.00000000
No	 -24.43761036	 26.47407789	 2.03646753
No	 -22.40114283	 24.43761036	 2.03646753
No	 -24.43761036	 24.43761036	 4.07293506
No	 -24.43761036	 26.47407789	 6.10940259
No	 -22.40114283	 24.43761036	 6.10940259
No	 -22.40114283	 26.47407789	 4.07293506
No	 -24.43761036	 24.43761036	 8.14587012
No	 -24.43761036	 26.47407789	 10.18233765
No	 -22.40114283	 24.43761036	 10.18233765
No	 -22.40114283	 26.47407789	 8.14587012
No	 -24.43761036	 24.43761036	 12.21880518
No	 -24.43761036	 26.47407789	 14.25527271
No	 -22.40114283	 24.43761036	 14.25527271
No	 -22.40114283	 26.47407789	 12.21880518
No	 -24.43761036	 24.43761036	 16.29174024
No	 -24.43761036	 26.47407789	 18.32820777
No	 -22.40114283	 24.43761036	 18.32820777
No	 -22.40114283	 26.47407789	 16.29174024
No	 -24.43761036	 24.43761036	 20.36467530
No	 -24.43761036	 26.47407789	 22.40114283
No	 -22.40114283	 24.43761036	 22.40114283
No	 -22.40114283	 26.47407789	 20.36467530
No	 -24.43761036	 24.43761036	 24.43761036
No	 -24.43761036	 26.47407789	 26.47407789
No	 -22.40114283	 24.43761036	 26.47407789
No	 -22.40114283	 26.47407789	 24.43761036
No	 -24.43761036	 24.43761036	 28.51054542
No	 -24.43761036	 26.47407789	 30.54701295
No	 -22.40114283	 24.43761036	 30.54701295
No	 -22.40114283	 26.47407789	 28.51054542
No	 -24.43761036	 24.43761036	 32.58348048
No	 -24.43761036	 26.47407789	 34.61994801
No	 -22.40114283	 24.43761036	 34.61994801
No	 -22.40114283	 26.47407789	 32.58348048
No	 -24.43761036	 24.43761036	 36.65641554
No	 -24.43761036	 26.47407789	 38.69288307
No	 -22.40114283	 24.43761036	 38.69288307
No	 -22.40114283	 26.47407789	 36.65641554
Co	 -24.43761036	 28.51054542	 -40.72935060
No	 -24.43761036	 30.54701295	 -38.69288307
No	 -22.40114283	 28.51054542	 -38.69288307
Co	 -22.40114283	 30.54701295	 -40.72935060
No	 -24.43761036	 28.51054542	 -36.65641554
No	 -24.43761036	 30.54701295	 -34.61994801
No	 -22.40114283	 28.51054542	 -34.61994801
No	 -22.40114283	 30.54701295	 -36.65641554
No	 -24.43761036	 28.51054542	 -32.58348048
No	 -24.43761036	 30.54701295	 -30.54701295
No	 -22.40114283	 28.51054542	 -30.54701295
No	 -22.40114283	 30.54701295	 -32.58348048
No	 -24.43761036	 28.51054542	 -28.51054542
No	 -24.43761036	 30.54701295	 -26.47407789
No	 -22.40114283	 28.51054542	 -26.47407789
No	 -22.40114283	 30.54701295	 -28.51054542
No	 -24.43761036	 28.51054542	 -24.43761036
No	 -24.43761036	 30.54701295	 -22.40114283
No	 -22.40114283	 28.51054542	 -22.40114283
No	 -22.40114283	 30.54701295	 -24.43761036
No	 -24.43761036	 28.51054542	 -20.36467530
No	 -24.43761036	 30.54701295	 -18.32820777
No	 -22.40114283	 28.51054542	 -18.32820777
No	 -22.40114283	 30.54701295	 -20.36467530
No	 -24.43761036	 28.51054542	 -16.29174024
No	 -24.43761036	 30.54701295	 -14.25527271
No	 -22.40114283	 28.51054542	 -14.25527271
No	 -22.40114283	 30.54701295	 -16.29174024
No	 -24.43761036	 28.51054542	 -12.21880518
No	 -24.43761036	 30.54701295	 -10.18233765
No	 -22.40114283	 28.51054542	 -10.18233765
No	 -22.40114283	 30.54701295	 -12.21880518
No	 -24.43761036	 28.51054542	 -8.14587012
No	 -24.43761036	 30.54701295	 -6.10940259
No	 -22.40114283	 28.51054542	 -6.10940259
No	 -22.40114283	 30.54701295	 -8.14587012
No	 -24.43761036	 28.51054542	 -4.07293506
No	 -24.43761036	 28.51054542	 4.07293506
No	 -24.43761036	 30.54701295	 6.10940259
No	 -22.40114283	 28.51054542	 6.10940259
No	 -24.43761036	 28.51054542	 8.14587012
No	 -24.43761036	 30.54701295	 10.18233765
No	 -22.40114283	 28.51054542	 10.18233765
No	 -22.40114283	 30.54701295	 8.14587012
No	 -24.43761036	 28.51054542	 12.21880518
No	 -24.43761036	 30.54701295	 14.25527271
No	 -22.40114283	 28.51054542	 14.25527271
No	 -22.40114283	 30.54701295	 12.21880518
No	 -24.43761036	 28.51054542	 16.29174024
No	 -24.43761036	 30.54701295	 18.32820777
No	 -22.40114283	 28.51054542	 18.32820777
No	 -22.40114283	 30.54701295	 16.29174024
No	 -24.43761036	 28.51054542	 20.36467530
No	 -24.43761036	 30.54701295	 22.40114283
No	 -22.40114283	 28.51054542	 22.40114283
No	 -22.40114283	 30.54701295	 20.36467530
No	 -24.43761036	 28.51054542	 24.43761036
No	 -24.43761036	 30.54701295	 26.47407789
No	 -22.40114283	 28.51054542	 26.47407789
No	 -22.40114283	 30.54701295	 24.43761036
No	 -24.43761036	 28.51054542	 28.51054542
No	 -24.43761036	 30.54701295	 30.54701295
No	 -22.40114283	 28.51054542	 30.54701295
No	 -22.40114283	 30.54701295	 28.51054542
No	 -24.43761036	 28.51054542	 32.58348048
No	 -24.43761036	 30.54701295	 34.61994801
No	 -22.40114283	 28.51054542	 34.61994801
No	 -22.40114283	 30.54701295	 32.58348048
No	 -24.43761036	 28.51054542	 36.65641554
No	 -24.43761036	 30.54701295	 38.69288307
No	 -22.40114283	 28.51054542	 38.69288307
No	 -22.40114283	 30.54701295	 36.65641554
Co	 -24.43761036	 32.58348048	 -40.72935060
No	 -24.43761036	 34.61994801	 -38.69288307
No	 -22.40114283	 32.58348048	 -38.69288307
Co	 -22.40114283	 34.61994801	 -40.72935060
No	 -24.43761036	 32.58348048	 -36.65641554
No	 -24.43761036	 34.61994801	 -34.61994801
No	 -22.40114283	 32.58348048	 -34.61994801
No	 -22.40114283	 34.61994801	 -36.65641554
No	 -24.43761036	 32.58348048	 -32.58348048
No	 -24.43761036	 34.61994801	 -30.54701295
No	 -22.40114283	 32.58348048	 -30.54701295
No	 -22.40114283	 34.61994801	 -32.58348048
No	 -24.43761036	 32.58348048	 -28.51054542
No	 -24.43761036	 34.61994801	 -26.47407789
No	 -22.40114283	 32.58348048	 -26.47407789
No	 -22.40114283	 34.61994801	 -28.51054542
No	 -24.43761036	 32.58348048	 -24.43761036
No	 -24.43761036	 34.61994801	 -22.40114283
No	 -22.40114283	 32.58348048	 -22.40114283
No	 -22.40114283	 34.61994801	 -24.43761036
No	 -24.43761036	 32.58348048	 -20.36467530
No	 -24.43761036	 34.61994801	 -18.32820777
No	 -22.40114283	 32.58348048	 -18.32820777
No	 -22.40114283	 34.61994801	 -20.36467530
No	 -24.43761036	 32.58348048	 -16.29174024
No	 -24.43761036	 34.61994801	 -14.25527271
No	 -22.40114283	 32.58348048	 -14.25527271
No	 -22.40114283	 34.61994801	 -16.29174024
No	 -24.43761036	 32.58348048	 -12.21880518
No	 -24.43761036	 34.61994801	 -10.18233765
No	 -22.40114283	 32.58348048	 -10.18233765
No	 -22.40114283	 34.61994801	 -12.21880518
No	 -24.43761036	 32.58348048	 -8.14587012
No	 -24.43761036	 32.58348048	 8.14587012
No	 -24.43761036	 34.61994801	 10.18233765
No	 -22.40114283	 32.58348048	 10.18233765
No	 -24.43761036	 32.58348048	 12.21880518
No	 -24.43761036	 34.61994801	 14.25527271
No	 -22.40114283	 32.58348048	 14.25527271
No	 -22.40114283	 34.61994801	 12.21880518
No	 -24.43761036	 32.58348048	 16.29174024
No	 -24.43761036	 34.61994801	 18.32820777
No	 -22.40114283	 32.58348048	 18.32820777
No	 -22.40114283	 34.61994801	 16.29174024
No	 -24.43761036	 32.58348048	 20.36467530
No	 -24.43761036	 34.61994801	 22.40114283
No	 -22.40114283	 32.58348048	 22.40114283
No	 -22.40114283	 34.61994801	 20.36467530
No	 -24.43761036	 32.58348048	 24.43761036
No	 -24.43761036	 34.61994801	 26.47407789
No	 -22.40114283	 32.58348048	 26.47407789
No	 -22.40114283	 34.61994801	 24.43761036
No	 -24.43761036	 32.58348048	 28.51054542
No	 -24.43761036	 34.61994801	 30.54701295
No	 -22.40114283	 32.58348048	 30.54701295
No	 -22.40114283	 34.61994801	 28.51054542
No	 -24.43761036	 32.58348048	 32.58348048
No	 -24.43761036	 34.61994801	 34.61994801
No	 -22.40114283	 32.58348048	 34.61994801
No	 -22.40114283	 34.61994801	 32.58348048
No	 -24.43761036	 32.58348048	 36.65641554
No	 -24.43761036	 34.61994801	 38.69288307
No	 -22.40114283	 32.58348048	 38.69288307
No	 -22.40114283	 34.61994801	 36.65641554
Co	 -24.43761036	 36.65641554	 -40.72935060
No	 -24.43761036	 38.69288307	 -38.69288307
No	 -22.40114283	 36.65641554	 -38.69288307
Co	 -22.40114283	 38.69288307	 -40.72935060
No	 -24.43761036	 36.65641554	 -36.65641554
No	 -24.43761036	 38.69288307	 -34.61994801
No	 -22.40114283	 36.65641554	 -34.61994801
No	 -22.40114283	 38.69288307	 -36.65641554
No	 -24.43761036	 36.65641554	 -32.58348048
No	 -24.43761036	 38.69288307	 -30.54701295
No	 -22.40114283	 36.65641554	 -30.54701295
No	 -22.40114283	 38.69288307	 -32.58348048
No	 -24.43761036	 36.65641554	 -28.51054542
No	 -24.43761036	 38.69288307	 -26.47407789
No	 -22.40114283	 36.65641554	 -26.47407789
No	 -22.40114283	 38.69288307	 -28.51054542
No	 -24.43761036	 36.65641554	 -24.43761036
No	 -24.43761036	 38.69288307	 -22.40114283
No	 -22.40114283	 36.65641554	 -22.40114283
No	 -22.40114283	 38.69288307	 -24.43761036
No	 -24.43761036	 36.65641554	 -20.36467530
No	 -24.43761036	 38.69288307	 -18.32820777
No	 -22.40114283	 36.65641554	 -18.32820777
No	 -22.40114283	 38.69288307	 -20.36467530
No	 -24.43761036	 36.65641554	 -16.29174024
No	 -24.43761036	 38.69288307	 -14.25527271
No	 -22.40114283	 36.65641554	 -14.25527271
No	 -22.40114283	 38.69288307	 -16.29174024
No	 -24.43761036	 36.65641554	 -12.21880518
No	 -24.43761036	 36.65641554	 12.21880518
No	 -24.43761036	 38.69288307	 14.25527271
No	 -22.40114283	 36.65641554	 14.25527271
No	 -24.43761036	 36.65641554	 16.29174024
No	 -24.43761036	 38.69288307	 18.32820777
No	 -22.40114283	 36.65641554	 18.32820777
No	 -22.40114283	 38.69288307	 16.29174024
No	 -24.43761036	 36.65641554	 20.36467530
No	 -24.43761036	 38.69288307	 22.40114283
No	 -22.40114283	 36.65641554	 22.40114283
No	 -22.40114283	 38.69288307	 20.36467530
No	 -24.43761036	 36.65641554	 24.43761036
No	 -24.43761036	 38.69288307	 26.47407789
No	 -22.40114283	 36.65641554	 26.47407789
No	 -22.40114283	 38.69288307	 24.43761036
No	 -24.43761036	 36.65641554	 28.51054542
No	 -24.43761036	 38.69288307	 30.54701295
No	 -22.40114283	 36.65641554	 30.54701295
No	 -22.40114283	 38.69288307	 28.51054542
No	 -24.43761036	 36.65641554	 32.58348048
No	 -24.43761036	 38.69288307	 34.61994801
No	 -22.40114283	 36.65641554	 34.61994801
No	 -22.40114283	 38.69288307	 32.58348048
No	 -24.43761036	 36.65641554	 36.65641554
No	 -24.43761036	 38.69288307	 38.69288307
No	 -22.40114283	 36.65641554	 38.69288307
No	 -22.40114283	 38.69288307	 36.65641554
Co	 -20.36467530	 -40.72935060	 -40.72935060
No	 -20.36467530	 -38.69288307	 -38.69288307
Co	 -18.32820777	 -40.72935060	 -38.69288307
Co	 -18.32820777	 -38.69288307	 -40.72935060
Co	 -20.36467530	 -40.72935060	 -36.65641554
No	 -20.36467530	 -38.69288307	 -34.61994801
Co	 -18.32820777	 -40.72935060	 -34.61994801
No	 -18.32820777	 -38.69288307	 -36.65641554
Co	 -20.36467530	 -40.72935060	 -32.58348048
No	 -20.36467530	 -38.69288307	 -30.54701295
Co	 -18.32820777	 -40.72935060	 -30.54701295
No	 -18.32820777	 -38.69288307	 -32.58348048
Co	 -20.36467530	 -40.72935060	 -28.51054542
No	 -20.36467530	 -38.69288307	 -26.47407789
Co	 -18.32820777	 -40.72935060	 -26.47407789
No	 -18.32820777	 -38.69288307	 -28.51054542
Co	 -20.36467530	 -40.72935060	 -24.43761036
No	 -20.36467530	 -38.69288307	 -22.40114283
Co	 -18.32820777	 -40.72935060	 -22.40114283
No	 -18.32820777	 -38.69288307	 -24.43761036
Co	 -20.36467530	 -40.72935060	 -20.36467530
No	 -20.36467530	 -38.69288307	 -18.32820777
Co	 -18.32820777	 -40.72935060	 -18.32820777
No	 -18.32820777	 -38.69288307	 -20.36467530
Co	 -20.36467530	 -40.72935060	 -16.29174024
Co	 -20.36467530	 -40.72935060	 16.29174024
No	 -20.36467530	 -38.69288307	 18.32820777
Co	 -18.32820777	 -40.72935060	 18.32820777
Co	 -20.36467530	 -40.72935060	 20.36467530
No	 -20.36467530	 -38.69288307	 22.40114283
Co	 -18.32820777	 -40.72935060	 22.40114283
No	 -18.32820777	 -38.69288307	 20.36467530
Co	 -20.36467530	 -40.72935060	 24.43761036
No	 -20.36467530	 -38.69288307	 26.47407789
Co	 -18.32820777	 -40.72935060	 26.47407789
No	 -18.32820777	 -38.69288307	 24.43761036
Co	 -20.36467530	 -40.72935060	 28.51054542
No	 -20.36467530	 -38.69288307	 30.54701295
Co	 -18.32820777	 -40.72935060	 30.54701295
No	 -18.32820777	 -38.69288307	 28.51054542
Co	 -20.36467530	 -40.72935060	 32.58348048
No	 -20.36467530	 -38.69288307	 34.61994801
Co	 -18.32820777	 -40.72935060	 34.61994801
No	 -18.32820777	 -38.69288307	 32.58348048
Co	 -20.36467530	 -40.72935060	 36.65641554
No	 -20.36467530	 -38.69288307	 38.69288307
Co	 -18.32820777	 -40.72935060	 38.69288307
No	 -18.32820777	 -38.69288307	 36.65641554
Co	 -20.36467530	 -36.65641554	 -40.72935060
No	 -20.36467530	 -34.61994801	 -38.69288307
No	 -18.32820777	 -36.65641554	 -38.69288307
Co	 -18.32820777	 -34.61994801	 -40.72935060
No	 -20.36467530	 -36.65641554	 -36.65641554
No	 -20.36467530	 -34.61994801	 -34.61994801
No	 -18.32820777	 -36.65641554	 -34.61994801
No	 -18.32820777	 -34.61994801	 -36.65641554
No	 -20.36467530	 -36.65641554	 -32.58348048
No	 -20.36467530	 -34.61994801	 -30.54701295
No	 -18.32820777	 -36.65641554	 -30.54701295
No	 -18.32820777	 -34.61994801	 -32.58348048
No	 -20.36467530	 -36.65641554	 -28.51054542
No	 -20.36467530	 -34.61994801	 -26.47407789
No	 -18.32820777	 -36.65641554	 -26.47407789
No	 -18.32820777	 -34.61994801	 -28.51054542
No	 -20.36467530	 -36.65641554	 -24.43761036
No	 -20.36467530	 -34.61994801	 -22.40114283
No	 -18.32820777	 -36.65641554	 -22.40114283
No	 -18.32820777	 -34.61994801	 -24.43761036
No	 -20.36467530	 -36.65641554	 -20.36467530
No	 -20.36467530	 -34.61994801	 -18.32820777
No	 -18.32820777	 -36.65641554	 -18.32820777
No	 -18.32820777	 -34.61994801	 -20.36467530
No	 -20.36467530	 -36.65641554	 -16.29174024
No	 -20.36467530	 -34.61994801	 -14.25527271
No	 -18.32820777	 -34.61994801	 -16.29174024
No	 -20.36467530	 -34.61994801	 14.25527271
No	 -20.36467530	 -36.65641554	 16.29174024
No	 -20.36467530	 -34.61994801	 18.32820777
No	 -18.32820777	 -36.65641554	 18.32820777
No	 -18.32820777	 -34.61994801	 16.29174024
No	 -20.36467530	 -36.65641554	 20.36467530
No	 -20.36467530	 -34.61994801	 22.40114283
No	 -18.32820777	 -36.65641554	 22.40114283
No	 -18.32820777	 -34.61994801	 20.36467530
No	 -20.36467530	 -36.65641554	 24.43761036
No	 -20.36467530	 -34.61994801	 26.47407789
No	 -18.32820777	 -36.65641554	 26.47407789
No	 -18.32820777	 -34.61994801	 24.43761036
No	 -20.36467530	 -36.65641554	 28.51054542
No	 -20.36467530	 -34.61994801	 30.54701295
No	 -18.32820777	 -36.65641554	 30.54701295
No	 -18.32820777	 -34.61994801	 28.51054542
No	 -20.36467530	 -36.65641554	 32.58348048
No	 -20.36467530	 -34.61994801	 34.61994801
No	 -18.32820777	 -36.65641554	 34.61994801
No	 -18.32820777	 -34.61994801	 32.58348048
No	 -20.36467530	 -36.65641554	 36.65641554
No	 -20.36467530	 -34.61994801	 38.69288307
No	 -18.32820777	 -36.65641554	 38.69288307
No	 -18.32820777	 -34.61994801	 36.65641554
Co	 -20.36467530	 -32.58348048	 -40.72935060
No	 -20.36467530	 -30.54701295	 -38.69288307
No	 -18.32820777	 -32.58348048	 -38.69288307
Co	 -18.32820777	 -30.54701295	 -40.72935060
No	 -20.36467530	 -32.58348048	 -36.65641554
No	 -20.36467530	 -30.54701295	 -34.61994801
No	 -18.32820777	 -32.58348048	 -34.61994801
No	 -18.32820777	 -30.54701295	 -36.65641554
No	 -20.36467530	 -32.58348048	 -32.58348048
No	 -20.36467530	 -30.54701295	 -30.54701295
No	 -18.32820777	 -32.58348048	 -30.54701295
No	 -18.32820777	 -30.54701295	 -32.58348048
No	 -20.36467530	 -32.58348048	 -28.51054542
No	 -20.36467530	 -30.54701295	 -26.47407789
No	 -18.32820777	 -32.58348048	 -26.47407789
No	 -18.32820777	 -30.54701295	 -28.51054542
No	 -20.36467530	 -32.58348048	 -24.43761036
No	 -20.36467530	 -30.54701295	 -22.40114283
No	 -18.32820777	 -32.58348048	 -22.40114283
No	 -18.32820777	 -30.54701295	 -24.43761036
No	 -20.36467530	 -32.58348048	 -20.36467530
No	 -20.36467530	 -30.54701295	 -18.32820777
No	 -18.32820777	 -32.58348048	 -18.32820777
No	 -18.32820777	 -30.54701295	 -20.36467530
No	 -20.36467530	 -32.58348048	 -16.29174024
No	 -20.36467530	 -30.54701295	 -14.25527271
No	 -18.32820777	 -32.58348048	 -14.25527271
No	 -18.32820777	 -30.54701295	 -16.29174024
No	 -20.36467530	 -32.58348048	 -12.21880518
No	 -20.36467530	 -30.54701295	 -10.18233765
No	 -18.32820777	 -30.54701295	 -12.21880518
No	 -20.36467530	 -30.54701295	 10.18233765
No	 -20.36467530	 -32.58348048	 12.21880518
No	 -20.36467530	 -30.54701295	 14.25527271
No	 -18.32820777	 -32.58348048	 14.25527271
No	 -18.32820777	 -30.54701295	 12.21880518
No	 -20.36467530	 -32.58348048	 16.29174024
No	 -20.36467530	 -30.54701295	 18.32820777
No	 -18.32820777	 -32.58348048	 18.32820777
No	 -18.32820777	 -30.54701295	 16.29174024
No	 -20.36467530	 -32.58348048	 20.36467530
No	 -20.36467530	 -30.54701295	 22.40114283
No	 -18.32820777	 -32.58348048	 22.40114283
No	 -18.32820777	 -30.54701295	 20.36467530
No	 -20.36467530	 -32.58348048	 24.43761036
No	 -20.36467530	 -30.54701295	 26.47407789
No	 -18.32820777	 -32.58348048	 26.47407789
No	 -18.32820777	 -30.54701295	 24.43761036
No	 -20.36467530	 -32.58348048	 28.51054542
No	 -20.36467530	 -30.54701295	 30.54701295
No	 -18.32820777	 -32.58348048	 30.54701295
No	 -18.32820777	 -30.54701295	 28.51054542
No	 -20.36467530	 -32.58348048	 32.58348048
No	 -20.36467530	 -30.54701295	 34.61994801
No	 -18.32820777	 -32.58348048	 34.61994801
No	 -18.32820777	 -30.54701295	 32.58348048
No	 -20.36467530	 -32.58348048	 36.65641554
No	 -20.36467530	 -30.54701295	 38.69288307
No	 -18.32820777	 -32.58348048	 38.69288307
No	 -18.32820777	 -30.54701295	 36.65641554
Co	 -20.36467530	 -28.51054542	 -40.72935060
No	 -20.36467530	 -26.47407789	 -38.69288307
No	 -18.32820777	 -28.51054542	 -38.69288307
Co	 -18.32820777	 -26.47407789	 -40.72935060
No	 -20.36467530	 -28.51054542	 -36.65641554
No	 -20.36467530	 -26.47407789	 -34.61994801
No	 -18.32820777	 -28.51054542	 -34.61994801
No	 -18.32820777	 -26.47407789	 -36.65641554
No	 -20.36467530	 -28.51054542	 -32.58348048
No	 -20.36467530	 -26.47407789	 -30.54701295
No	 -18.32820777	 -28.51054542	 -30.54701295
No	 -18.32820777	 -26.47407789	 -32.58348048
No	 -20.36467530	 -28.51054542	 -28.51054542
No	 -20.36467530	 -26.47407789	 -26.47407789
No	 -18.32820777	 -28.51054542	 -26.47407789
No	 -18.32820777	 -26.47407789	 -28.51054542
No	 -20.36467530	 -28.51054542	 -24.43761036
No	 -20.36467530	 -26.47407789	 -22.40114283
No	 -18.32820777	 -28.51054542	 -22.40114283
No	 -18.32820777	 -26.47407789	 -24.43761036
No	 -20.36467530	 -28.51054542	 -20.36467530
No	 -20.36467530	 -26.47407789	 -18.32820777
No	 -18.32820777	 -28.51054542	 -18.32820777
No	 -18.32820777	 -26.47407789	 -20.36467530
No	 -20.36467530	 -28.51054542	 -16.29174024
No	 -20.36467530	 -26.47407789	 -14.25527271
No	 -18.32820777	 -28.51054542	 -14.25527271
No	 -18.32820777	 -26.47407789	 -16.29174024
No	 -20.36467530	 -28.51054542	 -12.21880518
No	 -20.36467530	 -26.47407789	 -10.18233765
No	 -18.32820777	 -28.51054542	 -10.18233765
No	 -18.32820777	 -26.47407789	 -12.21880518
No	 -20.36467530	 -28.51054542	 -8.14587012
No	 -20.36467530	 -26.47407789	 -6.10940259
No	 -18.32820777	 -26.47407789	 -8.14587012
No	 -20.36467530	 -26.47407789	 6.10940259
No	 -20.36467530	 -28.51054542	 8.14587012
No	 -20.36467530	 -26.47407789	 10.18233765
No	 -18.32820777	 -28.51054542	 10.18233765
No	 -18.32820777	 -26.47407789	 8.14587012
No	 -20.36467530	 -28.51054542	 12.21880518
No	 -20.36467530	 -26.47407789	 14.25527271
No	 -18.32820777	 -28.51054542	 14.25527271
No	 -18.32820777	 -26.47407789	 12.21880518
No	 -20.36467530	 -28.51054542	 16.29174024
No	 -20.36467530	 -26.47407789	 18.32820777
No	 -18.32820777	 -28.51054542	 18.32820777
No	 -18.32820777	 -26.47407789	 16.29174024
No	 -20.36467530	 -28.51054542	 20.36467530
No	 -20.36467530	 -26.47407789	 22.40114283
No	 -18.32820777	 -28.51054542	 22.40114283
No	 -18.32820777	 -26.47407789	 20.36467530
No	 -20.36467530	 -28.51054542	 24.43761036
No	 -20.36467530	 -26.47407789	 26.47407789
No	 -18.32820777	 -28.51054542	 26.47407789
No	 -18.32820777	 -26.47407789	 24.43761036
No	 -20.36467530	 -28.51054542	 28.51054542
No	 -20.36467530	 -26.47407789	 30.54701295
No	 -18.32820777	 -28.51054542	 30.54701295
No	 -18.32820777	 -26.47407789	 28.51054542
No	 -20.36467530	 -28.51054542	 32.58348048
No	 -20.36467530	 -26.47407789	 34.61994801
No	 -18.32820777	 -28.51054542	 34.61994801
No	 -18.32820777	 -26.47407789	 32.58348048
No	 -20.36467530	 -28.51054542	 36.65641554
No	 -20.36467530	 -26.47407789	 38.69288307
No	 -18.32820777	 -28.51054542	 38.69288307
No	 -18.32820777	 -26.47407789	 36.65641554
Co	 -20.36467530	 -24.43761036	 -40.72935060
No	 -20.36467530	 -22.40114283	 -38.69288307
No	 -18.32820777	 -24.43761036	 -38.69288307
Co	 -18.32820777	 -22.40114283	 -40.72935060
No	 -20.36467530	 -24.43761036	 -36.65641554
No	 -20.36467530	 -22.40114283	 -34.61994801
No	 -18.32820777	 -24.43761036	 -34.61994801
No	 -18.32820777	 -22.40114283	 -36.65641554
No	 -20.36467530	 -24.43761036	 -32.58348048
No	 -20.36467530	 -22.40114283	 -30.54701295
No	 -18.32820777	 -24.43761036	 -30.54701295
No	 -18.32820777	 -22.40114283	 -32.58348048
No	 -20.36467530	 -24.43761036	 -28.51054542
No	 -20.36467530	 -22.40114283	 -26.47407789
No	 -18.32820777	 -24.43761036	 -26.47407789
No	 -18.32820777	 -22.40114283	 -28.51054542
No	 -20.36467530	 -24.43761036	 -24.43761036
No	 -20.36467530	 -22.40114283	 -22.40114283
No	 -18.32820777	 -24.43761036	 -22.40114283
No	 -18.32820777	 -22.40114283	 -24.43761036
No	 -20.36467530	 -24.43761036	 -20.36467530
No	 -20.36467530	 -22.40114283	 -18.32820777
No	 -18.32820777	 -24.43761036	 -18.32820777
No	 -18.32820777	 -22.40114283	 -20.36467530
No	 -20.36467530	 -24.43761036	 -16.29174024
No	 -20.36467530	 -22.40114283	 -14.25527271
No	 -18.32820777	 -24.43761036	 -14.25527271
No	 -18.32820777	 -22.40114283	 -16.29174024
No	 -20.36467530	 -24.43761036	 -12.21880518
No	 -20.36467530	 -22.40114283	 -10.18233765
No	 -18.32820777	 -24.43761036	 -10.18233765
No	 -18.32820777	 -22.40114283	 -12.21880518
No	 -20.36467530	 -24.43761036	 -8.14587012
No	 -20.36467530	 -22.40114283	 -6.10940259
No	 -18.32820777	 -24.43761036	 -6.10940259
No	 -18.32820777	 -22.40114283	 -8.14587012
No	 -20.36467530	 -24.43761036	 -4.07293506
No	 -20.36467530	 -22.40114283	 -2.03646753
No	 -18.32820777	 -22.40114283	 -4.07293506
No	 -20.36467530	 -22.40114283	 2.03646753
No	 -20.36467530	 -24.43761036	 4.07293506
No	 -20.36467530	 -22.40114283	 6.10940259
No	 -18.32820777	 -24.43761036	 6.10940259
No	 -18.32820777	 -22.40114283	 4.07293506
No	 -20.36467530	 -24.43761036	 8.14587012
No	 -20.36467530	 -22.40114283	 10.18233765
No	 -18.32820777	 -24.43761036	 10.18233765
No	 -18.32820777	 -22.40114283	 8.14587012
No	 -20.36467530	 -24.43761036	 12.21880518
No	 -20.36467530	 -22.40114283	 14.25527271
No	 -18.32820777	 -24.43761036	 14.25527271
No	 -18.32820777	 -22.40114283	 12.21880518
No	 -20.36467530	 -24.43761036	 16.29174024
No	 -20.36467530	 -22.40114283	 18.32820777
No	 -18.32820777	 -24.43761036	 18.32820777
No	 -18.32820777	 -22.40114283	 16.29174024
No	 -20.36467530	 -24.43761036	 20.36467530
No	 -20.36467530	 -22.40114283	 22.40114283
No	 -18.32820777	 -24.43761036	 22.40114283
No	 -18.32820777	 -22.40114283	 20.36467530
No	 -20.36467530	 -24.43761036	 24.43761036
No	 -20.36467530	 -22.40114283	 26.47407789
No	 -18.32820777	 -24.43761036	 26.47407789
No	 -18.32820777	 -22.40114283	 24.43761036
No	 -20.36467530	 -24.43761036	 28.51054542
No	 -20.36467530	 -22.40114283	 30.54701295
No	 -18.32820777	 -24.43761036	 30.54701295
No	 -18.32820777	 -22.40114283	 28.51054542
No	 -20.36467530	 -24.43761036	 32.58348048
No	 -20.36467530	 -22.40114283	 34.61994801
No	 -18.32820777	 -24.43761036	 34.61994801
No	 -18.32820777	 -22.40114283	 32.58348048
No	 -20.36467530	 -24.43761036	 36.65641554
No	 -20.36467530	 -22.40114283	 38.69288307
No	 -18.32820777	 -24.43761036	 38.69288307
No	 -18.32820777	 -22.40114283	 36.65641554
Co	 -20.36467530	 -20.36467530	 -40.72935060
No	 -20.36467530	 -18.32820777	 -38.69288307
No	 -18.32820777	 -20.36467530	 -38.69288307
Co	 -18.32820777	 -18.32820777	 -40.72935060
No	 -20.36467530	 -20.36467530	 -36.65641554
No	 -20.36467530	 -18.32820777	 -34.61994801
No	 -18.32820777	 -20.36467530	 -34.61994801
No	 -18.32820777	 -18.32820777	 -36.65641554
No	 -20.36467530	 -20.36467530	 -32.58348048
No	 -20.36467530	 -18.32820777	 -30.54701295
No	 -18.32820777	 -20.36467530	 -30.54701295
No	 -18.32820777	 -18.32820777	 -32.58348048
No	 -20.36467530	 -20.36467530	 -28.51054542
No	 -20.36467530	 -18.32820777	 -26.47407789
No	 -18.32820777	 -20.36467530	 -26.47407789
No	 -18.32820777	 -18.32820777	 -28.51054542
No	 -20.36467530	 -20.36467530	 -24.43761036
No	 -20.36467530	 -18.32820777	 -22.40114283
No	 -18.32820777	 -20.36467530	 -22.40114283
No	 -18.32820777	 -18.32820777	 -24.43761036
No	 -20.36467530	 -20.36467530	 -20.36467530
No	 -20.36467530	 -18.32820777	 -18.32820777
No	 -18.32820777	 -20.36467530	 -18.32820777
No	 -18.32820777	 -18.32820777	 -20.36467530
No	 -20.36467530	 -20.36467530	 -16.29174024
No	 -20.36467530	 -18.32820777	 -14.25527271
No	 -18.32820777	 -20.36467530	 -14.25527271
No	 -18.32820777	 -18.32820777	 -16.29174024
No	 -20.36467530	 -20.36467530	 -12.21880518
No	 -20.36467530	 -18.32820777	 -10.18233765
No	 -18.32820777	 -20.36467530	 -10.18233765
No	 -18.32820777	 -18.32820777	 -12.21880518
No	 -20.36467530	 -20.36467530	 -8.14587012
No	 -20.36467530	 -18.32820777	 -6.10940259
No	 -18.32820777	 -20.36467530	 -6.10940259
No	 -18.32820777	 -18.32820777	 -8.14587012
No	 -20.36467530	 -20.36467530	 -4.07293506
No	 -20.36467530	 -18.32820777	 -2.03646753
No	 -18.32820777	 -20.36467530	 -2.03646753
No	 -18.32820777	 -18.32820777	 -4.07293506
No	 -20.36467530	 -20.36467530	 -0.00000000
No	 -20.36467530	 -18.32820777	 2.03646753
No	 -18.32820777	 -20.36467530	 2.03646753
No	 -18.32820777	 -18.32820777	 -0.00000000
No	 -20.36467530	 -20.36467530	 4.07293506
No	 -20.36467530	 -18.32820777	 6.10940259
No	 -18.32820777	 -20.36467530	 6.10940259
No	 -18.32820777	 -18.32820777	 4.07293506
No	 -20.36467530	 -20.36467530	 8.14587012
No	 -20.36467530	 -18.32820777	 10.18233765
No	 -18.32820777	 -20.36467530	 10.18233765
No	 -18.32820777	 -18.32820777	 8.14587012
No	 -20.36467530	 -20.36467530	 12.21880518
No	 -20.36467530	 -18.32820777	 14.25527271
No	 -18.32820777	 -20.36467530	 14.25527271
No	 -18.32820777	 -18.32820777	 12.21880518
No	 -20.36467530	 -20.36467530	 16.29174024
No	 -20.36467530	 -18.32820777	 18.32820777
No	 -18.32820777	 -20.36467530	 18.32820777
No	 -18.32820777	 -18.32820777	 16.29174024
No	 -20.36467530	 -20.36467530	 20.36467530
No	 -20.36467530	 -18.32820777	 22.40114283
No	 -18.32820777	 -20.36467530	 22.40114283
No	 -18.32820777	 -18.32820777	 20.36467530
No	 -20.36467530	 -20.36467530	 24.43761036
No	 -20.36467530	 -18.32820777	 26.47407789
No	 -18.32820777	 -20.36467530	 26.47407789
No	 -18.32820777	 -18.32820777	 24.43761036
No	 -20.36467530	 -20.36467530	 28.51054542
No	 -20.36467530	 -18.32820777	 30.54701295
No	 -18.32820777	 -20.36467530	 30.54701295
No	 -18.32820777	 -18.32820777	 28.51054542
No	 -20.36467530	 -20.36467530	 32.58348048
No	 -20.36467530	 -18.32820777	 34.61994801
No	 -18.32820777	 -20.36467530	 34.61994801
No	 -18.32820777	 -18.32820777	 32.58348048
No	 -20.36467530	 -20.36467530	 36.65641554
No	 -20.36467530	 -18.32820777	 38.69288307
No	 -18.32820777	 -20.36467530	 38.69288307
No	 -18.32820777	 -18.32820777	 36.65641554
Co	 -20.36467530	 -16.29174024	 -40.72935060
No	 -20.36467530	 -16.29174024	 -36.65641554
No	 -20.36467530	 -14.25527271	 -34.61994801
No	 -18.32820777	 -16.29174024	 -34.61994801
No	 -20.36467530	 -16.29174024	 -32.58348048
No	 -20.36467530	 -14.25527271	 -30.54701295
No	 -18.32820777	 -16.29174024	 -30.54701295
No	 -18.32820777	 -14.25527271	 -32.58348048
No	 -20.36467530	 -16.29174024	 -28.51054542
No	 -20.36467530	 -14.25527271	 -26.47407789
No	 -18.32820777	 -16.29174024	 -26.47407789
No	 -18.32820777	 -14.25527271	 -28.51054542
No	 -20.36467530	 -16.29174024	 -24.43761036
No	 -20.36467530	 -14.25527271	 -22.40114283
No	 -18.32820777	 -16.29174024	 -22.40114283
No	 -18.32820777	 -14.25527271	 -24.43761036
No	 -20.36467530	 -16.29174024	 -20.36467530
No	 -20.36467530	 -14.25527271	 -18.32820777
No	 -18.32820777	 -16.29174024	 -18.32820777
No	 -18.32820777	 -14.25527271	 -20.36467530
No	 -20.36467530	 -16.29174024	 -16.29174024
No	 -20.36467530	 -14.25527271	 -14.25527271
No	 -18.32820777	 -16.29174024	 -14.25527271
No	 -18.32820777	 -14.25527271	 -16.29174024
No	 -20.36467530	 -16.29174024	 -12.21880518
No	 -20.36467530	 -14.25527271	 -10.18233765
No	 -18.32820777	 -16.29174024	 -10.18233765
No	 -18.32820777	 -14.25527271	 -12.21880518
No	 -20.36467530	 -16.29174024	 -8.14587012
No	 -20.36467530	 -14.25527271	 -6.10940259
No	 -18.32820777	 -16.29174024	 -6.10940259
No	 -18.32820777	 -14.25527271	 -8.14587012
No	 -20.36467530	 -16.29174024	 -4.07293506
No	 -18.32820777	 -16.29174024	 -2.03646753
No	 -18.32820777	 -14.25527271	 -4.07293506
No	 -18.32820777	 -16.29174024	 2.03646753
No	 -20.36467530	 -16.29174024	 4.07293506
No	 -20.36467530	 -14.25527271	 6.10940259
No	 -18.32820777	 -16.29174024	 6.10940259
No	 -18.32820777	 -14.25527271	 4.07293506
No	 -20.36467530	 -16.29174024	 8.14587012
No	 -20.36467530	 -14.25527271	 10.18233765
No	 -18.32820777	 -16.29174024	 10.18233765
No	 -18.32820777	 -14.25527271	 8.14587012
No	 -20.36467530	 -16.29174024	 12.21880518
No	 -20.36467530	 -14.25527271	 14.25527271
No	 -18.32820777	 -16.29174024	 14.25527271
No	 -18.32820777	 -14.25527271	 12.21880518
No	 -20.36467530	 -16.29174024	 16.29174024
No	 -20.36467530	 -14.25527271	 18.32820777
No	 -18.32820777	 -16.29174024	 18.32820777
No	 -18.32820777	 -14.25527271	 16.29174024
No	 -20.36467530	 -16.29174024	 20.36467530
No	 -20.36467530	 -14.25527271	 22.40114283
No	 -18.32820777	 -16.29174024	 22.40114283
No	 -18.32820777	 -14.25527271	 20.36467530
No	 -20.36467530	 -16.29174024	 24.43761036
No	 -20.36467530	 -14.25527271	 26.47407789
No	 -18.32820777	 -16.29174024	 26.47407789
No	 -18.32820777	 -14.25527271	 24.43761036
No	 -20.36467530	 -16.29174024	 28.51054542
No	 -20.36467530	 -14.25527271	 30.54701295
No	 -18.32820777	 -16.29174024	 30.54701295
No	 -18.32820777	 -14.25527271	 28.51054542
No	 -20.36467530	 -16.29174024	 32.58348048
No	 -20.36467530	 -14.25527271	 34.61994801
No	 -18.32820777	 -16.29174024	 34.61994801
No	 -18.32820777	 -14.25527271	 32.58348048
No	 -20.36467530	 -16.29174024	 36.65641554
No	 -20.36467530	 -12.21880518	 -32.58348048
No	 -20.36467530	 -10.18233765	 -30.54701295
No	 -18.32820777	 -12.21880518	 -30.54701295
No	 -20.36467530	 -12.21880518	 -28.51054542
No	 -20.36467530	 -10.18233765	 -26.47407789
No	 -18.32820777	 -12.21880518	 -26.47407789
No	 -18.32820777	 -10.18233765	 -28.51054542
No	 -20.36467530	 -12.21880518	 -24.43761036
No	 -20.36467530	 -10.18233765	 -22.40114283
No	 -18.32820777	 -12.21880518	 -22.40114283
No	 -18.32820777	 -10.18233765	 -24.43761036
No	 -20.36467530	 -12.21880518	 -20.36467530
No	 -20.36467530	 -10.18233765	 -18.32820777
No	 -18.32820777	 -12.21880518	 -18.32820777
No	 -18.32820777	 -10.18233765	 -20.36467530
No	 -20.36467530	 -12.21880518	 -16.29174024
No	 -20.36467530	 -10.18233765	 -14.25527271
No	 -18.32820777	 -12.21880518	 -14.25527271
No	 -18.32820777	 -10.18233765	 -16.29174024
No	 -20.36467530	 -12.21880518	 -12.21880518
No	 -20.36467530	 -10.18233765	 -10.18233765
No	 -18.32820777	 -12.21880518	 -10.18233765
No	 -18.32820777	 -10.18233765	 -12.21880518
No	 -20.36467530	 -12.21880518	 -8.14587012
No	 -18.32820777	 -12.21880518	 -6.10940259
No	 -18.32820777	 -10.18233765	 -8.14587012
No	 -18.32820777	 -12.21880518	 6.10940259
No	 -20.36467530	 -12.21880518	 8.14587012
No	 -20.36467530	 -10.18233765	 10.18233765
No	 -18.32820777	 -12.21880518	 10.18233765
No	 -18.32820777	 -10.18233765	 8.14587012
No	 -20.36467530	 -12.21880518	 12.21880518
No	 -20.36467530	 -10.18233765	 14.25527271
No	 -18.32820777	 -12.21880518	 14.25527271
No	 -18.32820777	 -10.18233765	 12.21880518
No	 -20.36467530	 -12.21880518	 16.29174024
No	 -20.36467530	 -10.18233765	 18.32820777
No	 -18.32820777	 -12.21880518	 18.32820777
No	 -18.32820777	 -10.18233765	 16.29174024
No	 -20.36467530	 -12.21880518	 20.36467530
No	 -20.36467530	 -10.18233765	 22.40114283
No	 -18.32820777	 -12.21880518	 22.40114283
No	 -18.32820777	 -10.18233765	 20.36467530
No	 -20.36467530	 -12.21880518	 24.43761036
No	 -20.36467530	 -10.18233765	 26.47407789
No	 -18.32820777	 -12.21880518	 26.47407789
No	 -18.32820777	 -10.18233765	 24.43761036
No	 -20.36467530	 -12.21880518	 28.51054542
No	 -20.36467530	 -10.18233765	 30.54701295
No	 -18.32820777	 -12.21880518	 30.54701295
No	 -18.32820777	 -10.18233765	 28.51054542
No	 -20.36467530	 -12.21880518	 32.58348048
No	 -20.36467530	 -8.14587012	 -28.51054542
No	 -20.36467530	 -6.10940259	 -26.47407789
No	 -18.32820777	 -8.14587012	 -26.47407789
No	 -20.36467530	 -8.14587012	 -24.43761036
No	 -20.36467530	 -6.10940259	 -22.40114283
No	 -18.32820777	 -8.14587012	 -22.40114283
No	 -18.32820777	 -6.10940259	 -24.43761036
No	 -20.36467530	 -8.14587012	 -20.36467530
No	 -20.36467530	 -6.10940259	 -18.32820777
No	 -18.32820777	 -8.14587012	 -18.32820777
No	 -18.32820777	 -6.10940259	 -20.36467530
No	 -20.36467530	 -8.14587012	 -16.29174024
No	 -20.36467530	 -6.10940259	 -14.25527271
No	 -18.32820777	 -8.14587012	 -14.25527271
No	 -18.32820777	 -6.10940259	 -16.29174024
No	 -20.36467530	 -8.14587012	 -12.21880518
No	 -18.32820777	 -8.14587012	 -10.18233765
No	 -18.32820777	 -6.10940259	 -12.21880518
No	 -18.32820777	 -8.14587012	 10.18233765
No	 -20.36467530	 -8.14587012	 12.21880518
No	 -20.36467530	 -6.10940259	 14.25527271
No	 -18.32820777	 -8.14587012	 14.25527271
No	 -18.32820777	 -6.10940259	 12.21880518
No	 -20.36467530	 -8.14587012	 16.29174024
No	 -20.36467530	 -6.10940259	 18.32820777
No	 -18.32820777	 -8.14587012	 18.32820777
No	 -18.32820777	 -6.10940259	 16.29174024
No	 -20.36467530	 -8.14587012	 20.36467530
No	 -20.36467530	 -6.10940259	 22.40114283
No	 -18.32820777	 -8.14587012	 22.40114283
No	 -18.32820777	 -6.10940259	 20.36467530
No	 -20.36467530	 -8.14587012	 24.43761036
No	 -20.36467530	 -6.10940259	 26.47407789
No	 -18.32820777	 -8.14587012	 26.47407789
No	 -18.32820777	 -6.10940259	 24.43761036
No	 -20.36467530	 -8.14587012	 28.51054542
No	 -20.36467530	 -4.07293506	 -24.43761036
No	 -20.36467530	 -2.03646753	 -22.40114283
No	 -18.32820777	 -4.07293506	 -22.40114283
No	 -20.36467530	 -4.07293506	 -20.36467530
No	 -20.36467530	 -2.03646753	 -18.32820777
No	 -18.32820777	 -4.07293506	 -18.32820777
No	 -18.32820777	 -2.03646753	 -20.36467530
No	 -20.36467530	 -4.07293506	 -16.29174024
No	 -18.32820777	 -4.07293506	 -14.25527271
No	 -18.32820777	 -2.03646753	 -16.29174024
No	 -18.32820777	 -4.07293506	 14.25527271
No	 -20.36467530	 -4.07293506	 16.29174024
No	 -20.36467530	 -2.03646753	 18.32820777
No	 -18.32820777	 -4.07293506	 18.32820777
No	 -18.32820777	 -2.03646753	 16.29174024
No	 -20.36467530	 -4.07293506	 20.36467530
No	 -20.36467530	 -2.03646753	 22.40114283
No	 -18.32820777	 -4.07293506	 22.40114283
No	 -18.32820777	 -2.03646753	 20.36467530
No	 -20.36467530	 -4.07293506	 24.43761036
No	 -20.36467530	 2.03646753	 -22.40114283
No	 -20.36467530	 -0.00000000	 -20.36467530
No	 -20.36467530	 2.03646753	 -18.32820777
No	 -18.32820777	 -0.00000000	 -18.32820777
No	 -18.32820777	 2.03646753	 -20.36467530
No	 -18.32820777	 2.03646753	 -16.29174024
No	 -20.36467530	 2.03646753	 18.32820777
No	 -18.32820777	 -0.00000000	 18.32820777
No	 -18.32820777	 2.03646753	 16.29174024
No	 -20.36467530	 -0.00000000	 20.36467530
No	 -20.36467530	 2.03646753	 22.40114283
No	 -18.32820777	 2.03646753	 20.36467530
No	 -20.36467530	 6.10940259	 -26.47407789
No	 -20.36467530	 4.07293506	 -24.43761036
No	 -20.36467530	 6.10940259	 -22.40114283
No	 -18.32820777	 4.07293506	 -22.40114283
No	 -18.32820777	 6.10940259	 -24.43761036
No	 -20.36467530	 4.07293506	 -20.36467530
No	 -20.36467530	 6.10940259	 -18.32820777
No	 -18.32820777	 4.07293506	 -18.32820777
No	 -18.32820777	 6.10940259	 -20.36467530
No	 -20.36467530	 4.07293506	 -16.29174024
No	 -20.36467530	 6.10940259	 -14.25527271
No	 -18.32820777	 4.07293506	 -14.25527271
No	 -18.32820777	 6.10940259	 -16.29174024
No	 -18.32820777	 6.10940259	 -12.21880518
No	 -20.36467530	 6.10940259	 14.25527271
No	 -18.32820777	 4.07293506	 14.25527271
No	 -18.32820777	 6.10940259	 12.21880518
No	 -20.36467530	 4.07293506	 16.29174024
No	 -20.36467530	 6.10940259	 18.32820777
No	 -18.32820777	 4.07293506	 18.32820777
No	 -18.32820777	 6.10940259	 16.29174024
No	 -20.36467530	 4.07293506	 20.36467530
No	 -20.36467530	 6.10940259	 22.40114283
No	 -18.32820777	 4.07293506	 22.40114283
No	 -18.32820777	 6.10940259	 20.36467530
No	 -20.36467530	 4.07293506	 24.43761036
No	 -20.36467530	 6.10940259	 26.47407789
No	 -18.32820777	 6.10940259	 24.43761036
No	 -20.36467530	 10.18233765	 -30.54701295
No	 -20.36467530	 8.14587012	 -28.51054542
No	 -20.36467530	 10.18233765	 -26.47407789
No	 -18.32820777	 8.14587012	 -26.47407789
No	 -18.32820777	 10.18233765	 -28.51054542
No	 -20.36467530	 8.14587012	 -24.43761036
No	 -20.36467530	 10.18233765	 -22.40114283
No	 -18.32820777	 8.14587012	 -22.40114283
No	 -18.32820777	 10.18233765	 -24.43761036
No	 -20.36467530	 8.14587012	 -20.36467530
No	 -20.36467530	 10.18233765	 -18.32820777
No	 -18.32820777	 8.14587012	 -18.32820777
No	 -18.32820777	 10.18233765	 -20.36467530
No	 -20.36467530	 8.14587012	 -16.29174024
No	 -20.36467530	 10.18233765	 -14.25527271
No	 -18.32820777	 8.14587012	 -14.25527271
No	 -18.32820777	 10.18233765	 -16.29174024
No	 -20.36467530	 8.14587012	 -12.21880518
No	 -20.36467530	 10.18233765	 -10.18233765
No	 -18.32820777	 8.14587012	 -10.18233765
No	 -18.32820777	 10.18233765	 -12.21880518
No	 -18.32820777	 10.18233765	 -8.14587012
No	 -20.36467530	 10.18233765	 10.18233765
No	 -18.32820777	 8.14587012	 10.18233765
No	 -18.32820777	 10.18233765	 8.14587012
No	 -20.36467530	 8.14587012	 12.21880518
No	 -20.36467530	 10.18233765	 14.25527271
No	 -18.32820777	 8.14587012	 14.25527271
No	 -18.32820777	 10.18233765	 12.21880518
No	 -20.36467530	 8.14587012	 16.29174024
No	 -20.36467530	 10.18233765	 18.32820777
No	 -18.32820777	 8.14587012	 18.32820777
No	 -18.32820777	 10.18233765	 16.29174024
No	 -20.36467530	 8.14587012	 20.36467530
No	 -20.36467530	 10.18233765	 22.40114283
No	 -18.32820777	 8.14587012	 22.40114283
No	 -18.32820777	 10.18233765	 20.36467530
No	 -20.36467530	 8.14587012	 24.43761036
No	 -20.36467530	 10.18233765	 26.47407789
No	 -18.32820777	 8.14587012	 26.47407789
No	 -18.32820777	 10.18233765	 24.43761036
No	 -20.36467530	 8.14587012	 28.51054542
No	 -20.36467530	 10.18233765	 30.54701295
No	 -18.32820777	 10.18233765	 28.51054542
No	 -20.36467530	 14.25527271	 -34.61994801
No	 -20.36467530	 12.21880518	 -32.58348048
No	 -20.36467530	 14.25527271	 -30.54701295
No	 -18.32820777	 12.21880518	 -30.54701295
No	 -18.32820777	 14.25527271	 -32.58348048
No	 -20.36467530	 12.21880518	 -28.51054542
No	 -20.36467530	 14.25527271	 -26.47407789
No	 -18.32820777	 12.21880518	 -26.47407789
No	 -18.32820777	 14.25527271	 -28.51054542
No	 -20.36467530	 12.21880518	 -24.43761036
No	 -20.36467530	 14.25527271	 -22.40114283
No	 -18.32820777	 12.21880518	 -22.40114283
No	 -18.32820777	 14.25527271	 -24.43761036
No	 -20.36467530	 12.21880518	 -20.36467530
No	 -20.36467530	 14.25527271	 -18.32820777
No	 -18.32820777	 12.21880518	 -18.32820777
No	 -18.32820777	 14.25527271	 -20.36467530
No	 -20.36467530	 12.21880518	 -16.29174024
No	 -20.36467530	 14.25527271	 -14.25527271
No	 -18.32820777	 12.21880518	 -14.25527271
No	 -18.32820777	 14.25527271	 -16.29174024
No	 -20.36467530	 12.21880518	 -12.21880518
No	 -20.36467530	 14.25527271	 -10.18233765
No	 -18.32820777	 12.21880518	 -10.18233765
No	 -18.32820777	 14.25527271	 -12.21880518
No	 -20.36467530	 12.21880518	 -8.14587012
No	 -20.36467530	 14.25527271	 -6.10940259
No	 -18.32820777	 12.21880518	 -6.10940259
No	 -18.32820777	 14.25527271	 -8.14587012
No	 -18.32820777	 14.25527271	 -4.07293506
No	 -20.36467530	 14.25527271	 6.10940259
No	 -18.32820777	 12.21880518	 6.10940259
No	 -18.32820777	 14.25527271	 4.07293506
No	 -20.36467530	 12.21880518	 8.14587012
No	 -20.36467530	 14.25527271	 10.18233765
No	 -18.32820777	 12.21880518	 10.18233765
No	 -18.32820777	 14.25527271	 8.14587012
No	 -20.36467530	 12.21880518	 12.21880518
No	 -20.36467530	 14.25527271	 14.25527271
No	 -18.32820777	 12.21880518	 14.25527271
No	 -18.32820777	 14.25527271	 12.21880518
No	 -20.36467530	 12.21880518	 16.29174024
No	 -20.36467530	 14.25527271	 18.32820777
No	 -18.32820777	 12.21880518	 18.32820777
No	 -18.32820777	 14.25527271	 16.29174024
No	 -20.36467530	 12.21880518	 20.36467530
No	 -20.36467530	 14.25527271	 22.40114283
No	 -18.32820777	 12.21880518	 22.40114283
No	 -18.32820777	 14.25527271	 20.36467530
No	 -20.36467530	 12.21880518	 24.43761036
No	 -20.36467530	 14.25527271	 26.47407789
No	 -18.32820777	 12.21880518	 26.47407789
No	 -18.32820777	 14.25527271	 24.43761036
No	 -20.36467530	 12.21880518	 28.51054542
No	 -20.36467530	 14.25527271	 30.54701295
No	 -18.32820777	 12.21880518	 30.54701295
No	 -18.32820777	 14.25527271	 28.51054542
No	 -20.36467530	 12.21880518	 32.58348048
No	 -20.36467530	 14.25527271	 34.61994801
No	 -18.32820777	 14.25527271	 32.58348048
Co	 -20.36467530	 16.29174024	 -40.72935060
No	 -20.36467530	 18.32820777	 -38.69288307
Co	 -18.32820777	 18.32820777	 -40.72935060
No	 -20.36467530	 16.29174024	 -36.65641554
No	 -20.36467530	 18.32820777	 -34.61994801
No	 -18.32820777	 16.29174024	 -34.61994801
No	 -18.32820777	 18.32820777	 -36.65641554
No	 -20.36467530	 16.29174024	 -32.58348048
No	 -20.36467530	 18.32820777	 -30.54701295
No	 -18.32820777	 16.29174024	 -30.54701295
No	 -18.32820777	 18.32820777	 -32.58348048
No	 -20.36467530	 16.29174024	 -28.51054542
No	 -20.36467530	 18.32820777	 -26.47407789
No	 -18.32820777	 16.29174024	 -26.47407789
No	 -18.32820777	 18.32820777	 -28.51054542
No	 -20.36467530	 16.29174024	 -24.43761036
No	 -20.36467530	 18.32820777	 -22.40114283
No	 -18.32820777	 16.29174024	 -22.40114283
No	 -18.32820777	 18.32820777	 -24.43761036
No	 -20.36467530	 16.29174024	 -20.36467530
No	 -20.36467530	 18.32820777	 -18.32820777
No	 -18.32820777	 16.29174024	 -18.32820777
No	 -18.32820777	 18.32820777	 -20.36467530
No	 -20.36467530	 16.29174024	 -16.29174024
No	 -20.36467530	 18.32820777	 -14.25527271
No	 -18.32820777	 16.29174024	 -14.25527271
No	 -18.32820777	 18.32820777	 -16.29174024
No	 -20.36467530	 16.29174024	 -12.21880518
No	 -20.36467530	 18.32820777	 -10.18233765
No	 -18.32820777	 16.29174024	 -10.18233765
No	 -18.32820777	 18.32820777	 -12.21880518
No	 -20.36467530	 16.29174024	 -8.14587012
No	 -20.36467530	 18.32820777	 -6.10940259
No	 -18.32820777	 16.29174024	 -6.10940259
No	 -18.32820777	 18.32820777	 -8.14587012
No	 -20.36467530	 16.29174024	 -4.07293506
No	 -20.36467530	 18.32820777	 -2.03646753
No	 -18.32820777	 16.29174024	 -2.03646753
No	 -18.32820777	 18.32820777	 -4.07293506
No	 -20.36467530	 18.32820777	 2.03646753
No	 -18.32820777	 16.29174024	 2.03646753
No	 -18.32820777	 18.32820777	 -0.00000000
No	 -20.36467530	 16.29174024	 4.07293506
No	 -20.36467530	 18.32820777	 6.10940259
No	 -18.32820777	 16.29174024	 6.10940259
No	 -18.32820777	 18.32820777	 4.07293506
No	 -20.36467530	 16.29174024	 8.14587012
No	 -20.36467530	 18.32820777	 10.18233765
No	 -18.32820777	 16.29174024	 10.18233765
No	 -18.32820777	 18.32820777	 8.14587012
No	 -20.36467530	 16.29174024	 12.21880518
No	 -20.36467530	 18.32820777	 14.25527271
No	 -18.32820777	 16.29174024	 14.25527271
No	 -18.32820777	 18.32820777	 12.21880518
No	 -20.36467530	 16.29174024	 16.29174024
No	 -20.36467530	 18.32820777	 18.32820777
No	 -18.32820777	 16.29174024	 18.32820777
No	 -18.32820777	 18.32820777	 16.29174024
No	 -20.36467530	 16.29174024	 20.36467530
No	 -20.36467530	 18.32820777	 22.40114283
No	 -18.32820777	 16.29174024	 22.40114283
No	 -18.32820777	 18.32820777	 20.36467530
No	 -20.36467530	 16.29174024	 24.43761036
No	 -20.36467530	 18.32820777	 26.47407789
No	 -18.32820777	 16.29174024	 26.47407789
No	 -18.32820777	 18.32820777	 24.43761036
No	 -20.36467530	 16.29174024	 28.51054542
No	 -20.36467530	 18.32820777	 30.54701295
No	 -18.32820777	 16.29174024	 30.54701295
No	 -18.32820777	 18.32820777	 28.51054542
No	 -20.36467530	 16.29174024	 32.58348048
No	 -20.36467530	 18.32820777	 34.61994801
No	 -18.32820777	 16.29174024	 34.61994801
No	 -18.32820777	 18.32820777	 32.58348048
No	 -20.36467530	 16.29174024	 36.65641554
No	 -20.36467530	 18.32820777	 38.69288307
No	 -18.32820777	 18.32820777	 36.65641554
Co	 -20.36467530	 20.36467530	 -40.72935060
No	 -20.36467530	 22.40114283	 -38.69288307
No	 -18.32820777	 20.36467530	 -38.69288307
Co	 -18.32820777	 22.40114283	 -40.72935060
No	 -20.36467530	 20.36467530	 -36.65641554
No	 -20.36467530	 22.40114283	 -34.61994801
No	 -18.32820777	 20.36467530	 -34.61994801
No	 -18.32820777	 22.40114283	 -36.65641554
No	 -20.36467530	 20.36467530	 -32.58348048
No	 -20.36467530	 22.40114283	 -30.54701295
No	 -18.32820777	 20.36467530	 -30.54701295
No	 -18.32820777	 22.40114283	 -32.58348048
No	 -20.36467530	 20.36467530	 -28.51054542
No	 -20.36467530	 22.40114283	 -26.47407789
No	 -18.32820777	 20.36467530	 -26.47407789
No	 -18.32820777	 22.40114283	 -28.51054542
No	 -20.36467530	 20.36467530	 -24.43761036
No	 -20.36467530	 22.40114283	 -22.40114283
No	 -18.32820777	 20.36467530	 -22.40114283
No	 -18.32820777	 22.40114283	 -24.43761036
No	 -20.36467530	 20.36467530	 -20.36467530
No	 -20.36467530	 22.40114283	 -18.32820777
No	 -18.32820777	 20.36467530	 -18.32820777
No	 -18.32820777	 22.40114283	 -20.36467530
No	 -20.36467530	 20.36467530	 -16.29174024
No	 -20.36467530	 22.40114283	 -14.25527271
No	 -18.32820777	 20.36467530	 -14.25527271
No	 -18.32820777	 22.40114283	 -16.29174024
No	 -20.36467530	 20.36467530	 -12.21880518
No	 -20.36467530	 22.40114283	 -10.18233765
No	 -18.32820777	 20.36467530	 -10.18233765
No	 -18.32820777	 22.40114283	 -12.21880518
No	 -20.36467530	 20.36467530	 -8.14587012
No	 -20.36467530	 22.40114283	 -6.10940259
No	 -18.32820777	 20.36467530	 -6.10940259
No	 -18.32820777	 22.40114283	 -8.14587012
No	 -20.36467530	 20.36467530	 -4.07293506
No	 -20.36467530	 22.40114283	 -2.03646753
No	 -18.32820777	 20.36467530	 -2.03646753
No	 -18.32820777	 22.40114283	 -4.07293506
No	 -20.36467530	 20.36467530	 -0.00000000
No	 -20.36467530	 22.40114283	 2.03646753
No	 -18.32820777	 20.36467530	 2.03646753
No	 -20.36467530	 20.36467530	 4.07293506
No	 -20.36467530	 22.40114283	 6.10940259
No	 -18.32820777	 20.36467530	 6.10940259
No	 -18.32820777	 22.40114283	 4.07293506
No	 -20.36467530	 20.36467530	 8.14587012
No	 -20.36467530	 22.40114283	 10.18233765
No	 -18.32820777	 20.36467530	 10.18233765
No	 -18.32820777	 22.40114283	 8.14587012
No	 -20.36467530	 20.36467530	 12.21880518
No	 -20.36467530	 22.40114283	 14.25527271
No	 -18.32820777	 20.36467530	 14.25527271
No	 -18.32820777	 22.40114283	 12.21880518
No	 -20.36467530	 20.36467530	 16.29174024
No	 -20.36467530	 22.40114283	 18.32820777
No	 -18.32820777	 20.36467530	 18.32820777
No	 -18.32820777	 22.40114283	 16.29174024
No	 -20.36467530	 20.36467530	 20.36467530
No	 -20.36467530	 22.40114283	 22.40114283
No	 -18.32820777	 20.36467530	 22.40114283
No	 -18.32820777	 22.40114283	 20.36467530
No	 -20.36467530	 20.36467530	 24.43761036
No	 -20.36467530	 22.40114283	 26.47407789
No	 -18.32820777	 20.36467530	 26.47407789
No	 -18.32820777	 22.40114283	 24.43761036
No	 -20.36467530	 20.36467530	 28.51054542
No	 -20.36467530	 22.40114283	 30.54701295
No	 -18.32820777	 20.36467530	 30.54701295
No	 -18.32820777	 22.40114283	 28.51054542
No	 -20.36467530	 20.36467530	 32.58348048
No	 -20.36467530	 22.40114283	 34.61994801
No	 -18.32820777	 20.36467530	 34.61994801
No	 -18.32820777	 22.40114283	 32.58348048
No	 -20.36467530	 20.36467530	 36.65641554
No	 -20.36467530	 22.40114283	 38.69288307
No	 -18.32820777	 20.36467530	 38.69288307
No	 -18.32820777	 22.40114283	 36.65641554
Co	 -20.36467530	 24.43761036	 -40.72935060
No	 -20.36467530	 26.47407789	 -38.69288307
No	 -18.32820777	 24.43761036	 -38.69288307
Co	 -18.32820777	 26.47407789	 -40.72935060
No	 -20.36467530	 24.43761036	 -36.65641554
No	 -20.36467530	 26.47407789	 -34.61994801
No	 -18.32820777	 24.43761036	 -34.61994801
No	 -18.32820777	 26.47407789	 -36.65641554
No	 -20.36467530	 24.43761036	 -32.58348048
No	 -20.36467530	 26.47407789	 -30.54701295
No	 -18.32820777	 24.43761036	 -30.54701295
No	 -18.32820777	 26.47407789	 -32.58348048
No	 -20.36467530	 24.43761036	 -28.51054542
No	 -20.36467530	 26.47407789	 -26.47407789
No	 -18.32820777	 24.43761036	 -26.47407789
No	 -18.32820777	 26.47407789	 -28.51054542
No	 -20.36467530	 24.43761036	 -24.43761036
No	 -20.36467530	 26.47407789	 -22.40114283
No	 -18.32820777	 24.43761036	 -22.40114283
No	 -18.32820777	 26.47407789	 -24.43761036
No	 -20.36467530	 24.43761036	 -20.36467530
No	 -20.36467530	 26.47407789	 -18.32820777
No	 -18.32820777	 24.43761036	 -18.32820777
No	 -18.32820777	 26.47407789	 -20.36467530
No	 -20.36467530	 24.43761036	 -16.29174024
No	 -20.36467530	 26.47407789	 -14.25527271
No	 -18.32820777	 24.43761036	 -14.25527271
No	 -18.32820777	 26.47407789	 -16.29174024
No	 -20.36467530	 24.43761036	 -12.21880518
No	 -20.36467530	 26.47407789	 -10.18233765
No	 -18.32820777	 24.43761036	 -10.18233765
No	 -18.32820777	 26.47407789	 -12.21880518
No	 -20.36467530	 24.43761036	 -8.14587012
No	 -20.36467530	 26.47407789	 -6.10940259
No	 -18.32820777	 24.43761036	 -6.10940259
No	 -18.32820777	 26.47407789	 -8.14587012
No	 -20.36467530	 24.43761036	 -4.07293506
No	 -20.36467530	 24.43761036	 4.07293506
No	 -20.36467530	 26.47407789	 6.10940259
No	 -18.32820777	 24.43761036	 6.10940259
No	 -20.36467530	 24.43761036	 8.14587012
No	 -20.36467530	 26.47407789	 10.18233765
No	 -18.32820777	 24.43761036	 10.18233765
No	 -18.32820777	 26.47407789	 8.14587012
No	 -20.36467530	 24.43761036	 12.21880518
No	 -20.36467530	 26.47407789	 14.25527271
No	 -18.32820777	 24.43761036	 14.25527271
No	 -18.32820777	 26.47407789	 12.21880518
No	 -20.36467530	 24.43761036	 16.29174024
No	 -20.36467530	 26.47407789	 18.32820777
No	 -18.32820777	 24.43761036	 18.32820777
No	 -18.32820777	 26.47407789	 16.29174024
No	 -20.36467530	 24.43761036	 20.36467530
No	 -20.36467530	 26.47407789	 22.40114283
No	 -18.32820777	 24.43761036	 22.40114283
No	 -18.32820777	 26.47407789	 20.36467530
No	 -20.36467530	 24.43761036	 24.43761036
No	 -20.36467530	 26.47407789	 26.47407789
No	 -18.32820777	 24.43761036	 26.47407789
No	 -18.32820777	 26.47407789	 24.43761036
No	 -20.36467530	 24.43761036	 28.51054542
No	 -20.36467530	 26.47407789	 30.54701295
No	 -18.32820777	 24.43761036	 30.54701295
No	 -18.32820777	 26.47407789	 28.51054542
No	 -20.36467530	 24.43761036	 32.58348048
No	 -20.36467530	 26.47407789	 34.61994801
No	 -18.32820777	 24.43761036	 34.61994801
No	 -18.32820777	 26.47407789	 32.58348048
No	 -20.36467530	 24.43761036	 36.65641554
No	 -20.36467530	 26.47407789	 38.69288307
No	 -18.32820777	 24.43761036	 38.69288307
No	 -18.32820777	 26.47407789	 36.65641554
Co	 -20.36467530	 28.51054542	 -40.72935060
No	 -20.36467530	 30.54701295	 -38.69288307
No	 -18.32820777	 28.51054542	 -38.69288307
Co	 -18.32820777	 30.54701295	 -40.72935060
No	 -20.36467530	 28.51054542	 -36.65641554
No	 -20.36467530	 30.54701295	 -34.61994801
No	 -18.32820777	 28.51054542	 -34.61994801
No	 -18.32820777	 30.54701295	 -36.65641554
No	 -20.36467530	 28.51054542	 -32.58348048
No	 -20.36467530	 30.54701295	 -30.54701295
No	 -18.32820777	 28.51054542	 -30.54701295
No	 -18.32820777	 30.54701295	 -32.58348048
No	 -20.36467530	 28.51054542	 -28.51054542
No	 -20.36467530	 30.54701295	 -26.47407789
No	 -18.32820777	 28.51054542	 -26.47407789
No	 -18.32820777	 30.54701295	 -28.51054542
No	 -20.36467530	 28.51054542	 -24.43761036
No	 -20.36467530	 30.54701295	 -22.40114283
No	 -18.32820777	 28.51054542	 -22.40114283
No	 -18.32820777	 30.54701295	 -24.43761036
No	 -20.36467530	 28.51054542	 -20.36467530
No	 -20.36467530	 30.54701295	 -18.32820777
No	 -18.32820777	 28.51054542	 -18.32820777
No	 -18.32820777	 30.54701295	 -20.36467530
No	 -20.36467530	 28.51054542	 -16.29174024
No	 -20.36467530	 30.54701295	 -14.25527271
No	 -18.32820777	 28.51054542	 -14.25527271
No	 -18.32820777	 30.54701295	 -16.29174024
No	 -20.36467530	 28.51054542	 -12.21880518
No	 -20.36467530	 30.54701295	 -10.18233765
No	 -18.32820777	 28.51054542	 -10.18233765
No	 -18.32820777	 30.54701295	 -12.21880518
No	 -20.36467530	 28.51054542	 -8.14587012
No	 -20.36467530	 28.51054542	 8.14587012
No	 -20.36467530	 30.54701295	 10.18233765
No	 -18.32820777	 28.51054542	 10.18233765
No	 -20.36467530	 28.51054542	 12.21880518
No	 -20.36467530	 30.54701295	 14.25527271
No	 -18.32820777	 28.51054542	 14.25527271
No	 -18.32820777	 30.54701295	 12.21880518
No	 -20.36467530	 28.51054542	 16.29174024
No	 -20.36467530	 30.54701295	 18.32820777
No	 -18.32820777	 28.51054542	 18.32820777
No	 -18.32820777	 30.54701295	 16.29174024
No	 -20.36467530	 28.51054542	 20.36467530
No	 -20.36467530	 30.54701295	 22.40114283
No	 -18.32820777	 28.51054542	 22.40114283
No	 -18.32820777	 30.54701295	 20.36467530
No	 -20.36467530	 28.51054542	 24.43761036
No	 -20.36467530	 30.54701295	 26.47407789
No	 -18.32820777	 28.51054542	 26.47407789
No	 -18.32820777	 30.54701295	 24.43761036
No	 -20.36467530	 28.51054542	 28.51054542
No	 -20.36467530	 30.54701295	 30.54701295
No	 -18.32820777	 28.51054542	 30.54701295
No	 -18.32820777	 30.54701295	 28.51054542
No	 -20.36467530	 28.51054542	 32.58348048
No	 -20.36467530	 30.54701295	 34.61994801
No	 -18.32820777	 28.51054542	 34.61994801
No	 -18.32820777	 30.54701295	 32.58348048
No	 -20.36467530	 28.51054542	 36.65641554
No	 -20.36467530	 30.54701295	 38.69288307
No	 -18.32820777	 28.51054542	 38.69288307
No	 -18.32820777	 30.54701295	 36.65641554
Co	 -20.36467530	 32.58348048	 -40.72935060
No	 -20.36467530	 34.61994801	 -38.69288307
No	 -18.32820777	 32.58348048	 -38.69288307
Co	 -18.32820777	 34.61994801	 -40.72935060
No	 -20.36467530	 32.58348048	 -36.65641554
No	 -20.36467530	 34.61994801	 -34.61994801
No	 -18.32820777	 32.58348048	 -34.61994801
No	 -18.32820777	 34.61994801	 -36.65641554
No	 -20.36467530	 32.58348048	 -32.58348048
No	 -20.36467530	 34.61994801	 -30.54701295
No	 -18.32820777	 32.58348048	 -30.54701295
No	 -18.32820777	 34.61994801	 -32.58348048
No	 -20.36467530	 32.58348048	 -28.51054542
No	 -20.36467530	 34.61994801	 -26.47407789
No	 -18.32820777	 32.58348048	 -26.47407789
No	 -18.32820777	 34.61994801	 -28.51054542
No	 -20.36467530	 32.58348048	 -24.43761036
No	 -20.36467530	 34.61994801	 -22.40114283
No	 -18.32820777	 32.58348048	 -22.40114283
No	 -18.32820777	 34.61994801	 -24.43761036
No	 -20.36467530	 32.58348048	 -20.36467530
No	 -20.36467530	 34.61994801	 -18.32820777
No	 -18.32820777	 32.58348048	 -18.32820777
No	 -18.32820777	 34.61994801	 -20.36467530
No	 -20.36467530	 32.58348048	 -16.29174024
No	 -20.36467530	 34.61994801	 -14.25527271
No	 -18.32820777	 32.58348048	 -14.25527271
No	 -18.32820777	 34.61994801	 -16.29174024
No	 -20.36467530	 32.58348048	 -12.21880518
No	 -20.36467530	 32.58348048	 12.21880518
No	 -20.36467530	 34.61994801	 14.25527271
No	 -18.32820777	 32.58348048	 14.25527271
No	 -20.36467530	 32.58348048	 16.29174024
No	 -20.36467530	 34.61994801	 18.32820777
No	 -18.32820777	 32.58348048	 18.32820777
No	 -18.32820777	 34.61994801	 16.29174024
No	 -20.36467530	 32.58348048	 20.36467530
No	 -20.36467530	 34.61994801	 22.40114283
No	 -18.32820777	 32.58348048	 22.40114283
No	 -18.32820777	 34.61994801	 20.36467530
No	 -20.36467530	 32.58348048	 24.43761036
No	 -20.36467530	 34.61994801	 26.47407789
No	 -18.32820777	 32.58348048	 26.47407789
No	 -18.32820777	 34.61994801	 24.43761036
No	 -20.36467530	 32.58348048	 28.51054542
No	 -20.36467530	 34.61994801	 30.54701295
No	 -18.32820777	 32.58348048	 30.54701295
No	 -18.32820777	 34.61994801	 28.51054542
No	 -20.36467530	 32.58348048	 32.58348048
No	 -20.36467530	 34.61994801	 34.61994801
No	 -18.32820777	 32.58348048	 34.61994801
No	 -18.32820777	 34.61994801	 32.58348048
No	 -20.36467530	 32.58348048	 36.65641554
No	 -20.36467530	 34.61994801	 38.69288307
No	 -18.32820777	 32.58348048	 38.69288307
No	 -18.32820777	 34.61994801	 36.65641554
Co	 -20.36467530	 36.65641554	 -40.72935060
No	 -20.36467530	 38.69288307	 -38.69288307
No	 -18.32820777	 36.65641554	 -38.69288307
Co	 -18.32820777	 38.69288307	 -40.72935060
No	 -20.36467530	 36.65641554	 -36.65641554
No	 -20.36467530	 38.69288307	 -34.61994801
No	 -18.32820777	 36.65641554	 -34.61994801
No	 -18.32820777	 38.69288307	 -36.65641554
No	 -20.36467530	 36.65641554	 -32.58348048
No	 -20.36467530	 38.69288307	 -30.54701295
No	 -18.32820777	 36.65641554	 -30.54701295
No	 -18.32820777	 38.69288307	 -32.58348048
No	 -20.36467530	 36.65641554	 -28.51054542
No	 -20.36467530	 38.69288307	 -26.47407789
No	 -18.32820777	 36.65641554	 -26.47407789
No	 -18.32820777	 38.69288307	 -28.51054542
No	 -20.36467530	 36.65641554	 -24.43761036
No	 -20.36467530	 38.69288307	 -22.40114283
No	 -18.32820777	 36.65641554	 -22.40114283
No	 -18.32820777	 38.69288307	 -24.43761036
No	 -20.36467530	 36.65641554	 -20.36467530
No	 -20.36467530	 38.69288307	 -18.32820777
No	 -18.32820777	 36.65641554	 -18.32820777
No	 -18.32820777	 38.69288307	 -20.36467530
No	 -20.36467530	 36.65641554	 -16.29174024
No	 -20.36467530	 36.65641554	 16.29174024
No	 -20.36467530	 38.69288307	 18.32820777
No	 -18.32820777	 36.65641554	 18.32820777
No	 -20.36467530	 36.65641554	 20.36467530
No	 -20.36467530	 38.69288307	 22.40114283
No	 -18.32820777	 36.65641554	 22.40114283
No	 -18.32820777	 38.69288307	 20.36467530
No	 -20.36467530	 36.65641554	 24.43761036
No	 -20.36467530	 38.69288307	 26.47407789
No	 -18.32820777	 36.65641554	 26.47407789
No	 -18.32820777	 38.69288307	 24.43761036
No	 -20.36467530	 36.65641554	 28.51054542
No	 -20.36467530	 38.69288307	 30.54701295
No	 -18.32820777	 36.65641554	 30.54701295
No	 -18.32820777	 38.69288307	 28.51054542
No	 -20.36467530	 36.65641554	 32.58348048
No	 -20.36467530	 38.69288307	 34.61994801
No	 -18.32820777	 36.65641554	 34.61994801
No	 -18.32820777	 38.69288307	 32.58348048
No	 -20.36467530	 36.65641554	 36.65641554
No	 -20.36467530	 38.69288307	 38.69288307
No	 -18.32820777	 36.65641554	 38.69288307
No	 -18.32820777	 38.69288307	 36.65641554
Co	 -16.29174024	 -40.72935060	 -40.72935060
No	 -16.29174024	 -38.69288307	 -38.69288307
Co	 -14.25527271	 -40.72935060	 -38.69288307
Co	 -14.25527271	 -38.69288307	 -40.72935060
Co	 -16.29174024	 -40.72935060	 -36.65641554
No	 -16.29174024	 -38.69288307	 -34.61994801
Co	 -14.25527271	 -40.72935060	 -34.61994801
No	 -14.25527271	 -38.69288307	 -36.65641554
Co	 -16.29174024	 -40.72935060	 -32.58348048
No	 -16.29174024	 -38.69288307	 -30.54701295
Co	 -14.25527271	 -40.72935060	 -30.54701295
No	 -14.25527271	 -38.69288307	 -32.58348048
Co	 -16.29174024	 -40.72935060	 -28.51054542
No	 -16.29174024	 -38.69288307	 -26.47407789
Co	 -14.25527271	 -40.72935060	 -26.47407789
No	 -14.25527271	 -38.69288307	 -28.51054542
Co	 -16.29174024	 -40.72935060	 -24.43761036
No	 -16.29174024	 -38.69288307	 -22.40114283
Co	 -14.25527271	 -40.72935060	 -22.40114283
No	 -14.25527271	 -38.69288307	 -24.43761036
Co	 -16.29174024	 -40.72935060	 -20.36467530
Co	 -16.29174024	 -40.72935060	 20.36467530
No	 -16.29174024	 -38.69288307	 22.40114283
Co	 -14.25527271	 -40.72935060	 22.40114283
Co	 -16.29174024	 -40.72935060	 24.43761036
No	 -16.29174024	 -38.69288307	 26.47407789
Co	 -14.25527271	 -40.72935060	 26.47407789
No	 -14.25527271	 -38.69288307	 24.43761036
Co	 -16.29174024	 -40.72935060	 28.51054542
No	 -16.29174024	 -38.69288307	 30.54701295
Co	 -14.25527271	 -40.72935060	 30.54701295
No	 -14.25527271	 -38.69288307	 28.51054542
Co	 -16.29174024	 -40.72935060	 32.58348048
No	 -16.29174024	 -38.69288307	 34.61994801
Co	 -14.25527271	 -40.72935060	 34.61994801
No	 -14.25527271	 -38.69288307	 32.58348048
Co	 -16.29174024	 -40.72935060	 36.65641554
No	 -16.29174024	 -38.69288307	 38.69288307
Co	 -14.25527271	 -40.72935060	 38.69288307
No	 -14.25527271	 -38.69288307	 36.65641554
Co	 -16.29174024	 -36.65641554	 -40.72935060
No	 -16.29174024	 -34.61994801	 -38.69288307
No	 -14.25527271	 -36.65641554	 -38.69288307
Co	 -14.25527271	 -34.61994801	 -40.72935060
No	 -16.29174024	 -36.65641554	 -36.65641554
No	 -16.29174024	 -34.61994801	 -34.61994801
No	 -14.25527271	 -36.65641554	 -34.61994801
No	 -14.25527271	 -34.61994801	 -36.65641554
No	 -16.29174024	 -36.65641554	 -32.58348048
No	 -16.29174024	 -34.61994801	 -30.54701295
No	 -14.25527271	 -36.65641554	 -30.54701295
No	 -14.25527271	 -34.61994801	 -32.58348048
No	 -16.29174024	 -36.65641554	 -28.51054542
No	 -16.29174024	 -34.61994801	 -26.47407789
No	 -14.25527271	 -36.65641554	 -26.47407789
No	 -14.25527271	 -34.61994801	 -28.51054542
No	 -16.29174024	 -36.65641554	 -24.43761036
No	 -16.29174024	 -34.61994801	 -22.40114283
No	 -14.25527271	 -36.65641554	 -22.40114283
No	 -14.25527271	 -34.61994801	 -24.43761036
No	 -16.29174024	 -36.65641554	 -20.36467530
No	 -16.29174024	 -34.61994801	 -18.32820777
No	 -14.25527271	 -34.61994801	 -20.36467530
No	 -16.29174024	 -34.61994801	 18.32820777
No	 -16.29174024	 -36.65641554	 20.36467530
No	 -16.29174024	 -34.61994801	 22.40114283
No	 -14.25527271	 -36.65641554	 22.40114283
No	 -14.25527271	 -34.61994801	 20.36467530
No	 -16.29174024	 -36.65641554	 24.43761036
No	 -16.29174024	 -34.61994801	 26.47407789
No	 -14.25527271	 -36.65641554	 26.47407789
No	 -14.25527271	 -34.61994801	 24.43761036
No	 -16.29174024	 -36.65641554	 28.51054542
No	 -16.29174024	 -34.61994801	 30.54701295
No	 -14.25527271	 -36.65641554	 30.54701295
No	 -14.25527271	 -34.61994801	 28.51054542
No	 -16.29174024	 -36.65641554	 32.58348048
No	 -16.29174024	 -34.61994801	 34.61994801
No	 -14.25527271	 -36.65641554	 34.61994801
No	 -14.25527271	 -34.61994801	 32.58348048
No	 -16.29174024	 -36.65641554	 36.65641554
No	 -16.29174024	 -34.61994801	 38.69288307
No	 -14.25527271	 -36.65641554	 38.69288307
No	 -14.25527271	 -34.61994801	 36.65641554
Co	 -16.29174024	 -32.58348048	 -40.72935060
No	 -16.29174024	 -30.54701295	 -38.69288307
No	 -14.25527271	 -32.58348048	 -38.69288307
Co	 -14.25527271	 -30.54701295	 -40.72935060
No	 -16.29174024	 -32.58348048	 -36.65641554
No	 -16.29174024	 -30.54701295	 -34.61994801
No	 -14.25527271	 -32.58348048	 -34.61994801
No	 -14.25527271	 -30.54701295	 -36.65641554
No	 -16.29174024	 -32.58348048	 -32.58348048
No	 -16.29174024	 -30.54701295	 -30.54701295
No	 -14.25527271	 -32.58348048	 -30.54701295
No	 -14.25527271	 -30.54701295	 -32.58348048
No	 -16.29174024	 -32.58348048	 -28.51054542
No	 -16.29174024	 -30.54701295	 -26.47407789
No	 -14.25527271	 -32.58348048	 -26.47407789
No	 -14.25527271	 -30.54701295	 -28.51054542
No	 -16.29174024	 -32.58348048	 -24.43761036
No	 -16.29174024	 -30.54701295	 -22.40114283
No	 -14.25527271	 -32.58348048	 -22.40114283
No	 -14.25527271	 -30.54701295	 -24.43761036
No	 -16.29174024	 -32.58348048	 -20.36467530
No	 -16.29174024	 -30.54701295	 -18.32820777
No	 -14.25527271	 -32.58348048	 -18.32820777
No	 -14.25527271	 -30.54701295	 -20.36467530
No	 -16.29174024	 -32.58348048	 -16.29174024
No	 -16.29174024	 -30.54701295	 -14.25527271
No	 -14.25527271	 -30.54701295	 -16.29174024
No	 -16.29174024	 -30.54701295	 14.25527271
No	 -16.29174024	 -32.58348048	 16.29174024
No	 -16.29174024	 -30.54701295	 18.32820777
No	 -14.25527271	 -32.58348048	 18.32820777
No	 -14.25527271	 -30.54701295	 16.29174024
No	 -16.29174024	 -32.58348048	 20.36467530
No	 -16.29174024	 -30.54701295	 22.40114283
No	 -14.25527271	 -32.58348048	 22.40114283
No	 -14.25527271	 -30.54701295	 20.36467530
No	 -16.29174024	 -32.58348048	 24.43761036
No	 -16.29174024	 -30.54701295	 26.47407789
No	 -14.25527271	 -32.58348048	 26.47407789
No	 -14.25527271	 -30.54701295	 24.43761036
No	 -16.29174024	 -32.58348048	 28.51054542
No	 -16.29174024	 -30.54701295	 30.54701295
No	 -14.25527271	 -32.58348048	 30.54701295
No	 -14.25527271	 -30.54701295	 28.51054542
No	 -16.29174024	 -32.58348048	 32.58348048
No	 -16.29174024	 -30.54701295	 34.61994801
No	 -14.25527271	 -32.58348048	 34.61994801
No	 -14.25527271	 -30.54701295	 32.58348048
No	 -16.29174024	 -32.58348048	 36.65641554
No	 -16.29174024	 -30.54701295	 38.69288307
No	 -14.25527271	 -32.58348048	 38.69288307
No	 -14.25527271	 -30.54701295	 36.65641554
Co	 -16.29174024	 -28.51054542	 -40.72935060
No	 -16.29174024	 -26.47407789	 -38.69288307
No	 -14.25527271	 -28.51054542	 -38.69288307
Co	 -14.25527271	 -26.47407789	 -40.72935060
No	 -16.29174024	 -28.51054542	 -36.65641554
No	 -16.29174024	 -26.47407789	 -34.61994801
No	 -14.25527271	 -28.51054542	 -34.61994801
No	 -14.25527271	 -26.47407789	 -36.65641554
No	 -16.29174024	 -28.51054542	 -32.58348048
No	 -16.29174024	 -26.47407789	 -30.54701295
No	 -14.25527271	 -28.51054542	 -30.54701295
No	 -14.25527271	 -26.47407789	 -32.58348048
No	 -16.29174024	 -28.51054542	 -28.51054542
No	 -16.29174024	 -26.47407789	 -26.47407789
No	 -14.25527271	 -28.51054542	 -26.47407789
No	 -14.25527271	 -26.47407789	 -28.51054542
No	 -16.29174024	 -28.51054542	 -24.43761036
No	 -16.29174024	 -26.47407789	 -22.40114283
No	 -14.25527271	 -28.51054542	 -22.40114283
No	 -14.25527271	 -26.47407789	 -24.43761036
No	 -16.29174024	 -28.51054542	 -20.36467530
No	 -16.29174024	 -26.47407789	 -18.32820777
No	 -14.25527271	 -28.51054542	 -18.32820777
No	 -14.25527271	 -26.47407789	 -20.36467530
No	 -16.29174024	 -28.51054542	 -16.29174024
No	 -16.29174024	 -26.47407789	 -14.25527271
No	 -14.25527271	 -28.51054542	 -14.25527271
No	 -14.25527271	 -26.47407789	 -16.29174024
No	 -16.29174024	 -28.51054542	 -12.21880518
No	 -16.29174024	 -26.47407789	 -10.18233765
No	 -14.25527271	 -26.47407789	 -12.21880518
No	 -16.29174024	 -26.47407789	 10.18233765
No	 -16.29174024	 -28.51054542	 12.21880518
No	 -16.29174024	 -26.47407789	 14.25527271
No	 -14.25527271	 -28.51054542	 14.25527271
No	 -14.25527271	 -26.47407789	 12.21880518
No	 -16.29174024	 -28.51054542	 16.29174024
No	 -16.29174024	 -26.47407789	 18.32820777
No	 -14.25527271	 -28.51054542	 18.32820777
No	 -14.25527271	 -26.47407789	 16.29174024
No	 -16.29174024	 -28.51054542	 20.36467530
No	 -16.29174024	 -26.47407789	 22.40114283
No	 -14.25527271	 -28.51054542	 22.40114283
No	 -14.25527271	 -26.47407789	 20.36467530
No	 -16.29174024	 -28.51054542	 24.43761036
No	 -16.29174024	 -26.47407789	 26.47407789
No	 -14.25527271	 -28.51054542	 26.47407789
No	 -14.25527271	 -26.47407789	 24.43761036
No	 -16.29174024	 -28.51054542	 28.51054542
No	 -16.29174024	 -26.47407789	 30.54701295
No	 -14.25527271	 -28.51054542	 30.54701295
No	 -14.25527271	 -26.47407789	 28.51054542
No	 -16.29174024	 -28.51054542	 32.58348048
No	 -16.29174024	 -26.47407789	 34.61994801
No	 -14.25527271	 -28.51054542	 34.61994801
No	 -14.25527271	 -26.47407789	 32.58348048
No	 -16.29174024	 -28.51054542	 36.65641554
No	 -16.29174024	 -26.47407789	 38.69288307
No	 -14.25527271	 -28.51054542	 38.69288307
No	 -14.25527271	 -26.47407789	 36.65641554
Co	 -16.29174024	 -24.43761036	 -40.72935060
No	 -16.29174024	 -22.40114283	 -38.69288307
No	 -14.25527271	 -24.43761036	 -38.69288307
Co	 -14.25527271	 -22.40114283	 -40.72935060
No	 -16.29174024	 -24.43761036	 -36.65641554
No	 -16.29174024	 -22.40114283	 -34.61994801
No	 -14.25527271	 -24.43761036	 -34.61994801
No	 -14.25527271	 -22.40114283	 -36.65641554
No	 -16.29174024	 -24.43761036	 -32.58348048
No	 -16.29174024	 -22.40114283	 -30.54701295
No	 -14.25527271	 -24.43761036	 -30.54701295
No	 -14.25527271	 -22.40114283	 -32.58348048
No	 -16.29174024	 -24.43761036	 -28.51054542
No	 -16.29174024	 -22.40114283	 -26.47407789
No	 -14.25527271	 -24.43761036	 -26.47407789
No	 -14.25527271	 -22.40114283	 -28.51054542
No	 -16.29174024	 -24.43761036	 -24.43761036
No	 -16.29174024	 -22.40114283	 -22.40114283
No	 -14.25527271	 -24.43761036	 -22.40114283
No	 -14.25527271	 -22.40114283	 -24.43761036
No	 -16.29174024	 -24.43761036	 -20.36467530
No	 -16.29174024	 -22.40114283	 -18.32820777
No	 -14.25527271	 -24.43761036	 -18.32820777
No	 -14.25527271	 -22.40114283	 -20.36467530
No	 -16.29174024	 -24.43761036	 -16.29174024
No	 -16.29174024	 -22.40114283	 -14.25527271
No	 -14.25527271	 -24.43761036	 -14.25527271
No	 -14.25527271	 -22.40114283	 -16.29174024
No	 -16.29174024	 -24.43761036	 -12.21880518
No	 -16.29174024	 -22.40114283	 -10.18233765
No	 -14.25527271	 -24.43761036	 -10.18233765
No	 -14.25527271	 -22.40114283	 -12.21880518
No	 -16.29174024	 -24.43761036	 -8.14587012
No	 -16.29174024	 -22.40114283	 -6.10940259
No	 -14.25527271	 -22.40114283	 -8.14587012
No	 -16.29174024	 -22.40114283	 6.10940259
No	 -16.29174024	 -24.43761036	 8.14587012
No	 -16.29174024	 -22.40114283	 10.18233765
No	 -14.25527271	 -24.43761036	 10.18233765
No	 -14.25527271	 -22.40114283	 8.14587012
No	 -16.29174024	 -24.43761036	 12.21880518
No	 -16.29174024	 -22.40114283	 14.25527271
No	 -14.25527271	 -24.43761036	 14.25527271
No	 -14.25527271	 -22.40114283	 12.21880518
No	 -16.29174024	 -24.43761036	 16.29174024
No	 -16.29174024	 -22.40114283	 18.32820777
No	 -14.25527271	 -24.43761036	 18.32820777
No	 -14.25527271	 -22.40114283	 16.29174024
No	 -16.29174024	 -24.43761036	 20.36467530
No	 -16.29174024	 -22.40114283	 22.40114283
No	 -14.25527271	 -24.43761036	 22.40114283
No	 -14.25527271	 -22.40114283	 20.36467530
No	 -16.29174024	 -24.43761036	 24.43761036
No	 -16.29174024	 -22.40114283	 26.47407789
No	 -14.25527271	 -24.43761036	 26.47407789
No	 -14.25527271	 -22.40114283	 24.43761036
No	 -16.29174024	 -24.43761036	 28.51054542
No	 -16.29174024	 -22.40114283	 30.54701295
No	 -14.25527271	 -24.43761036	 30.54701295
No	 -14.25527271	 -22.40114283	 28.51054542
No	 -16.29174024	 -24.43761036	 32.58348048
No	 -16.29174024	 -22.40114283	 34.61994801
No	 -14.25527271	 -24.43761036	 34.61994801
No	 -14.25527271	 -22.40114283	 32.58348048
No	 -16.29174024	 -24.43761036	 36.65641554
No	 -16.29174024	 -22.40114283	 38.69288307
No	 -14.25527271	 -24.43761036	 38.69288307
No	 -14.25527271	 -22.40114283	 36.65641554
Co	 -16.29174024	 -20.36467530	 -40.72935060
No	 -16.29174024	 -20.36467530	 -36.65641554
No	 -16.29174024	 -18.32820777	 -34.61994801
No	 -14.25527271	 -20.36467530	 -34.61994801
No	 -16.29174024	 -20.36467530	 -32.58348048
No	 -16.29174024	 -18.32820777	 -30.54701295
No	 -14.25527271	 -20.36467530	 -30.54701295
No	 -14.25527271	 -18.32820777	 -32.58348048
No	 -16.29174024	 -20.36467530	 -28.51054542
No	 -16.29174024	 -18.32820777	 -26.47407789
No	 -14.25527271	 -20.36467530	 -26.47407789
No	 -14.25527271	 -18.32820777	 -28.51054542
No	 -16.29174024	 -20.36467530	 -24.43761036
No	 -16.29174024	 -18.32820777	 -22.40114283
No	 -14.25527271	 -20.36467530	 -22.40114283
No	 -14.25527271	 -18.32820777	 -24.43761036
No	 -16.29174024	 -20.36467530	 -20.36467530
No	 -16.29174024	 -18.32820777	 -18.32820777
No	 -14.25527271	 -20.36467530	 -18.32820777
No	 -14.25527271	 -18.32820777	 -20.36467530
No	 -16.29174024	 -20.36467530	 -16.29174024
No	 -16.29174024	 -18.32820777	 -14.25527271
No	 -14.25527271	 -20.36467530	 -14.25527271
No	 -14.25527271	 -18.32820777	 -16.29174024
No	 -16.29174024	 -20.36467530	 -12.21880518
No	 -16.29174024	 -18.32820777	 -10.18233765
No	 -14.25527271	 -20.36467530	 -10.18233765
No	 -14.25527271	 -18.32820777	 -12.21880518
No	 -16.29174024	 -20.36467530	 -8.14587012
No	 -16.29174024	 -18.32820777	 -6.10940259
No	 -14.25527271	 -20.36467530	 -6.10940259
No	 -14.25527271	 -18.32820777	 -8.14587012
No	 -16.29174024	 -20.36467530	 -4.07293506
No	 -16.29174024	 -18.32820777	 -2.03646753
No	 -14.25527271	 -18.32820777	 -4.07293506
No	 -16.29174024	 -18.32820777	 2.03646753
No	 -16.29174024	 -20.36467530	 4.07293506
No	 -16.29174024	 -18.32820777	 6.10940259
No	 -14.25527271	 -20.36467530	 6.10940259
No	 -14.25527271	 -18.32820777	 4.07293506
No	 -16.29174024	 -20.36467530	 8.14587012
No	 -16.29174024	 -18.32820777	 10.18233765
No	 -14.25527271	 -20.36467530	 10.18233765
No	 -14.25527271	 -18.32820777	 8.14587012
No	 -16.29174024	 -20.36467530	 12.21880518
No	 -16.29174024	 -18.32820777	 14.25527271
No	 -14.25527271	 -20.36467530	 14.25527271
No	 -14.25527271	 -18.32820777	 12.21880518
No	 -16.29174024	 -20.36467530	 16.29174024
No	 -16.29174024	 -18.32820777	 18.32820777
No	 -14.25527271	 -20.36467530	 18.32820777
No	 -14.25527271	 -18.32820777	 16.29174024
No	 -16.29174024	 -20.36467530	 20.36467530
No	 -16.29174024	 -18.32820777	 22.40114283
No	 -14.25527271	 -20.36467530	 22.40114283
No	 -14.25527271	 -18.32820777	 20.36467530
No	 -16.29174024	 -20.36467530	 24.43761036
No	 -16.29174024	 -18.32820777	 26.47407789
No	 -14.25527271	 -20.36467530	 26.47407789
No	 -14.25527271	 -18.32820777	 24.43761036
No	 -16.29174024	 -20.36467530	 28.51054542
No	 -16.29174024	 -18.32820777	 30.54701295
No	 -14.25527271	 -20.36467530	 30.54701295
No	 -14.25527271	 -18.32820777	 28.51054542
No	 -16.29174024	 -20.36467530	 32.58348048
No	 -16.29174024	 -18.32820777	 34.61994801
No	 -14.25527271	 -20.36467530	 34.61994801
No	 -14.25527271	 -18.32820777	 32.58348048
No	 -16.29174024	 -20.36467530	 36.65641554
No	 -16.29174024	 -16.29174024	 -32.58348048
No	 -16.29174024	 -14.25527271	 -30.54701295
No	 -14.25527271	 -16.29174024	 -30.54701295
No	 -16.29174024	 -16.29174024	 -28.51054542
No	 -16.29174024	 -14.25527271	 -26.47407789
No	 -14.25527271	 -16.29174024	 -26.47407789
No	 -14.25527271	 -14.25527271	 -28.51054542
No	 -16.29174024	 -16.29174024	 -24.43761036
No	 -16.29174024	 -14.25527271	 -22.40114283
No	 -14.25527271	 -16.29174024	 -22.40114283
No	 -14.25527271	 -14.25527271	 -24.43761036
No	 -16.29174024	 -16.29174024	 -20.36467530
No	 -16.29174024	 -14.25527271	 -18.32820777
No	 -14.25527271	 -16.29174024	 -18.32820777
No	 -14.25527271	 -14.25527271	 -20.36467530
No	 -16.29174024	 -16.29174024	 -16.29174024
No	 -16.29174024	 -14.25527271	 -14.25527271
No	 -14.25527271	 -16.29174024	 -14.25527271
No	 -14.25527271	 -14.25527271	 -16.29174024
No	 -16.29174024	 -16.29174024	 -12.21880518
No	 -16.29174024	 -14.25527271	 -10.18233765
No	 -14.25527271	 -16.29174024	 -10.18233765
No	 -14.25527271	 -14.25527271	 -12.21880518
No	 -16.29174024	 -16.29174024	 -8.14587012
No	 -16.29174024	 -14.25527271	 -6.10940259
No	 -14.25527271	 -16.29174024	 -6.10940259
No	 -14.25527271	 -14.25527271	 -8.14587012
No	 -16.29174024	 -16.29174024	 -4.07293506
No	 -16.29174024	 -14.25527271	 -2.03646753
No	 -14.25527271	 -16.29174024	 -2.03646753
No	 -14.25527271	 -14.25527271	 -4.07293506
No	 -16.29174024	 -16.29174024	 -0.00000000
No	 -16.29174024	 -14.25527271	 2.03646753
No	 -14.25527271	 -16.29174024	 2.03646753
No	 -14.25527271	 -14.25527271	 -0.00000000
No	 -16.29174024	 -16.29174024	 4.07293506
No	 -16.29174024	 -14.25527271	 6.10940259
No	 -14.25527271	 -16.29174024	 6.10940259
No	 -14.25527271	 -14.25527271	 4.07293506
No	 -16.29174024	 -16.29174024	 8.14587012
No	 -16.29174024	 -14.25527271	 10.18233765
No	 -14.25527271	 -16.29174024	 10.18233765
No	 -14.25527271	 -14.25527271	 8.14587012
No	 -16.29174024	 -16.29174024	 12.21880518
No	 -16.29174024	 -14.25527271	 14.25527271
No	 -14.25527271	 -16.29174024	 14.25527271
No	 -14.25527271	 -14.25527271	 12.21880518
No	 -16.29174024	 -16.29174024	 16.29174024
No	 -16.29174024	 -14.25527271	 18.32820777
No	 -14.25527271	 -16.29174024	 18.32820777
No	 -14.25527271	 -14.25527271	 16.29174024
No	 -16.29174024	 -16.29174024	 20.36467530
No	 -16.29174024	 -14.25527271	 22.40114283
No	 -14.25527271	 -16.29174024	 22.40114283
No	 -14.25527271	 -14.25527271	 20.36467530
No	 -16.29174024	 -16.29174024	 24.43761036
No	 -16.29174024	 -14.25527271	 26.47407789
No	 -14.25527271	 -16.29174024	 26.47407789
No	 -14.25527271	 -14.25527271	 24.43761036
No	 -16.29174024	 -16.29174024	 28.51054542
No	 -16.29174024	 -14.25527271	 30.54701295
No	 -14.25527271	 -16.29174024	 30.54701295
No	 -14.25527271	 -14.25527271	 28.51054542
No	 -16.29174024	 -16.29174024	 32.58348048
No	 -16.29174024	 -12.21880518	 -28.51054542
No	 -16.29174024	 -10.18233765	 -26.47407789
No	 -14.25527271	 -12.21880518	 -26.47407789
No	 -16.29174024	 -12.21880518	 -24.43761036
No	 -16.29174024	 -10.18233765	 -22.40114283
No	 -14.25527271	 -12.21880518	 -22.40114283
No	 -14.25527271	 -10.18233765	 -24.43761036
No	 -16.29174024	 -12.21880518	 -20.36467530
No	 -16.29174024	 -10.18233765	 -18.32820777
No	 -14.25527271	 -12.21880518	 -18.32820777
No	 -14.25527271	 -10.18233765	 -20.36467530
No	 -16.29174024	 -12.21880518	 -16.29174024
No	 -16.29174024	 -10.18233765	 -14.25527271
No	 -14.25527271	 -12.21880518	 -14.25527271
No	 -14.25527271	 -10.18233765	 -16.29174024
No	 -16.29174024	 -12.21880518	 -12.21880518
No	 -16.29174024	 -10.18233765	 -10.18233765
No	 -14.25527271	 -12.21880518	 -10.18233765
No	 -14.25527271	 -10.18233765	 -12.21880518
No	 -16.29174024	 -12.21880518	 -8.14587012
No	 -16.29174024	 -10.18233765	 -6.10940259
No	 -14.25527271	 -12.21880518	 -6.10940259
No	 -14.25527271	 -10.18233765	 -8.14587012
No	 -16.29174024	 -12.21880518	 -4.07293506
No	 -14.25527271	 -12.21880518	 -2.03646753
No	 -14.25527271	 -10.18233765	 -4.07293506
No	 -14.25527271	 -12.21880518	 2.03646753
No	 -16.29174024	 -12.21880518	 4.07293506
No	 -16.29174024	 -10.18233765	 6.10940259
No	 -14.25527271	 -12.21880518	 6.10940259
No	 -14.25527271	 -10.18233765	 4.07293506
No	 -16.29174024	 -12.21880518	 8.14587012
No	 -16.29174024	 -10.18233765	 10.18233765
No	 -14.25527271	 -12.21880518	 10.18233765
No	 -14.25527271	 -10.18233765	 8.14587012
No	 -16.29174024	 -12.21880518	 12.21880518
No	 -16.29174024	 -10.18233765	 14.25527271
No	 -14.25527271	 -12.21880518	 14.25527271
No	 -14.25527271	 -10.18233765	 12.21880518
No	 -16.29174024	 -12.21880518	 16.29174024
No	 -16.29174024	 -10.18233765	 18.32820777
No	 -14.25527271	 -12.21880518	 18.32820777
No	 -14.25527271	 -10.18233765	 16.29174024
No	 -16.29174024	 -12.21880518	 20.36467530
No	 -16.29174024	 -10.18233765	 22.40114283
No	 -14.25527271	 -12.21880518	 22.40114283
No	 -14.25527271	 -10.18233765	 20.36467530
No	 -16.29174024	 -12.21880518	 24.43761036
No	 -16.29174024	 -10.18233765	 26.47407789
No	 -14.25527271	 -12.21880518	 26.47407789
No	 -14.25527271	 -10.18233765	 24.43761036
No	 -16.29174024	 -12.21880518	 28.51054542
No	 -16.29174024	 -8.14587012	 -24.43761036
No	 -16.29174024	 -6.10940259	 -22.40114283
No	 -14.25527271	 -8.14587012	 -22.40114283
No	 -16.29174024	 -8.14587012	 -20.36467530
No	 -16.29174024	 -6.10940259	 -18.32820777
No	 -14.25527271	 -8.14587012	 -18.32820777
No	 -14.25527271	 -6.10940259	 -20.36467530
No	 -16.29174024	 -8.14587012	 -16.29174024
No	 -16.29174024	 -6.10940259	 -14.25527271
No	 -14.25527271	 -8.14587012	 -14.25527271
No	 -14.25527271	 -6.10940259	 -16.29174024
No	 -16.29174024	 -8.14587012	 -12.21880518
No	 -16.29174024	 -6.10940259	 -10.18233765
No	 -14.25527271	 -8.14587012	 -10.18233765
No	 -14.25527271	 -6.10940259	 -12.21880518
No	 -16.29174024	 -8.14587012	 -8.14587012
No	 -14.25527271	 -8.14587012	 -6.10940259
No	 -14.25527271	 -6.10940259	 -8.14587012
No	 -14.25527271	 -8.14587012	 6.10940259
No	 -16.29174024	 -8.14587012	 8.14587012
No	 -16.29174024	 -6.10940259	 10.18233765
No	 -14.25527271	 -8.14587012	 10.18233765
No	 -14.25527271	 -6.10940259	 8.14587012
No	 -16.29174024	 -8.14587012	 12.21880518
No	 -16.29174024	 -6.10940259	 14.25527271
No	 -14.25527271	 -8.14587012	 14.25527271
No	 -14.25527271	 -6.10940259	 12.21880518
No	 -16.29174024	 -8.14587012	 16.29174024
No	 -16.29174024	 -6.10940259	 18.32820777
No	 -14.25527271	 -8.14587012	 18.32820777
No	 -14.25527271	 -6.10940259	 16.29174024
No	 -16.29174024	 -8.14587012	 20.36467530
No	 -16.29174024	 -6.10940259	 22.40114283
No	 -14.25527271	 -8.14587012	 22.40114283
No	 -14.25527271	 -6.10940259	 20.36467530
No	 -16.29174024	 -8.14587012	 24.43761036
No	 -16.29174024	 -4.07293506	 -20.36467530
No	 -16.29174024	 -2.03646753	 -18.32820777
No	 -14.25527271	 -4.07293506	 -18.32820777
No	 -16.29174024	 -4.07293506	 -16.29174024
No	 -16.29174024	 -2.03646753	 -14.25527271
No	 -14.25527271	 -4.07293506	 -14.25527271
No	 -14.25527271	 -2.03646753	 -16.29174024
No	 -16.29174024	 -4.07293506	 -12.21880518
No	 -14.25527271	 -4.07293506	 -10.18233765
No	 -14.25527271	 -2.03646753	 -12.21880518
No	 -14.25527271	 -4.07293506	 10.18233765
No	 -16.29174024	 -4.07293506	 12.21880518
No	 -16.29174024	 -2.03646753	 14.25527271
No	 -14.25527271	 -4.07293506	 14.25527271
No	 -14.25527271	 -2.03646753	 12.21880518
No	 -16.29174024	 -4.07293506	 16.29174024
No	 -16.29174024	 -2.03646753	 18.32820777
No	 -14.25527271	 -4.07293506	 18.32820777
No	 -14.25527271	 -2.03646753	 16.29174024
No	 -16.29174024	 -4.07293506	 20.36467530
No	 -16.29174024	 2.03646753	 -18.32820777
No	 -16.29174024	 -0.00000000	 -16.29174024
No	 -16.29174024	 2.03646753	 -14.25527271
No	 -14.25527271	 -0.00000000	 -14.25527271
No	 -14.25527271	 2.03646753	 -16.29174024
No	 -14.25527271	 2.03646753	 -12.21880518
No	 -16.29174024	 2.03646753	 14.25527271
No	 -14.25527271	 -0.00000000	 14.25527271
No	 -14.25527271	 2.03646753	 12.21880518
No	 -16.29174024	 -0.00000000	 16.29174024
No	 -16.29174024	 2.03646753	 18.32820777
No	 -14.25527271	 2.03646753	 16.29174024
No	 -16.29174024	 6.10940259	 -22.40114283
No	 -16.29174024	 4.07293506	 -20.36467530
No	 -16.29174024	 6.10940259	 -18.32820777
No	 -14.25527271	 4.07293506	 -18.32820777
No	 -14.25527271	 6.10940259	 -20.36467530
No	 -16.29174024	 4.07293506	 -16.29174024
No	 -16.29174024	 6.10940259	 -14.25527271
No	 -14.25527271	 4.07293506	 -14.25527271
No	 -14.25527271	 6.10940259	 -16.29174024
No	 -16.29174024	 4.07293506	 -12.21880518
No	 -16.29174024	 6.10940259	 -10.18233765
No	 -14.25527271	 4.07293506	 -10.18233765
No	 -14.25527271	 6.10940259	 -12.21880518
No	 -14.25527271	 6.10940259	 -8.14587012
No	 -16.29174024	 6.10940259	 10.18233765
No	 -14.25527271	 4.07293506	 10.18233765
No	 -14.25527271	 6.10940259	 8.14587012
No	 -16.29174024	 4.07293506	 12.21880518
No	 -16.29174024	 6.10940259	 14.25527271
No	 -14.25527271	 4.07293506	 14.25527271
No	 -14.25527271	 6.10940259	 12.21880518
No	 -16.29174024	 4.07293506	 16.29174024
No	 -16.29174024	 6.10940259	 18.32820777
No	 -14.25527271	 4.07293506	 18.32820777
No	 -14.25527271	 6.10940259	 16.29174024
No	 -16.29174024	 4.07293506	 20.36467530
No	 -16.29174024	 6.10940259	 22.40114283
No	 -14.25527271	 6.10940259	 20.36467530
No	 -16.29174024	 10.18233765	 -26.47407789
No	 -16.29174024	 8.14587012	 -24.43761036
No	 -16.29174024	 10.18233765	 -22.40114283
No	 -14.25527271	 8.14587012	 -22.40114283
No	 -14.25527271	 10.18233765	 -24.43761036
No	 -16.29174024	 8.14587012	 -20.36467530
No	 -16.29174024	 10.18233765	 -18.32820777
No	 -14.25527271	 8.14587012	 -18.32820777
No	 -14.25527271	 10.18233765	 -20.36467530
No	 -16.29174024	 8.14587012	 -16.29174024
No	 -16.29174024	 10.18233765	 -14.25527271
No	 -14.25527271	 8.14587012	 -14.25527271
No	 -14.25527271	 10.18233765	 -16.29174024
No	 -16.29174024	 8.14587012	 -12.21880518
No	 -16.29174024	 10.18233765	 -10.18233765
No	 -14.25527271	 8.14587012	 -10.18233765
No	 -14.25527271	 10.18233765	 -12.21880518
No	 -16.29174024	 8.14587012	 -8.14587012
No	 -16.29174024	 10.18233765	 -6.10940259
No	 -14.25527271	 8.14587012	 -6.10940259
No	 -14.25527271	 10.18233765	 -8.14587012
No	 -14.25527271	 10.18233765	 -4.07293506
No	 -16.29174024	 10.18233765	 6.10940259
No	 -14.25527271	 8.14587012	 6.10940259
No	 -14.25527271	 10.18233765	 4.07293506
No	 -16.29174024	 8.14587012	 8.14587012
No	 -16.29174024	 10.18233765	 10.18233765
No	 -14.25527271	 8.14587012	 10.18233765
No	 -14.25527271	 10.18233765	 8.14587012
No	 -16.29174024	 8.14587012	 12.21880518
No	 -16.29174024	 10.18233765	 14.25527271
No	 -14.25527271	 8.14587012	 14.25527271
No	 -14.25527271	 10.18233765	 12.21880518
No	 -16.29174024	 8.14587012	 16.29174024
No	 -16.29174024	 10.18233765	 18.32820777
No	 -14.25527271	 8.14587012	 18.32820777
No	 -14.25527271	 10.18233765	 16.29174024
No	 -16.29174024	 8.14587012	 20.36467530
No	 -16.29174024	 10.18233765	 22.40114283
No	 -14.25527271	 8.14587012	 22.40114283
No	 -14.25527271	 10.18233765	 20.36467530
No	 -16.29174024	 8.14587012	 24.43761036
No	 -16.29174024	 10.18233765	 26.47407789
No	 -14.25527271	 10.18233765	 24.43761036
No	 -16.29174024	 14.25527271	 -30.54701295
No	 -16.29174024	 12.21880518	 -28.51054542
No	 -16.29174024	 14.25527271	 -26.47407789
No	 -14.25527271	 12.21880518	 -26.47407789
No	 -14.25527271	 14.25527271	 -28.51054542
No	 -16.29174024	 12.21880518	 -24.43761036
No	 -16.29174024	 14.25527271	 -22.40114283
No	 -14.25527271	 12.21880518	 -22.40114283
No	 -14.25527271	 14.25527271	 -24.43761036
No	 -16.29174024	 12.21880518	 -20.36467530
No	 -16.29174024	 14.25527271	 -18.32820777
No	 -14.25527271	 12.21880518	 -18.32820777
No	 -14.25527271	 14.25527271	 -20.36467530
No	 -16.29174024	 12.21880518	 -16.29174024
No	 -16.29174024	 14.25527271	 -14.25527271
No	 -14.25527271	 12.21880518	 -14.25527271
No	 -14.25527271	 14.25527271	 -16.29174024
No	 -16.29174024	 12.21880518	 -12.21880518
No	 -16.29174024	 14.25527271	 -10.18233765
No	 -14.25527271	 12.21880518	 -10.18233765
No	 -14.25527271	 14.25527271	 -12.21880518
No	 -16.29174024	 12.21880518	 -8.14587012
No	 -16.29174024	 14.25527271	 -6.10940259
No	 -14.25527271	 12.21880518	 -6.10940259
No	 -14.25527271	 14.25527271	 -8.14587012
No	 -16.29174024	 12.21880518	 -4.07293506
No	 -16.29174024	 14.25527271	 -2.03646753
No	 -14.25527271	 12.21880518	 -2.03646753
No	 -14.25527271	 14.25527271	 -4.07293506
No	 -16.29174024	 14.25527271	 2.03646753
No	 -14.25527271	 12.21880518	 2.03646753
No	 -14.25527271	 14.25527271	 -0.00000000
No	 -16.29174024	 12.21880518	 4.07293506
No	 -16.29174024	 14.25527271	 6.10940259
No	 -14.25527271	 12.21880518	 6.10940259
No	 -14.25527271	 14.25527271	 4.07293506
No	 -16.29174024	 12.21880518	 8.14587012
No	 -16.29174024	 14.25527271	 10.18233765
No	 -14.25527271	 12.21880518	 10.18233765
No	 -14.25527271	 14.25527271	 8.14587012
No	 -16.29174024	 12.21880518	 12.21880518
No	 -16.29174024	 14.25527271	 14.25527271
No	 -14.25527271	 12.21880518	 14.25527271
No	 -14.25527271	 14.25527271	 12.21880518
No	 -16.29174024	 12.21880518	 16.29174024
No	 -16.29174024	 14.25527271	 18.32820777
No	 -14.25527271	 12.21880518	 18.32820777
No	 -14.25527271	 14.25527271	 16.29174024
No	 -16.29174024	 12.21880518	 20.36467530
No	 -16.29174024	 14.25527271	 22.40114283
No	 -14.25527271	 12.21880518	 22.40114283
No	 -14.25527271	 14.25527271	 20.36467530
No	 -16.29174024	 12.21880518	 24.43761036
No	 -16.29174024	 14.25527271	 26.47407789
No	 -14.25527271	 12.21880518	 26.47407789
No	 -14.25527271	 14.25527271	 24.43761036
No	 -16.29174024	 12.21880518	 28.51054542
No	 -16.29174024	 14.25527271	 30.54701295
No	 -14.25527271	 14.25527271	 28.51054542
No	 -16.29174024	 18.32820777	 -34.61994801
No	 -16.29174024	 16.29174024	 -32.58348048
No	 -16.29174024	 18.32820777	 -30.54701295
No	 -14.25527271	 16.29174024	 -30.54701295
No	 -14.25527271	 18.32820777	 -32.58348048
No	 -16.29174024	 16.29174024	 -28.51054542
No	 -16.29174024	 18.32820777	 -26.47407789
No	 -14.25527271	 16.29174024	 -26.47407789
No	 -14.25527271	 18.32820777	 -28.51054542
No	 -16.29174024	 16.29174024	 -24.43761036
No	 -16.29174024	 18.32820777	 -22.40114283
No	 -14.25527271	 16.29174024	 -22.40114283
No	 -14.25527271	 18.32820777	 -24.43761036
No	 -16.29174024	 16.29174024	 -20.36467530
No	 -16.29174024	 18.32820777	 -18.32820777
No	 -14.25527271	 16.29174024	 -18.32820777
No	 -14.25527271	 18.32820777	 -20.36467530
No	 -16.29174024	 16.29174024	 -16.29174024
No	 -16.29174024	 18.32820777	 -14.25527271
No	 -14.25527271	 16.29174024	 -14.25527271
No	 -14.25527271	 18.32820777	 -16.29174024
No	 -16.29174024	 16.29174024	 -12.21880518
No	 -16.29174024	 18.32820777	 -10.18233765
No	 -14.25527271	 16.29174024	 -10.18233765
No	 -14.25527271	 18.32820777	 -12.21880518
No	 -16.29174024	 16.29174024	 -8.14587012
No	 -16.29174024	 18.32820777	 -6.10940259
No	 -14.25527271	 16.29174024	 -6.10940259
No	 -14.25527271	 18.32820777	 -8.14587012
No	 -16.29174024	 16.29174024	 -4.07293506
No	 -16.29174024	 18.32820777	 -2.03646753
No	 -14.25527271	 16.29174024	 -2.03646753
No	 -14.25527271	 18.32820777	 -4.07293506
No	 -16.29174024	 16.29174024	 -0.00000000
No	 -16.29174024	 18.32820777	 2.03646753
No	 -14.25527271	 16.29174024	 2.03646753
No	 -16.29174024	 16.29174024	 4.07293506
No	 -16.29174024	 18.32820777	 6.10940259
No	 -14.25527271	 16.29174024	 6.10940259
No	 -14.25527271	 18.32820777	 4.07293506
No	 -16.29174024	 16.29174024	 8.14587012
No	 -16.29174024	 18.32820777	 10.18233765
No	 -14.25527271	 16.29174024	 10.18233765
No	 -14.25527271	 18.32820777	 8.14587012
No	 -16.29174024	 16.29174024	 12.21880518
No	 -16.29174024	 18.32820777	 14.25527271
No	 -14.25527271	 16.29174024	 14.25527271
No	 -14.25527271	 18.32820777	 12.21880518
No	 -16.29174024	 16.29174024	 16.29174024
No	 -16.29174024	 18.32820777	 18.32820777
No	 -14.25527271	 16.29174024	 18.32820777
No	 -14.25527271	 18.32820777	 16.29174024
No	 -16.29174024	 16.29174024	 20.36467530
No	 -16.29174024	 18.32820777	 22.40114283
No	 -14.25527271	 16.29174024	 22.40114283
No	 -14.25527271	 18.32820777	 20.36467530
No	 -16.29174024	 16.29174024	 24.43761036
No	 -16.29174024	 18.32820777	 26.47407789
No	 -14.25527271	 16.29174024	 26.47407789
No	 -14.25527271	 18.32820777	 24.43761036
No	 -16.29174024	 16.29174024	 28.51054542
No	 -16.29174024	 18.32820777	 30.54701295
No	 -14.25527271	 16.29174024	 30.54701295
No	 -14.25527271	 18.32820777	 28.51054542
No	 -16.29174024	 16.29174024	 32.58348048
No	 -16.29174024	 18.32820777	 34.61994801
No	 -14.25527271	 18.32820777	 32.58348048
Co	 -16.29174024	 20.36467530	 -40.72935060
No	 -16.29174024	 22.40114283	 -38.69288307
Co	 -14.25527271	 22.40114283	 -40.72935060
No	 -16.29174024	 20.36467530	 -36.65641554
No	 -16.29174024	 22.40114283	 -34.61994801
No	 -14.25527271	 20.36467530	 -34.61994801
No	 -14.25527271	 22.40114283	 -36.65641554
No	 -16.29174024	 20.36467530	 -32.58348048
No	 -16.29174024	 22.40114283	 -30.54701295
No	 -14.25527271	 20.36467530	 -30.54701295
No	 -14.25527271	 22.40114283	 -32.58348048
No	 -16.29174024	 20.36467530	 -28.51054542
No	 -16.29174024	 22.40114283	 -26.47407789
No	 -14.25527271	 20.36467530	 -26.47407789
No	 -14.25527271	 22.40114283	 -28.51054542
No	 -16.29174024	 20.36467530	 -24.43761036
No	 -16.29174024	 22.40114283	 -22.40114283
No	 -14.25527271	 20.36467530	 -22.40114283
No	 -14.25527271	 22.40114283	 -24.43761036
No	 -16.29174024	 20.36467530	 -20.36467530
No	 -16.29174024	 22.40114283	 -18.32820777
No	 -14.25527271	 20.36467530	 -18.32820777
No	 -14.25527271	 22.40114283	 -20.36467530
No	 -16.29174024	 20.36467530	 -16.29174024
No	 -16.29174024	 22.40114283	 -14.25527271
No	 -14.25527271	 20.36467530	 -14.25527271
No	 -14.25527271	 22.40114283	 -16.29174024
No	 -16.29174024	 20.36467530	 -12.21880518
No	 -16.29174024	 22.40114283	 -10.18233765
No	 -14.25527271	 20.36467530	 -10.18233765
No	 -14.25527271	 22.40114283	 -12.21880518
No	 -16.29174024	 20.36467530	 -8.14587012
No	 -16.29174024	 22.40114283	 -6.10940259
No	 -14.25527271	 20.36467530	 -6.10940259
No	 -14.25527271	 22.40114283	 -8.14587012
No	 -16.29174024	 20.36467530	 -4.07293506
No	 -16.29174024	 20.36467530	 4.07293506
No	 -16.29174024	 22.40114283	 6.10940259
No	 -14.25527271	 20.36467530	 6.10940259
No	 -16.29174024	 20.36467530	 8.14587012
No	 -16.29174024	 22.40114283	 10.18233765
No	 -14.25527271	 20.36467530	 10.18233765
No	 -14.25527271	 22.40114283	 8.14587012
No	 -16.29174024	 20.36467530	 12.21880518
No	 -16.29174024	 22.40114283	 14.25527271
No	 -14.25527271	 20.36467530	 14.25527271
No	 -14.25527271	 22.40114283	 12.21880518
No	 -16.29174024	 20.36467530	 16.29174024
No	 -16.29174024	 22.40114283	 18.32820777
No	 -14.25527271	 20.36467530	 18.32820777
No	 -14.25527271	 22.40114283	 16.29174024
No	 -16.29174024	 20.36467530	 20.36467530
No	 -16.29174024	 22.40114283	 22.40114283
No	 -14.25527271	 20.36467530	 22.40114283
No	 -14.25527271	 22.40114283	 20.36467530
No	 -16.29174024	 20.36467530	 24.43761036
No	 -16.29174024	 22.40114283	 26.47407789
No	 -14.25527271	 20.36467530	 26.47407789
No	 -14.25527271	 22.40114283	 24.43761036
No	 -16.29174024	 20.36467530	 28.51054542
No	 -16.29174024	 22.40114283	 30.54701295
No	 -14.25527271	 20.36467530	 30.54701295
No	 -14.25527271	 22.40114283	 28.51054542
No	 -16.29174024	 20.36467530	 32.58348048
No	 -16.29174024	 22.40114283	 34.61994801
No	 -14.25527271	 20.36467530	 34.61994801
No	 -14.25527271	 22.40114283	 32.58348048
No	 -16.29174024	 20.36467530	 36.65641554
No	 -16.29174024	 22.40114283	 38.69288307
No	 -14.25527271	 22.40114283	 36.65641554
Co	 -16.29174024	 24.43761036	 -40.72935060
No	 -16.29174024	 26.47407789	 -38.69288307
No	 -14.25527271	 24.43761036	 -38.69288307
Co	 -14.25527271	 26.47407789	 -40.72935060
No	 -16.29174024	 24.43761036	 -36.65641554
No	 -16.29174024	 26.47407789	 -34.61994801
No	 -14.25527271	 24.43761036	 -34.61994801
No	 -14.25527271	 26.47407789	 -36.65641554
No	 -16.29174024	 24.43761036	 -32.58348048
No	 -16.29174024	 26.47407789	 -30.54701295
No	 -14.25527271	 24.43761036	 -30.54701295
No	 -14.25527271	 26.47407789	 -32.58348048
No	 -16.29174024	 24.43761036	 -28.51054542
No	 -16.29174024	 26.47407789	 -26.47407789
No	 -14.25527271	 24.43761036	 -26.47407789
No	 -14.25527271	 26.47407789	 -28.51054542
No	 -16.29174024	 24.43761036	 -24.43761036
No	 -16.29174024	 26.47407789	 -22.40114283
No	 -14.25527271	 24.43761036	 -22.40114283
No	 -14.25527271	 26.47407789	 -24.43761036
No	 -16.29174024	 24.43761036	 -20.36467530
No	 -16.29174024	 26.47407789	 -18.32820777
No	 -14.25527271	 24.43761036	 -18.32820777
No	 -14.25527271	 26.47407789	 -20.36467530
No	 -16.29174024	 24.43761036	 -16.29174024
No	 -16.29174024	 26.47407789	 -14.25527271
No	 -14.25527271	 24.43761036	 -14.25527271
No	 -14.25527271	 26.47407789	 -16.29174024
No	 -16.29174024	 24.43761036	 -12.21880518
No	 -16.29174024	 26.47407789	 -10.18233765
No	 -14.25527271	 24.43761036	 -10.18233765
No	 -14.25527271	 26.47407789	 -12.21880518
No	 -16.29174024	 24.43761036	 -8.14587012
No	 -16.29174024	 24.43761036	 8.14587012
No	 -16.29174024	 26.47407789	 10.18233765
No	 -14.25527271	 24.43761036	 10.18233765
No	 -16.29174024	 24.43761036	 12.21880518
No	 -16.29174024	 26.47407789	 14.25527271
No	 -14.25527271	 24.43761036	 14.25527271
No	 -14.25527271	 26.47407789	 12.21880518
No	 -16.29174024	 24.43761036	 16.29174024
No	 -16.29174024	 26.47407789	 18.32820777
No	 -14.25527271	 24.43761036	 18.32820777
No	 -14.25527271	 26.47407789	 16.29174024
No	 -16.29174024	 24.43761036	 20.36467530
No	 -16.29174024	 26.47407789	 22.40114283
No	 -14.25527271	 24.43761036	 22.40114283
No	 -14.25527271	 26.47407789	 20.36467530
No	 -16.29174024	 24.43761036	 24.43761036
No	 -16.29174024	 26.47407789	 26.47407789
No	 -14.25527271	 24.43761036	 26.47407789
No	 -14.25527271	 26.47407789	 24.43761036
No	 -16.29174024	 24.43761036	 28.51054542
No	 -16.29174024	 26.47407789	 30.54701295
No	 -14.25527271	 24.43761036	 30.54701295
No	 -14.25527271	 26.47407789	 28.51054542
No	 -16.29174024	 24.43761036	 32.58348048
No	 -16.29174024	 26.47407789	 34.61994801
No	 -14.25527271	 24.43761036	 34.61994801
No	 -14.25527271	 26.47407789	 32.58348048
No	 -16.29174024	 24.43761036	 36.65641554
No	 -16.29174024	 26.47407789	 38.69288307
No	 -14.25527271	 24.43761036	 38.69288307
No	 -14.25527271	 26.47407789	 36.65641554
Co	 -16.29174024	 28.51054542	 -40.72935060
No	 -16.29174024	 30.54701295	 -38.69288307
No	 -14.25527271	 28.51054542	 -38.69288307
Co	 -14.25527271	 30.54701295	 -40.72935060
No	 -16.29174024	 28.51054542	 -36.65641554
No	 -16.29174024	 30.54701295	 -34.61994801
No	 -14.25527271	 28.51054542	 -34.61994801
No	 -14.25527271	 30.54701295	 -36.65641554
No	 -16.29174024	 28.51054542	 -32.58348048
No	 -16.29174024	 30.54701295	 -30.54701295
No	 -14.25527271	 28.51054542	 -30.54701295
No	 -14.25527271	 30.54701295	 -32.58348048
No	 -16.29174024	 28.51054542	 -28.51054542
No	 -16.29174024	 30.54701295	 -26.47407789
No	 -14.25527271	 28.51054542	 -26.47407789
No	 -14.25527271	 30.54701295	 -28.51054542
No	 -16.29174024	 28.51054542	 -24.43761036
No	 -16.29174024	 30.54701295	 -22.40114283
No	 -14.25527271	 28.51054542	 -22.40114283
No	 -14.25527271	 30.54701295	 -24.43761036
No	 -16.29174024	 28.51054542	 -20.36467530
No	 -16.29174024	 30.54701295	 -18.32820777
No	 -14.25527271	 28.51054542	 -18.32820777
No	 -14.25527271	 30.54701295	 -20.36467530
No	 -16.29174024	 28.51054542	 -16.29174024
No	 -16.29174024	 30.54701295	 -14.25527271
No	 -14.25527271	 28.51054542	 -14.25527271
No	 -14.25527271	 30.54701295	 -16.29174024
No	 -16.29174024	 28.51054542	 -12.21880518
No	 -16.29174024	 28.51054542	 12.21880518
No	 -16.29174024	 30.54701295	 14.25527271
No	 -14.25527271	 28.51054542	 14.25527271
No	 -16.29174024	 28.51054542	 16.29174024
No	 -16.29174024	 30.54701295	 18.32820777
No	 -14.25527271	 28.51054542	 18.32820777
No	 -14.25527271	 30.54701295	 16.29174024
No	 -16.29174024	 28.51054542	 20.36467530
No	 -16.29174024	 30.54701295	 22.40114283
No	 -14.25527271	 28.51054542	 22.40114283
No	 -14.25527271	 30.54701295	 20.36467530
No	 -16.29174024	 28.51054542	 24.43761036
No	 -16.29174024	 30.54701295	 26.47407789
No	 -14.25527271	 28.51054542	 26.47407789
No	 -14.25527271	 30.54701295	 24.43761036
No	 -16.29174024	 28.51054542	 28.51054542
No	 -16.29174024	 30.54701295	 30.54701295
No	 -14.25527271	 28.51054542	 30.54701295
No	 -14.25527271	 30.54701295	 28.51054542
No	 -16.29174024	 28.51054542	 32.58348048
No	 -16.29174024	 30.54701295	 34.61994801
No	 -14.25527271	 28.51054542	 34.61994801
No	 -14.25527271	 30.54701295	 32.58348048
No	 -16.29174024	 28.51054542	 36.65641554
No	 -16.29174024	 30.54701295	 38.69288307
No	 -14.25527271	 28.51054542	 38.69288307
No	 -14.25527271	 30.54701295	 36.65641554
Co	 -16.29174024	 32.58348048	 -40.72935060
No	 -16.29174024	 34.61994801	 -38.69288307
No	 -14.25527271	 32.58348048	 -38.69288307
Co	 -14.25527271	 34.61994801	 -40.72935060
No	 -16.29174024	 32.58348048	 -36.65641554
No	 -16.29174024	 34.61994801	 -34.61994801
No	 -14.25527271	 32.58348048	 -34.61994801
No	 -14.25527271	 34.61994801	 -36.65641554
No	 -16.29174024	 32.58348048	 -32.58348048
No	 -16.29174024	 34.61994801	 -30.54701295
No	 -14.25527271	 32.58348048	 -30.54701295
No	 -14.25527271	 34.61994801	 -32.58348048
No	 -16.29174024	 32.58348048	 -28.51054542
No	 -16.29174024	 34.61994801	 -26.47407789
No	 -14.25527271	 32.58348048	 -26.47407789
No	 -14.25527271	 34.61994801	 -28.51054542
No	 -16.29174024	 32.58348048	 -24.43761036
No	 -16.29174024	 34.61994801	 -22.40114283
No	 -14.25527271	 32.58348048	 -22.40114283
No	 -14.25527271	 34.61994801	 -24.43761036
No	 -16.29174024	 32.58348048	 -20.36467530
No	 -16.29174024	 34.61994801	 -18.32820777
No	 -14.25527271	 32.58348048	 -18.32820777
No	 -14.25527271	 34.61994801	 -20.36467530
No	 -16.29174024	 32.58348048	 -16.29174024
No	 -16.29174024	 32.58348048	 16.29174024
No	 -16.29174024	 34.61994801	 18.32820777
No	 -14.25527271	 32.58348048	 18.32820777
No	 -16.29174024	 32.58348048	 20.36467530
No	 -16.29174024	 34.61994801	 22.40114283
No	 -14.25527271	 32.58348048	 22.40114283
No	 -14.25527271	 34.61994801	 20.36467530
No	 -16.29174024	 32.58348048	 24.43761036
No	 -16.29174024	 34.61994801	 26.47407789
No	 -14.25527271	 32.58348048	 26.47407789
No	 -14.25527271	 34.61994801	 24.43761036
No	 -16.29174024	 32.58348048	 28.51054542
No	 -16.29174024	 34.61994801	 30.54701295
No	 -14.25527271	 32.58348048	 30.54701295
No	 -14.25527271	 34.61994801	 28.51054542
No	 -16.29174024	 32.58348048	 32.58348048
No	 -16.29174024	 34.61994801	 34.61994801
No	 -14.25527271	 32.58348048	 34.61994801
No	 -14.25527271	 34.61994801	 32.58348048
No	 -16.29174024	 32.58348048	 36.65641554
No	 -16.29174024	 34.61994801	 38.69288307
No	 -14.25527271	 32.58348048	 38.69288307
No	 -14.25527271	 34.61994801	 36.65641554
Co	 -16.29174024	 36.65641554	 -40.72935060
No	 -16.29174024	 38.69288307	 -38.69288307
No	 -14.25527271	 36.65641554	 -38.69288307
Co	 -14.25527271	 38.69288307	 -40.72935060
No	 -16.29174024	 36.65641554	 -36.65641554
No	 -16.29174024	 38.69288307	 -34.61994801
No	 -14.25527271	 36.65641554	 -34.61994801
No	 -14.25527271	 38.69288307	 -36.65641554
No	 -16.29174024	 36.65641554	 -32.58348048
No	 -16.29174024	 38.69288307	 -30.54701295
No	 -14.25527271	 36.65641554	 -30.54701295
No	 -14.25527271	 38.69288307	 -32.58348048
No	 -16.29174024	 36.65641554	 -28.51054542
No	 -16.29174024	 38.69288307	 -26.47407789
No	 -14.25527271	 36.65641554	 -26.47407789
No	 -14.25527271	 38.69288307	 -28.51054542
No	 -16.29174024	 36.65641554	 -24.43761036
No	 -16.29174024	 38.69288307	 -22.40114283
No	 -14.25527271	 36.65641554	 -22.40114283
No	 -14.25527271	 38.69288307	 -24.43761036
No	 -16.29174024	 36.65641554	 -20.36467530
No	 -16.29174024	 36.65641554	 20.36467530
No	 -16.29174024	 38.69288307	 22.40114283
No	 -14.25527271	 36.65641554	 22.40114283
No	 -16.29174024	 36.65641554	 24.43761036
No	 -16.29174024	 38.69288307	 26.47407789
No	 -14.25527271	 36.65641554	 26.47407789
No	 -14.25527271	 38.69288307	 24.43761036
No	 -16.29174024	 36.65641554	 28.51054542
No	 -16.29174024	 38.69288307	 30.54701295
No	 -14.25527271	 36.65641554	 30.54701295
No	 -14.25527271	 38.69288307	 28.51054542
No	 -16.29174024	 36.65641554	 32.58348048
No	 -16.29174024	 38.69288307	 34.61994801
No	 -14.25527271	 36.65641554	 34.61994801
No	 -14.25527271	 38.69288307	 32.58348048
No	 -16.29174024	 36.65641554	 36.65641554
No	 -16.29174024	 38.69288307	 38.69288307
No	 -14.25527271	 36.65641554	 38.69288307
No	 -14.25527271	 38.69288307	 36.65641554
Co	 -12.21880518	 -40.72935060	 -40.72935060
No	 -12.21880518	 -38.69288307	 -38.69288307
Co	 -10.18233765	 -40.72935060	 -38.69288307
Co	 -10.18233765	 -38.69288307	 -40.72935060
Co	 -12.21880518	 -40.72935060	 -36.65641554
No	 -12.21880518	 -38.69288307	 -34.61994801
Co	 -10.18233765	 -40.72935060	 -34.61994801
No	 -10.18233765	 -38.69288307	 -36.65641554
Co	 -12.21880518	 -40.72935060	 -32.58348048
No	 -12.21880518	 -38.69288307	 -30.54701295
Co	 -10.18233765	 -40.72935060	 -30.54701295
No	 -10.18233765	 -38.69288307	 -32.58348048
Co	 -12.21880518	 -40.72935060	 -28.51054542
No	 -12.21880518	 -38.69288307	 -26.47407789
Co	 -10.18233765	 -40.72935060	 -26.47407789
No	 -10.18233765	 -38.69288307	 -28.51054542
Co	 -12.21880518	 -40.72935060	 -24.43761036
Co	 -12.21880518	 -40.72935060	 24.43761036
No	 -12.21880518	 -38.69288307	 26.47407789
Co	 -10.18233765	 -40.72935060	 26.47407789
Co	 -12.21880518	 -40.72935060	 28.51054542
No	 -12.21880518	 -38.69288307	 30.54701295
Co	 -10.18233765	 -40.72935060	 30.54701295
No	 -10.18233765	 -38.69288307	 28.51054542
Co	 -12.21880518	 -40.72935060	 32.58348048
No	 -12.21880518	 -38.69288307	 34.61994801
Co	 -10.18233765	 -40.72935060	 34.61994801
No	 -10.18233765	 -38.69288307	 32.58348048
Co	 -12.21880518	 -40.72935060	 36.65641554
No	 -12.21880518	 -38.69288307	 38.69288307
Co	 -10.18233765	 -40.72935060	 38.69288307
No	 -10.18233765	 -38.69288307	 36.65641554
Co	 -12.21880518	 -36.65641554	 -40.72935060
No	 -12.21880518	 -34.61994801	 -38.69288307
No	 -10.18233765	 -36.65641554	 -38.69288307
Co	 -10.18233765	 -34.61994801	 -40.72935060
No	 -12.21880518	 -36.65641554	 -36.65641554
No	 -12.21880518	 -34.61994801	 -34.61994801
No	 -10.18233765	 -36.65641554	 -34.61994801
No	 -10.18233765	 -34.61994801	 -36.65641554
No	 -12.21880518	 -36.65641554	 -32.58348048
No	 -12.21880518	 -34.61994801	 -30.54701295
No	 -10.18233765	 -36.65641554	 -30.54701295
No	 -10.18233765	 -34.61994801	 -32.58348048
No	 -12.21880518	 -36.65641554	 -28.51054542
No	 -12.21880518	 -34.61994801	 -26.47407789
No	 -10.18233765	 -36.65641554	 -26.47407789
No	 -10.18233765	 -34.61994801	 -28.51054542
No	 -12.21880518	 -36.65641554	 -24.43761036
No	 -12.21880518	 -34.61994801	 -22.40114283
No	 -10.18233765	 -34.61994801	 -24.43761036
No	 -12.21880518	 -34.61994801	 22.40114283
No	 -12.21880518	 -36.65641554	 24.43761036
No	 -12.21880518	 -34.61994801	 26.47407789
No	 -10.18233765	 -36.65641554	 26.47407789
No	 -10.18233765	 -34.61994801	 24.43761036
No	 -12.21880518	 -36.65641554	 28.51054542
No	 -12.21880518	 -34.61994801	 30.54701295
No	 -10.18233765	 -36.65641554	 30.54701295
No	 -10.18233765	 -34.61994801	 28.51054542
No	 -12.21880518	 -36.65641554	 32.58348048
No	 -12.21880518	 -34.61994801	 34.61994801
No	 -10.18233765	 -36.65641554	 34.61994801
No	 -10.18233765	 -34.61994801	 32.58348048
No	 -12.21880518	 -36.65641554	 36.65641554
No	 -12.21880518	 -34.61994801	 38.69288307
No	 -10.18233765	 -36.65641554	 38.69288307
No	 -10.18233765	 -34.61994801	 36.65641554
Co	 -12.21880518	 -32.58348048	 -40.72935060
No	 -12.21880518	 -30.54701295	 -38.69288307
No	 -10.18233765	 -32.58348048	 -38.69288307
Co	 -10.18233765	 -30.54701295	 -40.72935060
No	 -12.21880518	 -32.58348048	 -36.65641554
No	 -12.21880518	 -30.54701295	 -34.61994801
No	 -10.18233765	 -32.58348048	 -34.61994801
No	 -10.18233765	 -30.54701295	 -36.65641554
No	 -12.21880518	 -32.58348048	 -32.58348048
No	 -12.21880518	 -30.54701295	 -30.54701295
No	 -10.18233765	 -32.58348048	 -30.54701295
No	 -10.18233765	 -30.54701295	 -32.58348048
No	 -12.21880518	 -32.58348048	 -28.51054542
No	 -12.21880518	 -30.54701295	 -26.47407789
No	 -10.18233765	 -32.58348048	 -26.47407789
No	 -10.18233765	 -30.54701295	 -28.51054542
No	 -12.21880518	 -32.58348048	 -24.43761036
No	 -12.21880518	 -30.54701295	 -22.40114283
No	 -10.18233765	 -32.58348048	 -22.40114283
No	 -10.18233765	 -30.54701295	 -24.43761036
No	 -12.21880518	 -32.58348048	 -20.36467530
No	 -12.21880518	 -30.54701295	 -18.32820777
No	 -10.18233765	 -30.54701295	 -20.36467530
No	 -12.21880518	 -30.54701295	 18.32820777
No	 -12.21880518	 -32.58348048	 20.36467530
No	 -12.21880518	 -30.54701295	 22.40114283
No	 -10.18233765	 -32.58348048	 22.40114283
No	 -10.18233765	 -30.54701295	 20.36467530
No	 -12.21880518	 -32.58348048	 24.43761036
No	 -12.21880518	 -30.54701295	 26.47407789
No	 -10.18233765	 -32.58348048	 26.47407789
No	 -10.18233765	 -30.54701295	 24.43761036
No	 -12.21880518	 -32.58348048	 28.51054542
No	 -12.21880518	 -30.54701295	 30.54701295
No	 -10.18233765	 -32.58348048	 30.54701295
No	 -10.18233765	 -30.54701295	 28.51054542
No	 -12.21880518	 -32.58348048	 32.58348048
No	 -12.21880518	 -30.54701295	 34.61994801
No	 -10.18233765	 -32.58348048	 34.61994801
No	 -10.18233765	 -30.54701295	 32.58348048
No	 -12.21880518	 -32.58348048	 36.65641554
No	 -12.21880518	 -30.54701295	 38.69288307
No	 -10.18233765	 -32.58348048	 38.69288307
No	 -10.18233765	 -30.54701295	 36.65641554
Co	 -12.21880518	 -28.51054542	 -40.72935060
No	 -12.21880518	 -26.47407789	 -38.69288307
No	 -10.18233765	 -28.51054542	 -38.69288307
Co	 -10.18233765	 -26.47407789	 -40.72935060
No	 -12.21880518	 -28.51054542	 -36.65641554
No	 -12.21880518	 -26.47407789	 -34.61994801
No	 -10.18233765	 -28.51054542	 -34.61994801
No	 -10.18233765	 -26.47407789	 -36.65641554
No	 -12.21880518	 -28.51054542	 -32.58348048
No	 -12.21880518	 -26.47407789	 -30.54701295
No	 -10.18233765	 -28.51054542	 -30.54701295
No	 -10.18233765	 -26.47407789	 -32.58348048
No	 -12.21880518	 -28.51054542	 -28.51054542
No	 -12.21880518	 -26.47407789	 -26.47407789
No	 -10.18233765	 -28.51054542	 -26.47407789
No	 -10.18233765	 -26.47407789	 -28.51054542
No	 -12.21880518	 -28.51054542	 -24.43761036
No	 -12.21880518	 -26.47407789	 -22.40114283
No	 -10.18233765	 -28.51054542	 -22.40114283
No	 -10.18233765	 -26.47407789	 -24.43761036
No	 -12.21880518	 -28.51054542	 -20.36467530
No	 -12.21880518	 -26.47407789	 -18.32820777
No	 -10.18233765	 -28.51054542	 -18.32820777
No	 -10.18233765	 -26.47407789	 -20.36467530
No	 -12.21880518	 -28.51054542	 -16.29174024
No	 -12.21880518	 -26.47407789	 -14.25527271
No	 -10.18233765	 -26.47407789	 -16.29174024
No	 -12.21880518	 -26.47407789	 14.25527271
No	 -12.21880518	 -28.51054542	 16.29174024
No	 -12.21880518	 -26.47407789	 18.32820777
No	 -10.18233765	 -28.51054542	 18.32820777
No	 -10.18233765	 -26.47407789	 16.29174024
No	 -12.21880518	 -28.51054542	 20.36467530
No	 -12.21880518	 -26.47407789	 22.40114283
No	 -10.18233765	 -28.51054542	 22.40114283
No	 -10.18233765	 -26.47407789	 20.36467530
No	 -12.21880518	 -28.51054542	 24.43761036
No	 -12.21880518	 -26.47407789	 26.47407789
No	 -10.18233765	 -28.51054542	 26.47407789
No	 -10.18233765	 -26.47407789	 24.43761036
No	 -12.21880518	 -28.51054542	 28.51054542
No	 -12.21880518	 -26.47407789	 30.54701295
No	 -10.18233765	 -28.51054542	 30.54701295
No	 -10.18233765	 -26.47407789	 28.51054542
No	 -12.21880518	 -28.51054542	 32.58348048
No	 -12.21880518	 -26.47407789	 34.61994801
No	 -10.18233765	 -28.51054542	 34.61994801
No	 -10.18233765	 -26.47407789	 32.58348048
No	 -12.21880518	 -28.51054542	 36.65641554
No	 -12.21880518	 -26.47407789	 38.69288307
No	 -10.18233765	 -28.51054542	 38.69288307
No	 -10.18233765	 -26.47407789	 36.65641554
Co	 -12.21880518	 -24.43761036	 -40.72935060
No	 -12.21880518	 -24.43761036	 -36.65641554
No	 -12.21880518	 -22.40114283	 -34.61994801
No	 -10.18233765	 -24.43761036	 -34.61994801
No	 -12.21880518	 -24.43761036	 -32.58348048
No	 -12.21880518	 -22.40114283	 -30.54701295
No	 -10.18233765	 -24.43761036	 -30.54701295
No	 -10.18233765	 -22.40114283	 -32.58348048
No	 -12.21880518	 -24.43761036	 -28.51054542
No	 -12.21880518	 -22.40114283	 -26.47407789
No	 -10.18233765	 -24.43761036	 -26.47407789
No	 -10.18233765	 -22.40114283	 -28.51054542
No	 -12.21880518	 -24.43761036	 -24.43761036
No	 -12.21880518	 -22.40114283	 -22.40114283
No	 -10.18233765	 -24.43761036	 -22.40114283
No	 -10.18233765	 -22.40114283	 -24.43761036
No	 -12.21880518	 -24.43761036	 -20.36467530
No	 -12.21880518	 -22.40114283	 -18.32820777
No	 -10.18233765	 -24.43761036	 -18.32820777
No	 -10.18233765	 -22.40114283	 -20.36467530
No	 -12.21880518	 -24.43761036	 -16.29174024
No	 -12.21880518	 -22.40114283	 -14.25527271
No	 -10.18233765	 -24.43761036	 -14.25527271
No	 -10.18233765	 -22.40114283	 -16.29174024
No	 -12.21880518	 -24.43761036	 -12.21880518
No	 -12.21880518	 -22.40114283	 -10.18233765
No	 -10.18233765	 -22.40114283	 -12.21880518
No	 -12.21880518	 -22.40114283	 10.18233765
No	 -12.21880518	 -24.43761036	 12.21880518
No	 -12.21880518	 -22.40114283	 14.25527271
No	 -10.18233765	 -24.43761036	 14.25527271
No	 -10.18233765	 -22.40114283	 12.21880518
No	 -12.21880518	 -24.43761036	 16.29174024
No	 -12.21880518	 -22.40114283	 18.32820777
No	 -10.18233765	 -24.43761036	 18.32820777
No	 -10.18233765	 -22.40114283	 16.29174024
No	 -12.21880518	 -24.43761036	 20.36467530
No	 -12.21880518	 -22.40114283	 22.40114283
No	 -10.18233765	 -24.43761036	 22.40114283
No	 -10.18233765	 -22.40114283	 20.36467530
No	 -12.21880518	 -24.43761036	 24.43761036
No	 -12.21880518	 -22.40114283	 26.47407789
No	 -10.18233765	 -24.43761036	 26.47407789
No	 -10.18233765	 -22.40114283	 24.43761036
No	 -12.21880518	 -24.43761036	 28.51054542
No	 -12.21880518	 -22.40114283	 30.54701295
No	 -10.18233765	 -24.43761036	 30.54701295
No	 -10.18233765	 -22.40114283	 28.51054542
No	 -12.21880518	 -24.43761036	 32.58348048
No	 -12.21880518	 -22.40114283	 34.61994801
No	 -10.18233765	 -24.43761036	 34.61994801
No	 -10.18233765	 -22.40114283	 32.58348048
No	 -12.21880518	 -24.43761036	 36.65641554
No	 -12.21880518	 -20.36467530	 -32.58348048
No	 -12.21880518	 -18.32820777	 -30.54701295
No	 -10.18233765	 -20.36467530	 -30.54701295
No	 -12.21880518	 -20.36467530	 -28.51054542
No	 -12.21880518	 -18.32820777	 -26.47407789
No	 -10.18233765	 -20.36467530	 -26.47407789
No	 -10.18233765	 -18.32820777	 -28.51054542
No	 -12.21880518	 -20.36467530	 -24.43761036
No	 -12.21880518	 -18.32820777	 -22.40114283
No	 -10.18233765	 -20.36467530	 -22.40114283
No	 -10.18233765	 -18.32820777	 -24.43761036
No	 -12.21880518	 -20.36467530	 -20.36467530
No	 -12.21880518	 -18.32820777	 -18.32820777
No	 -10.18233765	 -20.36467530	 -18.32820777
No	 -10.18233765	 -18.32820777	 -20.36467530
No	 -12.21880518	 -20.36467530	 -16.29174024
No	 -12.21880518	 -18.32820777	 -14.25527271
No	 -10.18233765	 -20.36467530	 -14.25527271
No	 -10.18233765	 -18.32820777	 -16.29174024
No	 -12.21880518	 -20.36467530	 -12.21880518
No	 -12.21880518	 -18.32820777	 -10.18233765
No	 -10.18233765	 -20.36467530	 -10.18233765
No	 -10.18233765	 -18.32820777	 -12.21880518
No	 -12.21880518	 -20.36467530	 -8.14587012
No	 -12.21880518	 -18.32820777	 -6.10940259
No	 -10.18233765	 -18.32820777	 -8.14587012
No	 -12.21880518	 -18.32820777	 6.10940259
No	 -12.21880518	 -20.36467530	 8.14587012
No	 -12.21880518	 -18.32820777	 10.18233765
No	 -10.18233765	 -20.36467530	 10.18233765
No	 -10.18233765	 -18.32820777	 8.14587012
No	 -12.21880518	 -20.36467530	 12.21880518
No	 -12.21880518	 -18.32820777	 14.25527271
No	 -10.18233765	 -20.36467530	 14.25527271
No	 -10.18233765	 -18.32820777	 12.21880518
No	 -12.21880518	 -20.36467530	 16.29174024
No	 -12.21880518	 -18.32820777	 18.32820777
No	 -10.18233765	 -20.36467530	 18.32820777
No	 -10.18233765	 -18.32820777	 16.29174024
No	 -12.21880518	 -20.36467530	 20.36467530
No	 -12.21880518	 -18.32820777	 22.40114283
No	 -10.18233765	 -20.36467530	 22.40114283
No	 -10.18233765	 -18.32820777	 20.36467530
No	 -12.21880518	 -20.36467530	 24.43761036
No	 -12.21880518	 -18.32820777	 26.47407789
No	 -10.18233765	 -20.36467530	 26.47407789
No	 -10.18233765	 -18.32820777	 24.43761036
No	 -12.21880518	 -20.36467530	 28.51054542
No	 -12.21880518	 -18.32820777	 30.54701295
No	 -10.18233765	 -20.36467530	 30.54701295
No	 -10.18233765	 -18.32820777	 28.51054542
No	 -12.21880518	 -20.36467530	 32.58348048
No	 -12.21880518	 -16.29174024	 -28.51054542
No	 -12.21880518	 -14.25527271	 -26.47407789
No	 -10.18233765	 -16.29174024	 -26.47407789
No	 -12.21880518	 -16.29174024	 -24.43761036
No	 -12.21880518	 -14.25527271	 -22.40114283
No	 -10.18233765	 -16.29174024	 -22.40114283
No	 -10.18233765	 -14.25527271	 -24.43761036
No	 -12.21880518	 -16.29174024	 -20.36467530
No	 -12.21880518	 -14.25527271	 -18.32820777
No	 -10.18233765	 -16.29174024	 -18.32820777
No	 -10.18233765	 -14.25527271	 -20.36467530
No	 -12.21880518	 -16.29174024	 -16.29174024
No	 -12.21880518	 -14.25527271	 -14.25527271
No	 -10.18233765	 -16.29174024	 -14.25527271
No	 -10.18233765	 -14.25527271	 -16.29174024
No	 -12.21880518	 -16.29174024	 -12.21880518
No	 -12.21880518	 -14.25527271	 -10.18233765
No	 -10.18233765	 -16.29174024	 -10.18233765
No	 -10.18233765	 -14.25527271	 -12.21880518
No	 -12.21880518	 -16.29174024	 -8.14587012
No	 -12.21880518	 -14.25527271	 -6.10940259
No	 -10.18233765	 -16.29174024	 -6.10940259
No	 -10.18233765	 -14.25527271	 -8.14587012
No	 -12.21880518	 -16.29174024	 -4.07293506
No	 -12.21880518	 -14.25527271	 -2.03646753
No	 -10.18233765	 -14.25527271	 -4.07293506
No	 -12.21880518	 -14.25527271	 2.03646753
No	 -12.21880518	 -16.29174024	 4.07293506
No	 -12.21880518	 -14.25527271	 6.10940259
No	 -10.18233765	 -16.29174024	 6.10940259
No	 -10.18233765	 -14.25527271	 4.07293506
No	 -12.21880518	 -16.29174024	 8.14587012
No	 -12.21880518	 -14.25527271	 10.18233765
No	 -10.18233765	 -16.29174024	 10.18233765
No	 -10.18233765	 -14.25527271	 8.14587012
No	 -12.21880518	 -16.29174024	 12.21880518
No	 -12.21880518	 -14.25527271	 14.25527271
No	 -10.18233765	 -16.29174024	 14.25527271
No	 -10.18233765	 -14.25527271	 12.21880518
No	 -12.21880518	 -16.29174024	 16.29174024
No	 -12.21880518	 -14.25527271	 18.32820777
No	 -10.18233765	 -16.29174024	 18.32820777
No	 -10.18233765	 -14.25527271	 16.29174024
No	 -12.21880518	 -16.29174024	 20.36467530
No	 -12.21880518	 -14.25527271	 22.40114283
No	 -10.18233765	 -16.29174024	 22.40114283
No	 -10.18233765	 -14.25527271	 20.36467530
No	 -12.21880518	 -16.29174024	 24.43761036
No	 -12.21880518	 -14.25527271	 26.47407789
No	 -10.18233765	 -16.29174024	 26.47407789
No	 -10.18233765	 -14.25527271	 24.43761036
No	 -12.21880518	 -16.29174024	 28.51054542
No	 -12.21880518	 -12.21880518	 -24.43761036
No	 -12.21880518	 -10.18233765	 -22.40114283
No	 -10.18233765	 -12.21880518	 -22.40114283
No	 -12.21880518	 -12.21880518	 -20.36467530
No	 -12.21880518	 -10.18233765	 -18.32820777
No	 -10.18233765	 -12.21880518	 -18.32820777
No	 -10.18233765	 -10.18233765	 -20.36467530
No	 -12.21880518	 -12.21880518	 -16.29174024
No	 -12.21880518	 -10.18233765	 -14.25527271
No	 -10.18233765	 -12.21880518	 -14.25527271
No	 -10.18233765	 -10.18233765	 -16.29174024
No	 -12.21880518	 -12.21880518	 -12.21880518
No	 -12.21880518	 -10.18233765	 -10.18233765
No	 -10.18233765	 -12.21880518	 -10.18233765
No	 -10.18233765	 -10.18233765	 -12.21880518
No	 -12.21880518	 -12.21880518	 -8.14587012
No	 -12.21880518	 -10.18233765	 -6.10940259
No	 -10.18233765	 -12.21880518	 -6.10940259
No	 -10.18233765	 -10.18233765	 -8.14587012
No	 -12.21880518	 -12.21880518	 -4.07293506
No	 -12.21880518	 -10.18233765	 -2.03646753
No	 -10.18233765	 -12.21880518	 -2.03646753
No	 -10.18233765	 -10.18233765	 -4.07293506
No	 -12.21880518	 -12.21880518	 -0.00000000
No	 -12.21880518	 -10.18233765	 2.03646753
No	 -10.18233765	 -12.21880518	 2.03646753
No	 -10.18233765	 -10.18233765	 -0.00000000
No	 -12.21880518	 -12.21880518	 4.07293506
No	 -12.21880518	 -10.18233765	 6.10940259
No	 -10.18233765	 -12.21880518	 6.10940259
No	 -10.18233765	 -10.18233765	 4.07293506
No	 -12.21880518	 -12.21880518	 8.14587012
No	 -12.21880518	 -10.18233765	 10.18233765
No	 -10.18233765	 -12.21880518	 10.18233765
No	 -10.18233765	 -10.18233765	 8.14587012
No	 -12.21880518	 -12.21880518	 12.21880518
No	 -12.21880518	 -10.18233765	 14.25527271
No	 -10.18233765	 -12.21880518	 14.25527271
No	 -10.18233765	 -10.18233765	 12.21880518
No	 -12.21880518	 -12.21880518	 16.29174024
No	 -12.21880518	 -10.18233765	 18.32820777
No	 -10.18233765	 -12.21880518	 18.32820777
No	 -10.18233765	 -10.18233765	 16.29174024
No	 -12.21880518	 -12.21880518	 20.36467530
No	 -12.21880518	 -10.18233765	 22.40114283
No	 -10.18233765	 -12.21880518	 22.40114283
No	 -10.18233765	 -10.18233765	 20.36467530
No	 -12.21880518	 -12.21880518	 24.43761036
No	 -12.21880518	 -8.14587012	 -20.36467530
No	 -12.21880518	 -6.10940259	 -18.32820777
No	 -10.18233765	 -8.14587012	 -18.32820777
No	 -12.21880518	 -8.14587012	 -16.29174024
No	 -12.21880518	 -6.10940259	 -14.25527271
No	 -10.18233765	 -8.14587012	 -14.25527271
No	 -10.18233765	 -6.10940259	 -16.29174024
No	 -12.21880518	 -8.14587012	 -12.21880518
No	 -12.21880518	 -6.10940259	 -10.18233765
No	 -10.18233765	 -8.14587012	 -10.18233765
No	 -10.18233765	 -6.10940259	 -12.21880518
No	 -12.21880518	 -8.14587012	 -8.14587012
No	 -12.21880518	 -6.10940259	 -6.10940259
No	 -10.18233765	 -8.14587012	 -6.10940259
No	 -10.18233765	 -6.10940259	 -8.14587012
No	 -12.21880518	 -8.14587012	 -4.07293506
No	 -10.18233765	 -8.14587012	 -2.03646753
No	 -10.18233765	 -6.10940259	 -4.07293506
No	 -10.18233765	 -8.14587012	 2.03646753
No	 -12.21880518	 -8.14587012	 4.07293506
No	 -12.21880518	 -6.10940259	 6.10940259
No	 -10.18233765	 -8.14587012	 6.10940259
No	 -10.18233765	 -6.10940259	 4.07293506
No	 -12.21880518	 -8.14587012	 8.14587012
No	 -12.21880518	 -6.10940259	 10.18233765
No	 -10.18233765	 -8.14587012	 10.18233765
No	 -10.18233765	 -6.10940259	 8.14587012
No	 -12.21880518	 -8.14587012	 12.21880518
No	 -12.21880518	 -6.10940259	 14.25527271
No	 -10.18233765	 -8.14587012	 14.25527271
No	 -10.18233765	 -6.10940259	 12.21880518
No	 -12.21880518	 -8.14587012	 16.29174024
No	 -12.21880518	 -6.10940259	 18.32820777
No	 -10.18233765	 -8.14587012	 18.32820777
No	 -10.18233765	 -6.10940259	 16.29174024
No	 -12.21880518	 -8.14587012	 20.36467530
No	 -12.21880518	 -4.07293506	 -16.29174024
No	 -12.21880518	 -2.03646753	 -14.25527271
No	 -10.18233765	 -4.07293506	 -14.25527271
No	 -12.21880518	 -4.07293506	 -12.21880518
No	 -12.21880518	 -2.03646753	 -10.18233765
No	 -10.18233765	 -4.07293506	 -10.18233765
No	 -10.18233765	 -2.03646753	 -12.21880518
No	 -12.21880518	 -4.07293506	 -8.14587012
No	 -10.18233765	 -4.07293506	 -6.10940259
No	 -10.18233765	 -2.03646753	 -8.14587012
No	 -10.18233765	 -4.07293506	 6.10940259
No	 -12.21880518	 -4.07293506	 8.14587012
No	 -12.21880518	 -2.03646753	 10.18233765
No	 -10.18233765	 -4.07293506	 10.18233765
No	 -10.18233765	 -2.03646753	 8.14587012
No	 -12.21880518	 -4.07293506	 12.21880518
No	 -12.21880518	 -2.03646753	 14.25527271
No	 -10.18233765	 -4.07293506	 14.25527271
No	 -10.18233765	 -2.03646753	 12.21880518
No	 -12.21880518	 -4.07293506	 16.29174024
No	 -12.21880518	 2.03646753	 -14.25527271
No	 -12.21880518	 -0.00000000	 -12.21880518
No	 -12.21880518	 2.03646753	 -10.18233765
No	 -10.18233765	 -0.00000000	 -10.18233765
No	 -10.18233765	 2.03646753	 -12.21880518
No	 -10.18233765	 2.03646753	 -8.14587012
No	 -12.21880518	 2.03646753	 10.18233765
No	 -10.18233765	 -0.00000000	 10.18233765
No	 -10.18233765	 2.03646753	 8.14587012
No	 -12.21880518	 -0.00000000	 12.21880518
No	 -12.21880518	 2.03646753	 14.25527271
No	 -10.18233765	 2.03646753	 12.21880518
No	 -12.21880518	 6.10940259	 -18.32820777
No	 -12.21880518	 4.07293506	 -16.29174024
No	 -12.21880518	 6.10940259	 -14.25527271
No	 -10.18233765	 4.07293506	 -14.25527271
No	 -10.18233765	 6.10940259	 -16.29174024
No	 -12.21880518	 4.07293506	 -12.21880518
No	 -12.21880518	 6.10940259	 -10.18233765
No	 -10.18233765	 4.07293506	 -10.18233765
No	 -10.18233765	 6.10940259	 -12.21880518
No	 -12.21880518	 4.07293506	 -8.14587012
No	 -12.21880518	 6.10940259	 -6.10940259
No	 -10.18233765	 4.07293506	 -6.10940259
No	 -10.18233765	 6.10940259	 -8.14587012
No	 -10.18233765	 6.10940259	 -4.07293506
No	 -12.21880518	 6.10940259	 6.10940259
No	 -10.18233765	 4.07293506	 6.10940259
No	 -10.18233765	 6.10940259	 4.07293506
No	 -12.21880518	 4.07293506	 8.14587012
No	 -12.21880518	 6.10940259	 10.18233765
No	 -10.18233765	 4.07293506	 10.18233765
No	 -10.18233765	 6.10940259	 8.14587012
No	 -12.21880518	 4.07293506	 12.21880518
No	 -12.21880518	 6.10940259	 14.25527271
No	 -10.18233765	 4.07293506	 14.25527271
No	 -10.18233765	 6.10940259	 12.21880518
No	 -12.21880518	 4.07293506	 16.29174024
No	 -12.21880518	 6.10940259	 18.32820777
No	 -10.18233765	 6.10940259	 16.29174024
No	 -12.21880518	 10.18233765	 -22.40114283
No	 -12.21880518	 8.14587012	 -20.36467530
No	 -12.21880518	 10.18233765	 -18.32820777
No	 -10.18233765	 8.14587012	 -18.32820777
No	 -10.18233765	 10.18233765	 -20.36467530
No	 -12.21880518	 8.14587012	 -16.29174024
No	 -12.21880518	 10.18233765	 -14.25527271
No	 -10.18233765	 8.14587012	 -14.25527271
No	 -10.18233765	 10.18233765	 -16.29174024
No	 -12.21880518	 8.14587012	 -12.21880518
No	 -12.21880518	 10.18233765	 -10.18233765
No	 -10.18233765	 8.14587012	 -10.18233765
No	 -10.18233765	 10.18233765	 -12.21880518
No	 -12.21880518	 8.14587012	 -8.14587012
No	 -12.21880518	 10.18233765	 -6.10940259
No	 -10.18233765	 8.14587012	 -6.10940259
No	 -10.18233765	 10.18233765	 -8.14587012
No	 -12.21880518	 8.14587012	 -4.07293506
No	 -12.21880518	 10.18233765	 -2.03646753
No	 -10.18233765	 8.14587012	 -2.03646753
No	 -10.18233765	 10.18233765	 -4.07293506
No	 -12.21880518	 10.18233765	 2.03646753
No	 -10.18233765	 8.14587012	 2.03646753
No	 -10.18233765	 10.18233765	 -0.00000000
No	 -12.21880518	 8.14587012	 4.07293506
No	 -12.21880518	 10.18233765	 6.10940259
No	 -10.18233765	 8.14587012	 6.10940259
No	 -10.18233765	 10.18233765	 4.07293506
No	 -12.21880518	 8.14587012	 8.14587012
No	 -12.21880518	 10.18233765	 10.18233765
No	 -10.18233765	 8.14587012	 10.18233765
No	 -10.18233765	 10.18233765	 8.14587012
No	 -12.21880518	 8.14587012	 12.21880518
No	 -12.21880518	 10.18233765	 14.25527271
No	 -10.18233765	 8.14587012	 14.25527271
No	 -10.18233765	 10.18233765	 12.21880518
No	 -12.21880518	 8.14587012	 16.29174024
No	 -12.21880518	 10.18233765	 18.32820777
No	 -10.18233765	 8.14587012	 18.32820777
No	 -10.18233765	 10.18233765	 16.29174024
No	 -12.21880518	 8.14587012	 20.36467530
No	 -12.21880518	 10.18233765	 22.40114283
No	 -10.18233765	 10.18233765	 20.36467530
No	 -12.21880518	 14.25527271	 -26.47407789
No	 -12.21880518	 12.21880518	 -24.43761036
No	 -12.21880518	 14.25527271	 -22.40114283
No	 -10.18233765	 12.21880518	 -22.40114283
No	 -10.18233765	 14.25527271	 -24.43761036
No	 -12.21880518	 12.21880518	 -20.36467530
No	 -12.21880518	 14.25527271	 -18.32820777
No	 -10.18233765	 12.21880518	 -18.32820777
No	 -10.18233765	 14.25527271	 -20.36467530
No	 -12.21880518	 12.21880518	 -16.29174024
No	 -12.21880518	 14.25527271	 -14.25527271
No	 -10.18233765	 12.21880518	 -14.25527271
No	 -10.18233765	 14.25527271	 -16.29174024
No	 -12.21880518	 12.21880518	 -12.21880518
No	 -12.21880518	 14.25527271	 -10.18233765
No	 -10.18233765	 12.21880518	 -10.18233765
No	 -10.18233765	 14.25527271	 -12.21880518
No	 -12.21880518	 12.21880518	 -8.14587012
No	 -12.21880518	 14.25527271	 -6.10940259
No	 -10.18233765	 12.21880518	 -6.10940259
No	 -10.18233765	 14.25527271	 -8.14587012
No	 -12.21880518	 12.21880518	 -4.07293506
No	 -12.21880518	 14.25527271	 -2.03646753
No	 -10.18233765	 12.21880518	 -2.03646753
No	 -10.18233765	 14.25527271	 -4.07293506
No	 -12.21880518	 12.21880518	 -0.00000000
No	 -12.21880518	 14.25527271	 2.03646753
No	 -10.18233765	 12.21880518	 2.03646753
No	 -12.21880518	 12.21880518	 4.07293506
No	 -12.21880518	 14.25527271	 6.10940259
No	 -10.18233765	 12.21880518	 6.10940259
No	 -10.18233765	 14.25527271	 4.07293506
No	 -12.21880518	 12.21880518	 8.14587012
No	 -12.21880518	 14.25527271	 10.18233765
No	 -10.18233765	 12.21880518	 10.18233765
No	 -10.18233765	 14.25527271	 8.14587012
No	 -12.21880518	 12.21880518	 12.21880518
No	 -12.21880518	 14.25527271	 14.25527271
No	 -10.18233765	 12.21880518	 14.25527271
No	 -10.18233765	 14.25527271	 12.21880518
No	 -12.21880518	 12.21880518	 16.29174024
No	 -12.21880518	 14.25527271	 18.32820777
No	 -10.18233765	 12.21880518	 18.32820777
No	 -10.18233765	 14.25527271	 16.29174024
No	 -12.21880518	 12.21880518	 20.36467530
No	 -12.21880518	 14.25527271	 22.40114283
No	 -10.18233765	 12.21880518	 22.40114283
No	 -10.18233765	 14.25527271	 20.36467530
No	 -12.21880518	 12.21880518	 24.43761036
No	 -12.21880518	 14.25527271	 26.47407789
No	 -10.18233765	 14.25527271	 24.43761036
No	 -12.21880518	 18.32820777	 -30.54701295
No	 -12.21880518	 16.29174024	 -28.51054542
No	 -12.21880518	 18.32820777	 -26.47407789
No	 -10.18233765	 16.29174024	 -26.47407789
No	 -10.18233765	 18.32820777	 -28.51054542
No	 -12.21880518	 16.29174024	 -24.43761036
No	 -12.21880518	 18.32820777	 -22.40114283
No	 -10.18233765	 16.29174024	 -22.40114283
No	 -10.18233765	 18.32820777	 -24.43761036
No	 -12.21880518	 16.29174024	 -20.36467530
No	 -12.21880518	 18.32820777	 -18.32820777
No	 -10.18233765	 16.29174024	 -18.32820777
No	 -10.18233765	 18.32820777	 -20.36467530
No	 -12.21880518	 16.29174024	 -16.29174024
No	 -12.21880518	 18.32820777	 -14.25527271
No	 -10.18233765	 16.29174024	 -14.25527271
No	 -10.18233765	 18.32820777	 -16.29174024
No	 -12.21880518	 16.29174024	 -12.21880518
No	 -12.21880518	 18.32820777	 -10.18233765
No	 -10.18233765	 16.29174024	 -10.18233765
No	 -10.18233765	 18.32820777	 -12.21880518
No	 -12.21880518	 16.29174024	 -8.14587012
No	 -12.21880518	 18.32820777	 -6.10940259
No	 -10.18233765	 16.29174024	 -6.10940259
No	 -10.18233765	 18.32820777	 -8.14587012
No	 -12.21880518	 16.29174024	 -4.07293506
No	 -12.21880518	 16.29174024	 4.07293506
No	 -12.21880518	 18.32820777	 6.10940259
No	 -10.18233765	 16.29174024	 6.10940259
No	 -12.21880518	 16.29174024	 8.14587012
No	 -12.21880518	 18.32820777	 10.18233765
No	 -10.18233765	 16.29174024	 10.18233765
No	 -10.18233765	 18.32820777	 8.14587012
No	 -12.21880518	 16.29174024	 12.21880518
No	 -12.21880518	 18.32820777	 14.25527271
No	 -10.18233765	 16.29174024	 14.25527271
No	 -10.18233765	 18.32820777	 12.21880518
No	 -12.21880518	 16.29174024	 16.29174024
No	 -12.21880518	 18.32820777	 18.32820777
No	 -10.18233765	 16.29174024	 18.32820777
No	 -10.18233765	 18.32820777	 16.29174024
No	 -12.21880518	 16.29174024	 20.36467530
No	 -12.21880518	 18.32820777	 22.40114283
No	 -10.18233765	 16.29174024	 22.40114283
No	 -10.18233765	 18.32820777	 20.36467530
No	 -12.21880518	 16.29174024	 24.43761036
No	 -12.21880518	 18.32820777	 26.47407789
No	 -10.18233765	 16.29174024	 26.47407789
No	 -10.18233765	 18.32820777	 24.43761036
No	 -12.21880518	 16.29174024	 28.51054542
No	 -12.21880518	 18.32820777	 30.54701295
No	 -10.18233765	 18.32820777	 28.51054542
No	 -12.21880518	 22.40114283	 -34.61994801
No	 -12.21880518	 20.36467530	 -32.58348048
No	 -12.21880518	 22.40114283	 -30.54701295
No	 -10.18233765	 20.36467530	 -30.54701295
No	 -10.18233765	 22.40114283	 -32.58348048
No	 -12.21880518	 20.36467530	 -28.51054542
No	 -12.21880518	 22.40114283	 -26.47407789
No	 -10.18233765	 20.36467530	 -26.47407789
No	 -10.18233765	 22.40114283	 -28.51054542
No	 -12.21880518	 20.36467530	 -24.43761036
No	 -12.21880518	 22.40114283	 -22.40114283
No	 -10.18233765	 20.36467530	 -22.40114283
No	 -10.18233765	 22.40114283	 -24.43761036
No	 -12.21880518	 20.36467530	 -20.36467530
No	 -12.21880518	 22.40114283	 -18.32820777
No	 -10.18233765	 20.36467530	 -18.32820777
No	 -10.18233765	 22.40114283	 -20.36467530
No	 -12.21880518	 20.36467530	 -16.29174024
No	 -12.21880518	 22.40114283	 -14.25527271
No	 -10.18233765	 20.36467530	 -14.25527271
No	 -10.18233765	 22.40114283	 -16.29174024
No	 -12.21880518	 20.36467530	 -12.21880518
No	 -12.21880518	 22.40114283	 -10.18233765
No	 -10.18233765	 20.36467530	 -10.18233765
No	 -10.18233765	 22.40114283	 -12.21880518
No	 -12.21880518	 20.36467530	 -8.14587012
No	 -12.21880518	 20.36467530	 8.14587012
No	 -12.21880518	 22.40114283	 10.18233765
No	 -10.18233765	 20.36467530	 10.18233765
No	 -12.21880518	 20.36467530	 12.21880518
No	 -12.21880518	 22.40114283	 14.25527271
No	 -10.18233765	 20.36467530	 14.25527271
No	 -10.18233765	 22.40114283	 12.21880518
No	 -12.21880518	 20.36467530	 16.29174024
No	 -12.21880518	 22.40114283	 18.32820777
No	 -10.18233765	 20.36467530	 18.32820777
No	 -10.18233765	 22.40114283	 16.29174024
No	 -12.21880518	 20.36467530	 20.36467530
No	 -12.21880518	 22.40114283	 22.40114283
No	 -10.18233765	 20.36467530	 22.40114283
No	 -10.18233765	 22.40114283	 20.36467530
No	 -12.21880518	 20.36467530	 24.43761036
No	 -12.21880518	 22.40114283	 26.47407789
No	 -10.18233765	 20.36467530	 26.47407789
No	 -10.18233765	 22.40114283	 24.43761036
No	 -12.21880518	 20.36467530	 28.51054542
No	 -12.21880518	 22.40114283	 30.54701295
No	 -10.18233765	 20.36467530	 30.54701295
No	 -10.18233765	 22.40114283	 28.51054542
No	 -12.21880518	 20.36467530	 32.58348048
No	 -12.21880518	 22.40114283	 34.61994801
No	 -10.18233765	 22.40114283	 32.58348048
Co	 -12.21880518	 24.43761036	 -40.72935060
No	 -12.21880518	 26.47407789	 -38.69288307
Co	 -10.18233765	 26.47407789	 -40.72935060
No	 -12.21880518	 24.43761036	 -36.65641554
No	 -12.21880518	 26.47407789	 -34.61994801
No	 -10.18233765	 24.43761036	 -34.61994801
No	 -10.18233765	 26.47407789	 -36.65641554
No	 -12.21880518	 24.43761036	 -32.58348048
No	 -12.21880518	 26.47407789	 -30.54701295
No	 -10.18233765	 24.43761036	 -30.54701295
No	 -10.18233765	 26.47407789	 -32.58348048
No	 -12.21880518	 24.43761036	 -28.51054542
No	 -12.21880518	 26.47407789	 -26.47407789
No	 -10.18233765	 24.43761036	 -26.47407789
No	 -10.18233765	 26.47407789	 -28.51054542
No	 -12.21880518	 24.43761036	 -24.43761036
No	 -12.21880518	 26.47407789	 -22.40114283
No	 -10.18233765	 24.43761036	 -22.40114283
No	 -10.18233765	 26.47407789	 -24.43761036
No	 -12.21880518	 24.43761036	 -20.36467530
No	 -12.21880518	 26.47407789	 -18.32820777
No	 -10.18233765	 24.43761036	 -18.32820777
No	 -10.18233765	 26.47407789	 -20.36467530
No	 -12.21880518	 24.43761036	 -16.29174024
No	 -12.21880518	 26.47407789	 -14.25527271
No	 -10.18233765	 24.43761036	 -14.25527271
No	 -10.18233765	 26.47407789	 -16.29174024
No	 -12.21880518	 24.43761036	 -12.21880518
No	 -12.21880518	 24.43761036	 12.21880518
No	 -12.21880518	 26.47407789	 14.25527271
No	 -10.18233765	 24.43761036	 14.25527271
No	 -12.21880518	 24.43761036	 16.29174024
No	 -12.21880518	 26.47407789	 18.32820777
No	 -10.18233765	 24.43761036	 18.32820777
No	 -10.18233765	 26.47407789	 16.29174024
No	 -12.21880518	 24.43761036	 20.36467530
No	 -12.21880518	 26.47407789	 22.40114283
No	 -10.18233765	 24.43761036	 22.40114283
No	 -10.18233765	 26.47407789	 20.36467530
No	 -12.21880518	 24.43761036	 24.43761036
No	 -12.21880518	 26.47407789	 26.47407789
No	 -10.18233765	 24.43761036	 26.47407789
No	 -10.18233765	 26.47407789	 24.43761036
No	 -12.21880518	 24.43761036	 28.51054542
No	 -12.21880518	 26.47407789	 30.54701295
No	 -10.18233765	 24.43761036	 30.54701295
No	 -10.18233765	 26.47407789	 28.51054542
No	 -12.21880518	 24.43761036	 32.58348048
No	 -12.21880518	 26.47407789	 34.61994801
No	 -10.18233765	 24.43761036	 34.61994801
No	 -10.18233765	 26.47407789	 32.58348048
No	 -12.21880518	 24.43761036	 36.65641554
No	 -12.21880518	 26.47407789	 38.69288307
No	 -10.18233765	 26.47407789	 36.65641554
Co	 -12.21880518	 28.51054542	 -40.72935060
No	 -12.21880518	 30.54701295	 -38.69288307
No	 -10.18233765	 28.51054542	 -38.69288307
Co	 -10.18233765	 30.54701295	 -40.72935060
No	 -12.21880518	 28.51054542	 -36.65641554
No	 -12.21880518	 30.54701295	 -34.61994801
No	 -10.18233765	 28.51054542	 -34.61994801
No	 -10.18233765	 30.54701295	 -36.65641554
No	 -12.21880518	 28.51054542	 -32.58348048
No	 -12.21880518	 30.54701295	 -30.54701295
No	 -10.18233765	 28.51054542	 -30.54701295
No	 -10.18233765	 30.54701295	 -32.58348048
No	 -12.21880518	 28.51054542	 -28.51054542
No	 -12.21880518	 30.54701295	 -26.47407789
No	 -10.18233765	 28.51054542	 -26.47407789
No	 -10.18233765	 30.54701295	 -28.51054542
No	 -12.21880518	 28.51054542	 -24.43761036
No	 -12.21880518	 30.54701295	 -22.40114283
No	 -10.18233765	 28.51054542	 -22.40114283
No	 -10.18233765	 30.54701295	 -24.43761036
No	 -12.21880518	 28.51054542	 -20.36467530
No	 -12.21880518	 30.54701295	 -18.32820777
No	 -10.18233765	 28.51054542	 -18.32820777
No	 -10.18233765	 30.54701295	 -20.36467530
No	 -12.21880518	 28.51054542	 -16.29174024
No	 -12.21880518	 28.51054542	 16.29174024
No	 -12.21880518	 30.54701295	 18.32820777
No	 -10.18233765	 28.51054542	 18.32820777
No	 -12.21880518	 28.51054542	 20.36467530
No	 -12.21880518	 30.54701295	 22.40114283
No	 -10.18233765	 28.51054542	 22.40114283
No	 -10.18233765	 30.54701295	 20.36467530
No	 -12.21880518	 28.51054542	 24.43761036
No	 -12.21880518	 30.54701295	 26.47407789
No	 -10.18233765	 28.51054542	 26.47407789
No	 -10.18233765	 30.54701295	 24.43761036
No	 -12.21880518	 28.51054542	 28.51054542
No	 -12.21880518	 30.54701295	 30.54701295
No	 -10.18233765	 28.51054542	 30.54701295
No	 -10.18233765	 30.54701295	 28.51054542
No	 -12.21880518	 28.51054542	 32.58348048
No	 -12.21880518	 30.54701295	 34.61994801
No	 -10.18233765	 28.51054542	 34.61994801
No	 -10.18233765	 30.54701295	 32.58348048
No	 -12.21880518	 28.51054542	 36.65641554
No	 -12.21880518	 30.54701295	 38.69288307
No	 -10.18233765	 28.51054542	 38.69288307
No	 -10.18233765	 30.54701295	 36.65641554
Co	 -12.21880518	 32.58348048	 -40.72935060
No	 -12.21880518	 34.61994801	 -38.69288307
No	 -10.18233765	 32.58348048	 -38.69288307
Co	 -10.18233765	 34.61994801	 -40.72935060
No	 -12.21880518	 32.58348048	 -36.65641554
No	 -12.21880518	 34.61994801	 -34.61994801
No	 -10.18233765	 32.58348048	 -34.61994801
No	 -10.18233765	 34.61994801	 -36.65641554
No	 -12.21880518	 32.58348048	 -32.58348048
No	 -12.21880518	 34.61994801	 -30.54701295
No	 -10.18233765	 32.58348048	 -30.54701295
No	 -10.18233765	 34.61994801	 -32.58348048
No	 -12.21880518	 32.58348048	 -28.51054542
No	 -12.21880518	 34.61994801	 -26.47407789
No	 -10.18233765	 32.58348048	 -26.47407789
No	 -10.18233765	 34.61994801	 -28.51054542
No	 -12.21880518	 32.58348048	 -24.43761036
No	 -12.21880518	 34.61994801	 -22.40114283
No	 -10.18233765	 32.58348048	 -22.40114283
No	 -10.18233765	 34.61994801	 -24.43761036
No	 -12.21880518	 32.58348048	 -20.36467530
No	 -12.21880518	 32.58348048	 20.36467530
No	 -12.21880518	 34.61994801	 22.40114283
No	 -10.18233765	 32.58348048	 22.40114283
No	 -12.21880518	 32.58348048	 24.43761036
No	 -12.21880518	 34.61994801	 26.47407789
No	 -10.18233765	 32.58348048	 26.47407789
No	 -10.18233765	 34.61994801	 24.43761036
No	 -12.21880518	 32.58348048	 28.51054542
No	 -12.21880518	 34.61994801	 30.54701295
No	 -10.18233765	 32.58348048	 30.54701295
No	 -10.18233765	 34.61994801	 28.51054542
No	 -12.21880518	 32.58348048	 32.58348048
No	 -12.21880518	 34.61994801	 34.61994801
No	 -10.18233765	 32.58348048	 34.61994801
No	 -10.18233765	 34.61994801	 32.58348048
No	 -12.21880518	 32.58348048	 36.65641554
No	 -12.21880518	 34.61994801	 38.69288307
No	 -10.18233765	 32.58348048	 38.69288307
No	 -10.18233765	 34.61994801	 36.65641554
Co	 -12.21880518	 36.65641554	 -40.72935060
No	 -12.21880518	 38.69288307	 -38.69288307
No	 -10.18233765	 36.65641554	 -38.69288307
Co	 -10.18233765	 38.69288307	 -40.72935060
No	 -12.21880518	 36.65641554	 -36.65641554
No	 -12.21880518	 38.69288307	 -34.61994801
No	 -10.18233765	 36.65641554	 -34.61994801
No	 -10.18233765	 38.69288307	 -36.65641554
No	 -12.21880518	 36.65641554	 -32.58348048
No	 -12.21880518	 38.69288307	 -30.54701295
No	 -10.18233765	 36.65641554	 -30.54701295
No	 -10.18233765	 38.69288307	 -32.58348048
No	 -12.21880518	 36.65641554	 -28.51054542
No	 -12.21880518	 38.69288307	 -26.47407789
No	 -10.18233765	 36.65641554	 -26.47407789
No	 -10.18233765	 38.69288307	 -28.51054542
No	 -12.21880518	 36.65641554	 -24.43761036
No	 -12.21880518	 36.65641554	 24.43761036
No	 -12.21880518	 38.69288307	 26.47407789
No	 -10.18233765	 36.65641554	 26.47407789
No	 -12.21880518	 36.65641554	 28.51054542
No	 -12.21880518	 38.69288307	 30.54701295
No	 -10.18233765	 36.65641554	 30.54701295
No	 -10.18233765	 38.69288307	 28.51054542
No	 -12.21880518	 36.65641554	 32.58348048
No	 -12.21880518	 38.69288307	 34.61994801
No	 -10.18233765	 36.65641554	 34.61994801
No	 -10.18233765	 38.69288307	 32.58348048
No	 -12.21880518	 36.65641554	 36.65641554
No	 -12.21880518	 38.69288307	 38.69288307
No	 -10.18233765	 36.65641554	 38.69288307
No	 -10.18233765	 38.69288307	 36.65641554
Co	 -8.14587012	 -40.72935060	 -40.72935060
No	 -8.14587012	 -38.69288307	 -38.69288307
Co	 -6.10940259	 -40.72935060	 -38.69288307
Co	 -6.10940259	 -38.69288307	 -40.72935060
Co	 -8.14587012	 -40.72935060	 -36.65641554
No	 -8.14587012	 -38.69288307	 -34.61994801
Co	 -6.10940259	 -40.72935060	 -34.61994801
No	 -6.10940259	 -38.69288307	 -36.65641554
Co	 -8.14587012	 -40.72935060	 -32.58348048
No	 -8.14587012	 -38.69288307	 -30.54701295
Co	 -6.10940259	 -40.72935060	 -30.54701295
No	 -6.10940259	 -38.69288307	 -32.58348048
Co	 -8.14587012	 -40.72935060	 -28.51054542
Co	 -8.14587012	 -40.72935060	 28.51054542
No	 -8.14587012	 -38.69288307	 30.54701295
Co	 -6.10940259	 -40.72935060	 30.54701295
Co	 -8.14587012	 -40.72935060	 32.58348048
No	 -8.14587012	 -38.69288307	 34.61994801
Co	 -6.10940259	 -40.72935060	 34.61994801
No	 -6.10940259	 -38.69288307	 32.58348048
Co	 -8.14587012	 -40.72935060	 36.65641554
No	 -8.14587012	 -38.69288307	 38.69288307
Co	 -6.10940259	 -40.72935060	 38.69288307
No	 -6.10940259	 -38.69288307	 36.65641554
Co	 -8.14587012	 -36.65641554	 -40.72935060
No	 -8.14587012	 -34.61994801	 -38.69288307
No	 -6.10940259	 -36.65641554	 -38.69288307
Co	 -6.10940259	 -34.61994801	 -40.72935060
No	 -8.14587012	 -36.65641554	 -36.65641554
No	 -8.14587012	 -34.61994801	 -34.61994801
No	 -6.10940259	 -36.65641554	 -34.61994801
No	 -6.10940259	 -34.61994801	 -36.65641554
No	 -8.14587012	 -36.65641554	 -32.58348048
No	 -8.14587012	 -34.61994801	 -30.54701295
No	 -6.10940259	 -36.65641554	 -30.54701295
No	 -6.10940259	 -34.61994801	 -32.58348048
No	 -8.14587012	 -36.65641554	 -28.51054542
No	 -8.14587012	 -34.61994801	 -26.47407789
No	 -6.10940259	 -34.61994801	 -28.51054542
No	 -8.14587012	 -34.61994801	 26.47407789
No	 -8.14587012	 -36.65641554	 28.51054542
No	 -8.14587012	 -34.61994801	 30.54701295
No	 -6.10940259	 -36.65641554	 30.54701295
No	 -6.10940259	 -34.61994801	 28.51054542
No	 -8.14587012	 -36.65641554	 32.58348048
No	 -8.14587012	 -34.61994801	 34.61994801
No	 -6.10940259	 -36.65641554	 34.61994801
No	 -6.10940259	 -34.61994801	 32.58348048
No	 -8.14587012	 -36.65641554	 36.65641554
No	 -8.14587012	 -34.61994801	 38.69288307
No	 -6.10940259	 -36.65641554	 38.69288307
No	 -6.10940259	 -34.61994801	 36.65641554
Co	 -8.14587012	 -32.58348048	 -40.72935060
No	 -8.14587012	 -30.54701295	 -38.69288307
No	 -6.10940259	 -32.58348048	 -38.69288307
Co	 -6.10940259	 -30.54701295	 -40.72935060
No	 -8.14587012	 -32.58348048	 -36.65641554
No	 -8.14587012	 -30.54701295	 -34.61994801
No	 -6.10940259	 -32.58348048	 -34.61994801
No	 -6.10940259	 -30.54701295	 -36.65641554
No	 -8.14587012	 -32.58348048	 -32.58348048
No	 -8.14587012	 -30.54701295	 -30.54701295
No	 -6.10940259	 -32.58348048	 -30.54701295
No	 -6.10940259	 -30.54701295	 -32.58348048
No	 -8.14587012	 -32.58348048	 -28.51054542
No	 -8.14587012	 -30.54701295	 -26.47407789
No	 -6.10940259	 -32.58348048	 -26.47407789
No	 -6.10940259	 -30.54701295	 -28.51054542
No	 -8.14587012	 -32.58348048	 -24.43761036
No	 -8.14587012	 -30.54701295	 -22.40114283
No	 -6.10940259	 -30.54701295	 -24.43761036
No	 -8.14587012	 -30.54701295	 22.40114283
No	 -8.14587012	 -32.58348048	 24.43761036
No	 -8.14587012	 -30.54701295	 26.47407789
No	 -6.10940259	 -32.58348048	 26.47407789
No	 -6.10940259	 -30.54701295	 24.43761036
No	 -8.14587012	 -32.58348048	 28.51054542
No	 -8.14587012	 -30.54701295	 30.54701295
No	 -6.10940259	 -32.58348048	 30.54701295
No	 -6.10940259	 -30.54701295	 28.51054542
No	 -8.14587012	 -32.58348048	 32.58348048
No	 -8.14587012	 -30.54701295	 34.61994801
No	 -6.10940259	 -32.58348048	 34.61994801
No	 -6.10940259	 -30.54701295	 32.58348048
No	 -8.14587012	 -32.58348048	 36.65641554
No	 -8.14587012	 -30.54701295	 38.69288307
No	 -6.10940259	 -32.58348048	 38.69288307
No	 -6.10940259	 -30.54701295	 36.65641554
Co	 -8.14587012	 -28.51054542	 -40.72935060
No	 -8.14587012	 -28.51054542	 -36.65641554
No	 -8.14587012	 -26.47407789	 -34.61994801
No	 -6.10940259	 -28.51054542	 -34.61994801
No	 -8.14587012	 -28.51054542	 -32.58348048
No	 -8.14587012	 -26.47407789	 -30.54701295
No	 -6.10940259	 -28.51054542	 -30.54701295
No	 -6.10940259	 -26.47407789	 -32.58348048
No	 -8.14587012	 -28.51054542	 -28.51054542
No	 -8.14587012	 -26.47407789	 -26.47407789
No	 -6.10940259	 -28.51054542	 -26.47407789
No	 -6.10940259	 -26.47407789	 -28.51054542
No	 -8.14587012	 -28.51054542	 -24.43761036
No	 -8.14587012	 -26.47407789	 -22.40114283
No	 -6.10940259	 -28.51054542	 -22.40114283
No	 -6.10940259	 -26.47407789	 -24.43761036
No	 -8.14587012	 -28.51054542	 -20.36467530
No	 -8.14587012	 -26.47407789	 -18.32820777
No	 -6.10940259	 -26.47407789	 -20.36467530
No	 -8.14587012	 -26.47407789	 18.32820777
No	 -8.14587012	 -28.51054542	 20.36467530
No	 -8.14587012	 -26.47407789	 22.40114283
No	 -6.10940259	 -28.51054542	 22.40114283
No	 -6.10940259	 -26.47407789	 20.36467530
No	 -8.14587012	 -28.51054542	 24.43761036
No	 -8.14587012	 -26.47407789	 26.47407789
No	 -6.10940259	 -28.51054542	 26.47407789
No	 -6.10940259	 -26.47407789	 24.43761036
No	 -8.14587012	 -28.51054542	 28.51054542
No	 -8.14587012	 -26.47407789	 30.54701295
No	 -6.10940259	 -28.51054542	 30.54701295
No	 -6.10940259	 -26.47407789	 28.51054542
No	 -8.14587012	 -28.51054542	 32.58348048
No	 -8.14587012	 -26.47407789	 34.61994801
No	 -6.10940259	 -28.51054542	 34.61994801
No	 -6.10940259	 -26.47407789	 32.58348048
No	 -8.14587012	 -28.51054542	 36.65641554
No	 -8.14587012	 -24.43761036	 -32.58348048
No	 -8.14587012	 -22.40114283	 -30.54701295
No	 -6.10940259	 -24.43761036	 -30.54701295
No	 -8.14587012	 -24.43761036	 -28.51054542
No	 -8.14587012	 -22.40114283	 -26.47407789
No	 -6.10940259	 -24.43761036	 -26.47407789
No	 -6.10940259	 -22.40114283	 -28.51054542
No	 -8.14587012	 -24.43761036	 -24.43761036
No	 -8.14587012	 -22.40114283	 -22.40114283
No	 -6.10940259	 -24.43761036	 -22.40114283
No	 -6.10940259	 -22.40114283	 -24.43761036
No	 -8.14587012	 -24.43761036	 -20.36467530
No	 -8.14587012	 -22.40114283	 -18.32820777
No	 -6.10940259	 -24.43761036	 -18.32820777
No	 -6.10940259	 -22.40114283	 -20.36467530
No	 -8.14587012	 -24.43761036	 -16.29174024
No	 -8.14587012	 -22.40114283	 -14.25527271
No	 -6.10940259	 -22.40114283	 -16.29174024
No	 -8.14587012	 -22.40114283	 14.25527271
No	 -8.14587012	 -24.43761036	 16.29174024
No	 -8.14587012	 -22.40114283	 18.32820777
No	 -6.10940259	 -24.43761036	 18.32820777
No	 -6.10940259	 -22.40114283	 16.29174024
No	 -8.14587012	 -24.43761036	 20.36467530
No	 -8.14587012	 -22.40114283	 22.40114283
No	 -6.10940259	 -24.43761036	 22.40114283
No	 -6.10940259	 -22.40114283	 20.36467530
No	 -8.14587012	 -24.43761036	 24.43761036
No	 -8.14587012	 -22.40114283	 26.47407789
No	 -6.10940259	 -24.43761036	 26.47407789
No	 -6.10940259	 -22.40114283	 24.43761036
No	 -8.14587012	 -24.43761036	 28.51054542
No	 -8.14587012	 -22.40114283	 30.54701295
No	 -6.10940259	 -24.43761036	 30.54701295
No	 -6.10940259	 -22.40114283	 28.51054542
No	 -8.14587012	 -24.43761036	 32.58348048
No	 -8.14587012	 -20.36467530	 -28.51054542
No	 -8.14587012	 -18.32820777	 -26.47407789
No	 -6.10940259	 -20.36467530	 -26.47407789
No	 -8.14587012	 -20.36467530	 -24.43761036
No	 -8.14587012	 -18.32820777	 -22.40114283
No	 -6.10940259	 -20.36467530	 -22.40114283
No	 -6.10940259	 -18.32820777	 -24.43761036
No	 -8.14587012	 -20.36467530	 -20.36467530
No	 -8.14587012	 -18.32820777	 -18.32820777
No	 -6.10940259	 -20.36467530	 -18.32820777
No	 -6.10940259	 -18.32820777	 -20.36467530
No	 -8.14587012	 -20.36467530	 -16.29174024
No	 -8.14587012	 -18.32820777	 -14.25527271
No	 -6.10940259	 -20.36467530	 -14.25527271
No	 -6.10940259	 -18.32820777	 -16.29174024
No	 -8.14587012	 -20.36467530	 -12.21880518
No	 -8.14587012	 -18.32820777	 -10.18233765
No	 -6.10940259	 -18.32820777	 -12.21880518
No	 -8.14587012	 -18.32820777	 10.18233765
No	 -8.14587012	 -20.36467530	 12.21880518
No	 -8.14587012	 -18.32820777	 14.25527271
No	 -6.10940259	 -20.36467530	 14.25527271
No	 -6.10940259	 -18.32820777	 12.21880518
No	 -8.14587012	 -20.36467530	 16.29174024
No	 -8.14587012	 -18.32820777	 18.32820777
No	 -6.10940259	 -20.36467530	 18.32820777
No	 -6.10940259	 -18.32820777	 16.29174024
No	 -8.14587012	 -20.36467530	 20.36467530
No	 -8.14587012	 -18.32820777	 22.40114283
No	 -6.10940259	 -20.36467530	 22.40114283
No	 -6.10940259	 -18.32820777	 20.36467530
No	 -8.14587012	 -20.36467530	 24.43761036
No	 -8.14587012	 -18.32820777	 26.47407789
No	 -6.10940259	 -20.36467530	 26.47407789
No	 -6.10940259	 -18.32820777	 24.43761036
No	 -8.14587012	 -20.36467530	 28.51054542
No	 -8.14587012	 -16.29174024	 -24.43761036
No	 -8.14587012	 -14.25527271	 -22.40114283
No	 -6.10940259	 -16.29174024	 -22.40114283
No	 -8.14587012	 -16.29174024	 -20.36467530
No	 -8.14587012	 -14.25527271	 -18.32820777
No	 -6.10940259	 -16.29174024	 -18.32820777
No	 -6.10940259	 -14.25527271	 -20.36467530
No	 -8.14587012	 -16.29174024	 -16.29174024
No	 -8.14587012	 -14.25527271	 -14.25527271
No	 -6.10940259	 -16.29174024	 -14.25527271
No	 -6.10940259	 -14.25527271	 -16.29174024
No	 -8.14587012	 -16.29174024	 -12.21880518
No	 -8.14587012	 -14.25527271	 -10.18233765
No	 -6.10940259	 -16.29174024	 -10.18233765
No	 -6.10940259	 -14.25527271	 -12.21880518
No	 -8.14587012	 -16.29174024	 -8.14587012
No	 -8.14587012	 -14.25527271	 -6.10940259
No	 -6.10940259	 -14.25527271	 -8.14587012
No	 -8.14587012	 -14.25527271	 6.10940259
No	 -8.14587012	 -16.29174024	 8.14587012
No	 -8.14587012	 -14.25527271	 10.18233765
No	 -6.10940259	 -16.29174024	 10.18233765
No	 -6.10940259	 -14.25527271	 8.14587012
No	 -8.14587012	 -16.29174024	 12.21880518
No	 -8.14587012	 -14.25527271	 14.25527271
No	 -6.10940259	 -16.29174024	 14.25527271
No	 -6.10940259	 -14.25527271	 12.21880518
No	 -8.14587012	 -16.29174024	 16.29174024
No	 -8.14587012	 -14.25527271	 18.32820777
No	 -6.10940259	 -16.29174024	 18.32820777
No	 -6.10940259	 -14.25527271	 16.29174024
No	 -8.14587012	 -16.29174024	 20.36467530
No	 -8.14587012	 -14.25527271	 22.40114283
No	 -6.10940259	 -16.29174024	 22.40114283
No	 -6.10940259	 -14.25527271	 20.36467530
No	 -8.14587012	 -16.29174024	 24.43761036
No	 -8.14587012	 -12.21880518	 -20.36467530
No	 -8.14587012	 -10.18233765	 -18.32820777
No	 -6.10940259	 -12.21880518	 -18.32820777
No	 -8.14587012	 -12.21880518	 -16.29174024
No	 -8.14587012	 -10.18233765	 -14.25527271
No	 -6.10940259	 -12.21880518	 -14.25527271
No	 -6.10940259	 -10.18233765	 -16.29174024
No	 -8.14587012	 -12.21880518	 -12.21880518
No	 -8.14587012	 -10.18233765	 -10.18233765
No	 -6.10940259	 -12.21880518	 -10.18233765
No	 -6.10940259	 -10.18233765	 -12.21880518
No	 -8.14587012	 -12.21880518	 -8.14587012
No	 -8.14587012	 -10.18233765	 -6.10940259
No	 -6.10940259	 -12.21880518	 -6.10940259
No	 -6.10940259	 -10.18233765	 -8.14587012
No	 -8.14587012	 -12.21880518	 -4.07293506
No	 -8.14587012	 -10.18233765	 -2.03646753
No	 -6.10940259	 -10.18233765	 -4.07293506
No	 -8.14587012	 -10.18233765	 2.03646753
No	 -8.14587012	 -12.21880518	 4.07293506
No	 -8.14587012	 -10.18233765	 6.10940259
No	 -6.10940259	 -12.21880518	 6.10940259
No	 -6.10940259	 -10.18233765	 4.07293506
No	 -8.14587012	 -12.21880518	 8.14587012
No	 -8.14587012	 -10.18233765	 10.18233765
No	 -6.10940259	 -12.21880518	 10.18233765
No	 -6.10940259	 -10.18233765	 8.14587012
No	 -8.14587012	 -12.21880518	 12.21880518
No	 -8.14587012	 -10.18233765	 14.25527271
No	 -6.10940259	 -12.21880518	 14.25527271
No	 -6.10940259	 -10.18233765	 12.21880518
No	 -8.14587012	 -12.21880518	 16.29174024
No	 -8.14587012	 -10.18233765	 18.32820777
No	 -6.10940259	 -12.21880518	 18.32820777
No	 -6.10940259	 -10.18233765	 16.29174024
No	 -8.14587012	 -12.21880518	 20.36467530
No	 -8.14587012	 -8.14587012	 -16.29174024
No	 -8.14587012	 -6.10940259	 -14.25527271
No	 -6.10940259	 -8.14587012	 -14.25527271
No	 -8.14587012	 -8.14587012	 -12.21880518
No	 -8.14587012	 -6.10940259	 -10.18233765
No	 -6.10940259	 -8.14587012	 -10.18233765
No	 -6.10940259	 -6.10940259	 -12.21880518
No	 -8.14587012	 -8.14587012	 -8.14587012
No	 -8.14587012	 -6.10940259	 -6.10940259
No	 -6.10940259	 -8.14587012	 -6.10940259
No	 -6.10940259	 -6.10940259	 -8.14587012
No	 -8.14587012	 -8.14587012	 -4.07293506
No	 -8.14587012	 -6.10940259	 -2.03646753
No	 -6.10940259	 -8.14587012	 -2.03646753
No	 -6.10940259	 -6.10940259	 -4.07293506
No	 -8.14587012	 -8.14587012	 -0.00000000
No	 -8.14587012	 -6.10940259	 2.03646753
No	 -6.10940259	 -8.14587012	 2.03646753
No	 -6.10940259	 -6.10940259	 -0.00000000
No	 -8.14587012	 -8.14587012	 4.07293506
No	 -8.14587012	 -6.10940259	 6.10940259
No	 -6.10940259	 -8.14587012	 6.10940259
No	 -6.10940259	 -6.10940259	 4.07293506
No	 -8.14587012	 -8.14587012	 8.14587012
No	 -8.14587012	 -6.10940259	 10.18233765
No	 -6.10940259	 -8.14587012	 10.18233765
No	 -6.10940259	 -6.10940259	 8.14587012
No	 -8.14587012	 -8.14587012	 12.21880518
No	 -8.14587012	 -6.10940259	 14.25527271
No	 -6.10940259	 -8.14587012	 14.25527271
No	 -6.10940259	 -6.10940259	 12.21880518
No	 -8.14587012	 -8.14587012	 16.29174024
No	 -8.14587012	 -4.07293506	 -12.21880518
No	 -8.14587012	 -2.03646753	 -10.18233765
No	 -6.10940259	 -4.07293506	 -10.18233765
No	 -8.14587012	 -4.07293506	 -8.14587012
No	 -8.14587012	 -2.03646753	 -6.10940259
No	 -6.10940259	 -4.07293506	 -6.10940259
No	 -6.10940259	 -2.03646753	 -8.14587012
No	 -8.14587012	 -4.07293506	 -4.07293506
No	 -6.10940259	 -4.07293506	 -2.03646753
No	 -6.10940259	 -2.03646753	 -4.07293506
No	 -6.10940259	 -4.07293506	 2.03646753
No	 -8.14587012	 -4.07293506	 4.07293506
No	 -8.14587012	 -2.03646753	 6.10940259
No	 -6.10940259	 -4.07293506	 6.10940259
No	 -6.10940259	 -2.03646753	 4.07293506
No	 -8.14587012	 -4.07293506	 8.14587012
No	 -8.14587012	 -2.03646753	 10.18233765
No	 -6.10940259	 -4.07293506	 10.18233765
No	 -6.10940259	 -2.03646753	 8.14587012
No	 -8.14587012	 -4.07293506	 12.21880518
No	 -8.14587012	 2.03646753	 -10.18233765
No	 -8.14587012	 -0.00000000	 -8.14587012
No	 -8.14587012	 2.03646753	 -6.10940259
No	 -6.10940259	 -0.00000000	 -6.10940259
No	 -6.10940259	 2.03646753	 -8.14587012
No	 -6.10940259	 2.03646753	 -4.07293506
No	 -8.14587012	 2.03646753	 6.10940259
No	 -6.10940259	 -0.00000000	 6.10940259
No	 -6.10940259	 2.03646753	 4.07293506
No	 -8.14587012	 -0.00000000	 8.14587012
No	 -8.14587012	 2.03646753	 10.18233765
No	 -6.10940259	 2.03646753	 8.14587012
No	 -8.14587012	 6.10940259	 -14.25527271
No	 -8.14587012	 4.07293506	 -12.21880518
No	 -8.14587012	 6.10940259	 -10.18233765
No	 -6.10940259	 4.07293506	 -10.18233765
No	 -6.10940259	 6.10940259	 -12.21880518
No	 -8.14587012	 4.07293506	 -8.14587012
No	 -8.14587012	 6.10940259	 -6.10940259
No	 -6.10940259	 4.07293506	 -6.10940259
No	 -6.10940259	 6.10940259	 -8.14587012
No	 -8.14587012	 4.07293506	 -4.07293506
No	 -8.14587012	 6.10940259	 -2.03646753
No	 -6.10940259	 4.07293506	 -2.03646753
No	 -6.10940259	 6.10940259	 -4.07293506
No	 -8.14587012	 6.10940259	 2.03646753
No	 -6.10940259	 4.07293506	 2.03646753
No	 -6.10940259	 6.10940259	 -0.00000000
No	 -8.14587012	 4.07293506	 4.07293506
No	 -8.14587012	 6.10940259	 6.10940259
No	 -6.10940259	 4.07293506	 6.10940259
No	 -6.10940259	 6.10940259	 4.07293506
No	 -8.14587012	 4.07293506	 8.14587012
No	 -8.14587012	 6.10940259	 10.18233765
No	 -6.10940259	 4.07293506	 10.18233765
No	 -6.10940259	 6.10940259	 8.14587012
No	 -8.14587012	 4.07293506	 12.21880518
No	 -8.14587012	 6.10940259	 14.25527271
No	 -6.10940259	 6.10940259	 12.21880518
No	 -8.14587012	 10.18233765	 -18.32820777
No	 -8.14587012	 8.14587012	 -16.29174024
No	 -8.14587012	 10.18233765	 -14.25527271
No	 -6.10940259	 8.14587012	 -14.25527271
No	 -6.10940259	 10.18233765	 -16.29174024
No	 -8.14587012	 8.14587012	 -12.21880518
No	 -8.14587012	 10.18233765	 -10.18233765
No	 -6.10940259	 8.14587012	 -10.18233765
No	 -6.10940259	 10.18233765	 -12.21880518
No	 -8.14587012	 8.14587012	 -8.14587012
No	 -8.14587012	 10.18233765	 -6.10940259
No	 -6.10940259	 8.14587012	 -6.10940259
No	 -6.10940259	 10.18233765	 -8.14587012
No	 -8.14587012	 8.14587012	 -4.07293506
No	 -8.14587012	 10.18233765	 -2.03646753
No	 -6.10940259	 8.14587012	 -2.03646753
No	 -6.10940259	 10.18233765	 -4.07293506
No	 -8.14587012	 8.14587012	 -0.00000000
No	 -8.14587012	 10.18233765	 2.03646753
No	 -6.10940259	 8.14587012	 2.03646753
No	 -8.14587012	 8.14587012	 4.07293506
No	 -8.14587012	 10.18233765	 6.10940259
No	 -6.10940259	 8.14587012	 6.10940259
No	 -6.10940259	 10.18233765	 4.07293506
No	 -8.14587012	 8.14587012	 8.14587012
No	 -8.14587012	 10.18233765	 10.18233765
No	 -6.10940259	 8.14587012	 10.18233765
No	 -6.10940259	 10.18233765	 8.14587012
No	 -8.14587012	 8.14587012	 12.21880518
No	 -8.14587012	 10.18233765	 14.25527271
No	 -6.10940259	 8.14587012	 14.25527271
No	 -6.10940259	 10.18233765	 12.21880518
No	 -8.14587012	 8.14587012	 16.29174024
No	 -8.14587012	 10.18233765	 18.32820777
No	 -6.10940259	 10.18233765	 16.29174024
No	 -8.14587012	 14.25527271	 -22.40114283
No	 -8.14587012	 12.21880518	 -20.36467530
No	 -8.14587012	 14.25527271	 -18.32820777
No	 -6.10940259	 12.21880518	 -18.32820777
No	 -6.10940259	 14.25527271	 -20.36467530
No	 -8.14587012	 12.21880518	 -16.29174024
No	 -8.14587012	 14.25527271	 -14.25527271
No	 -6.10940259	 12.21880518	 -14.25527271
No	 -6.10940259	 14.25527271	 -16.29174024
No	 -8.14587012	 12.21880518	 -12.21880518
No	 -8.14587012	 14.25527271	 -10.18233765
No	 -6.10940259	 12.21880518	 -10.18233765
No	 -6.10940259	 14.25527271	 -12.21880518
No	 -8.14587012	 12.21880518	 -8.14587012
No	 -8.14587012	 14.25527271	 -6.10940259
No	 -6.10940259	 12.21880518	 -6.10940259
No	 -6.10940259	 14.25527271	 -8.14587012
No	 -8.14587012	 12.21880518	 -4.07293506
No	 -8.14587012	 12.21880518	 4.07293506
No	 -8.14587012	 14.25527271	 6.10940259
No	 -6.10940259	 12.21880518	 6.10940259
No	 -8.14587012	 12.21880518	 8.14587012
No	 -8.14587012	 14.25527271	 10.18233765
No	 -6.10940259	 12.21880518	 10.18233765
No	 -6.10940259	 14.25527271	 8.14587012
No	 -8.14587012	 12.21880518	 12.21880518
No	 -8.14587012	 14.25527271	 14.25527271
No	 -6.10940259	 12.21880518	 14.25527271
No	 -6.10940259	 14.25527271	 12.21880518
No	 -8.14587012	 12.21880518	 16.29174024
No	 -8.14587012	 14.25527271	 18.32820777
No	 -6.10940259	 12.21880518	 18.32820777
No	 -6.10940259	 14.25527271	 16.29174024
No	 -8.14587012	 12.21880518	 20.36467530
No	 -8.14587012	 14.25527271	 22.40114283
No	 -6.10940259	 14.25527271	 20.36467530
No	 -8.14587012	 18.32820777	 -26.47407789
No	 -8.14587012	 16.29174024	 -24.43761036
No	 -8.14587012	 18.32820777	 -22.40114283
No	 -6.10940259	 16.29174024	 -22.40114283
No	 -6.10940259	 18.32820777	 -24.43761036
No	 -8.14587012	 16.29174024	 -20.36467530
No	 -8.14587012	 18.32820777	 -18.32820777
No	 -6.10940259	 16.29174024	 -18.32820777
No	 -6.10940259	 18.32820777	 -20.36467530
No	 -8.14587012	 16.29174024	 -16.29174024
No	 -8.14587012	 18.32820777	 -14.25527271
No	 -6.10940259	 16.29174024	 -14.25527271
No	 -6.10940259	 18.32820777	 -16.29174024
No	 -8.14587012	 16.29174024	 -12.21880518
No	 -8.14587012	 18.32820777	 -10.18233765
No	 -6.10940259	 16.29174024	 -10.18233765
No	 -6.10940259	 18.32820777	 -12.21880518
No	 -8.14587012	 16.29174024	 -8.14587012
No	 -8.14587012	 16.29174024	 8.14587012
No	 -8.14587012	 18.32820777	 10.18233765
No	 -6.10940259	 16.29174024	 10.18233765
No	 -8.14587012	 16.29174024	 12.21880518
No	 -8.14587012	 18.32820777	 14.25527271
No	 -6.10940259	 16.29174024	 14.25527271
No	 -6.10940259	 18.32820777	 12.21880518
No	 -8.14587012	 16.29174024	 16.29174024
No	 -8.14587012	 18.32820777	 18.32820777
No	 -6.10940259	 16.29174024	 18.32820777
No	 -6.10940259	 18.32820777	 16.29174024
No	 -8.14587012	 16.29174024	 20.36467530
No	 -8.14587012	 18.32820777	 22.40114283
No	 -6.10940259	 16.29174024	 22.40114283
No	 -6.10940259	 18.32820777	 20.36467530
No	 -8.14587012	 16.29174024	 24.43761036
No	 -8.14587012	 18.32820777	 26.47407789
No	 -6.10940259	 18.32820777	 24.43761036
No	 -8.14587012	 22.40114283	 -30.54701295
No	 -8.14587012	 20.36467530	 -28.51054542
No	 -8.14587012	 22.40114283	 -26.47407789
No	 -6.10940259	 20.36467530	 -26.47407789
No	 -6.10940259	 22.40114283	 -28.51054542
No	 -8.14587012	 20.36467530	 -24.43761036
No	 -8.14587012	 22.40114283	 -22.40114283
No	 -6.10940259	 20.36467530	 -22.40114283
No	 -6.10940259	 22.40114283	 -24.43761036
No	 -8.14587012	 20.36467530	 -20.36467530
No	 -8.14587012	 22.40114283	 -18.32820777
No	 -6.10940259	 20.36467530	 -18.32820777
No	 -6.10940259	 22.40114283	 -20.36467530
No	 -8.14587012	 20.36467530	 -16.29174024
No	 -8.14587012	 22.40114283	 -14.25527271
No	 -6.10940259	 20.36467530	 -14.25527271
No	 -6.10940259	 22.40114283	 -16.29174024
No	 -8.14587012	 20.36467530	 -12.21880518
No	 -8.14587012	 20.36467530	 12.21880518
No	 -8.14587012	 22.40114283	 14.25527271
No	 -6.10940259	 20.36467530	 14.25527271
No	 -8.14587012	 20.36467530	 16.29174024
No	 -8.14587012	 22.40114283	 18.32820777
No	 -6.10940259	 20.36467530	 18.32820777
No	 -6.10940259	 22.40114283	 16.29174024
No	 -8.14587012	 20.36467530	 20.36467530
No	 -8.14587012	 22.40114283	 22.40114283
No	 -6.10940259	 20.36467530	 22.40114283
No	 -6.10940259	 22.40114283	 20.36467530
No	 -8.14587012	 20.36467530	 24.43761036
No	 -8.14587012	 22.40114283	 26.47407789
No	 -6.10940259	 20.36467530	 26.47407789
No	 -6.10940259	 22.40114283	 24.43761036
No	 -8.14587012	 20.36467530	 28.51054542
No	 -8.14587012	 22.40114283	 30.54701295
No	 -6.10940259	 22.40114283	 28.51054542
No	 -8.14587012	 26.47407789	 -34.61994801
No	 -8.14587012	 24.43761036	 -32.58348048
No	 -8.14587012	 26.47407789	 -30.54701295
No	 -6.10940259	 24.43761036	 -30.54701295
No	 -6.10940259	 26.47407789	 -32.58348048
No	 -8.14587012	 24.43761036	 -28.51054542
No	 -8.14587012	 26.47407789	 -26.47407789
No	 -6.10940259	 24.43761036	 -26.47407789
No	 -6.10940259	 26.47407789	 -28.51054542
No	 -8.14587012	 24.43761036	 -24.43761036
No	 -8.14587012	 26.47407789	 -22.40114283
No	 -6.10940259	 24.43761036	 -22.40114283
No	 -6.10940259	 26.47407789	 -24.43761036
No	 -8.14587012	 24.43761036	 -20.36467530
No	 -8.14587012	 26.47407789	 -18.32820777
No	 -6.10940259	 24.43761036	 -18.32820777
No	 -6.10940259	 26.47407789	 -20.36467530
No	 -8.14587012	 24.43761036	 -16.29174024
No	 -8.14587012	 24.43761036	 16.29174024
No	 -8.14587012	 26.47407789	 18.32820777
No	 -6.10940259	 24.43761036	 18.32820777
No	 -8.14587012	 24.43761036	 20.36467530
No	 -8.14587012	 26.47407789	 22.40114283
No	 -6.10940259	 24.43761036	 22.40114283
No	 -6.10940259	 26.47407789	 20.36467530
No	 -8.14587012	 24.43761036	 24.43761036
No	 -8.14587012	 26.47407789	 26.47407789
No	 -6.10940259	 24.43761036	 26.47407789
No	 -6.10940259	 26.47407789	 24.43761036
No	 -8.14587012	 24.43761036	 28.51054542
No	 -8.14587012	 26.47407789	 30.54701295
No	 -6.10940259	 24.43761036	 30.54701295
No	 -6.10940259	 26.47407789	 28.51054542
No	 -8.14587012	 24.43761036	 32.58348048
No	 -8.14587012	 26.47407789	 34.61994801
No	 -6.10940259	 26.47407789	 32.58348048
Co	 -8.14587012	 28.51054542	 -40.72935060
No	 -8.14587012	 30.54701295	 -38.69288307
Co	 -6.10940259	 30.54701295	 -40.72935060
No	 -8.14587012	 28.51054542	 -36.65641554
No	 -8.14587012	 30.54701295	 -34.61994801
No	 -6.10940259	 28.51054542	 -34.61994801
No	 -6.10940259	 30.54701295	 -36.65641554
No	 -8.14587012	 28.51054542	 -32.58348048
No	 -8.14587012	 30.54701295	 -30.54701295
No	 -6.10940259	 28.51054542	 -30.54701295
No	 -6.10940259	 30.54701295	 -32.58348048
No	 -8.14587012	 28.51054542	 -28.51054542
No	 -8.14587012	 30.54701295	 -26.47407789
No	 -6.10940259	 28.51054542	 -26.47407789
No	 -6.10940259	 30.54701295	 -28.51054542
No	 -8.14587012	 28.51054542	 -24.43761036
No	 -8.14587012	 30.54701295	 -22.40114283
No	 -6.10940259	 28.51054542	 -22.40114283
No	 -6.10940259	 30.54701295	 -24.43761036
No	 -8.14587012	 28.51054542	 -20.36467530
No	 -8.14587012	 28.51054542	 20.36467530
No	 -8.14587012	 30.54701295	 22.40114283
No	 -6.10940259	 28.51054542	 22.40114283
No	 -8.14587012	 28.51054542	 24.43761036
No	 -8.14587012	 30.54701295	 26.47407789
No	 -6.10940259	 28.51054542	 26.47407789
No	 -6.10940259	 30.54701295	 24.43761036
No	 -8.14587012	 28.51054542	 28.51054542
No	 -8.14587012	 30.54701295	 30.54701295
No	 -6.10940259	 28.51054542	 30.54701295
No	 -6.10940259	 30.54701295	 28.51054542
No	 -8.14587012	 28.51054542	 32.58348048
No	 -8.14587012	 30.54701295	 34.61994801
No	 -6.10940259	 28.51054542	 34.61994801
No	 -6.10940259	 30.54701295	 32.58348048
No	 -8.14587012	 28.51054542	 36.65641554
No	 -8.14587012	 30.54701295	 38.69288307
No	 -6.10940259	 30.54701295	 36.65641554
Co	 -8.14587012	 32.58348048	 -40.72935060
No	 -8.14587012	 34.61994801	 -38.69288307
No	 -6.10940259	 32.58348048	 -38.69288307
Co	 -6.10940259	 34.61994801	 -40.72935060
No	 -8.14587012	 32.58348048	 -36.65641554
No	 -8.14587012	 34.61994801	 -34.61994801
No	 -6.10940259	 32.58348048	 -34.61994801
No	 -6.10940259	 34.61994801	 -36.65641554
No	 -8.14587012	 32.58348048	 -32.58348048
No	 -8.14587012	 34.61994801	 -30.54701295
No	 -6.10940259	 32.58348048	 -30.54701295
No	 -6.10940259	 34.61994801	 -32.58348048
No	 -8.14587012	 32.58348048	 -28.51054542
No	 -8.14587012	 34.61994801	 -26.47407789
No	 -6.10940259	 32.58348048	 -26.47407789
No	 -6.10940259	 34.61994801	 -28.51054542
No	 -8.14587012	 32.58348048	 -24.43761036
No	 -8.14587012	 32.58348048	 24.43761036
No	 -8.14587012	 34.61994801	 26.47407789
No	 -6.10940259	 32.58348048	 26.47407789
No	 -8.14587012	 32.58348048	 28.51054542
No	 -8.14587012	 34.61994801	 30.54701295
No	 -6.10940259	 32.58348048	 30.54701295
No	 -6.10940259	 34.61994801	 28.51054542
No	 -8.14587012	 32.58348048	 32.58348048
No	 -8.14587012	 34.61994801	 34.61994801
No	 -6.10940259	 32.58348048	 34.61994801
No	 -6.10940259	 34.61994801	 32.58348048
No	 -8.14587012	 32.58348048	 36.65641554
No	 -8.14587012	 34.61994801	 38.69288307
No	 -6.10940259	 32.58348048	 38.69288307
No	 -6.10940259	 34.61994801	 36.65641554
Co	 -8.14587012	 36.65641554	 -40.72935060
No	 -8.14587012	 38.69288307	 -38.69288307
No	 -6.10940259	 36.65641554	 -38.69288307
Co	 -6.10940259	 38.69288307	 -40.72935060
No	 -8.14587012	 36.65641554	 -36.65641554
No	 -8.14587012	 38.69288307	 -34.61994801
No	 -6.10940259	 36.65641554	 -34.61994801
No	 -6.10940259	 38.69288307	 -36.65641554
No	 -8.14587012	 36.65641554	 -32.58348048
No	 -8.14587012	 38.69288307	 -30.54701295
No	 -6.10940259	 36.65641554	 -30.54701295
No	 -6.10940259	 38.69288307	 -32.58348048
No	 -8.14587012	 36.65641554	 -28.51054542
No	 -8.14587012	 36.65641554	 28.51054542
No	 -8.14587012	 38.69288307	 30.54701295
No	 -6.10940259	 36.65641554	 30.54701295
No	 -8.14587012	 36.65641554	 32.58348048
No	 -8.14587012	 38.69288307	 34.61994801
No	 -6.10940259	 36.65641554	 34.61994801
No	 -6.10940259	 38.69288307	 32.58348048
No	 -8.14587012	 36.65641554	 36.65641554
No	 -8.14587012	 38.69288307	 38.69288307
No	 -6.10940259	 36.65641554	 38.69288307
No	 -6.10940259	 38.69288307	 36.65641554
Co	 -4.07293506	 -40.72935060	 -40.72935060
No	 -4.07293506	 -38.69288307	 -38.69288307
Co	 -2.03646753	 -40.72935060	 -38.69288307
Co	 -2.03646753	 -38.69288307	 -40.72935060
Co	 -4.07293506	 -40.72935060	 -36.65641554
No	 -4.07293506	 -38.69288307	 -34.61994801
Co	 -2.03646753	 -40.72935060	 -34.61994801
No	 -2.03646753	 -38.69288307	 -36.65641554
Co	 -4.07293506	 -40.72935060	 -32.58348048
Co	 -4.07293506	 -40.72935060	 32.58348048
No	 -4.07293506	 -38.69288307	 34.61994801
Co	 -2.03646753	 -40.72935060	 34.61994801
Co	 -4.07293506	 -40.72935060	 36.65641554
No	 -4.07293506	 -38.69288307	 38.69288307
Co	 -2.03646753	 -40.72935060	 38.69288307
No	 -2.03646753	 -38.69288307	 36.65641554
Co	 -4.07293506	 -36.65641554	 -40.72935060
No	 -4.07293506	 -34.61994801	 -38.69288307
No	 -2.03646753	 -36.65641554	 -38.69288307
Co	 -2.03646753	 -34.61994801	 -40.72935060
No	 -4.07293506	 -36.65641554	 -36.65641554
No	 -4.07293506	 -34.61994801	 -34.61994801
No	 -2.03646753	 -36.65641554	 -34.61994801
No	 -2.03646753	 -34.61994801	 -36.65641554
No	 -4.07293506	 -36.65641554	 -32.58348048
No	 -4.07293506	 -34.61994801	 -30.54701295
No	 -2.03646753	 -34.61994801	 -32.58348048
No	 -4.07293506	 -34.61994801	 30.54701295
No	 -4.07293506	 -36.65641554	 32.58348048
No	 -4.07293506	 -34.61994801	 34.61994801
No	 -2.03646753	 -36.65641554	 34.61994801
No	 -2.03646753	 -34.61994801	 32.58348048
No	 -4.07293506	 -36.65641554	 36.65641554
No	 -4.07293506	 -34.61994801	 38.69288307
No	 -2.03646753	 -36.65641554	 38.69288307
No	 -2.03646753	 -34.61994801	 36.65641554
Co	 -4.07293506	 -32.58348048	 -40.72935060
No	 -4.07293506	 -32.58348048	 -36.65641554
No	 -4.07293506	 -30.54701295	 -34.61994801
No	 -2.03646753	 -32.58348048	 -34.61994801
No	 -4.07293506	 -32.58348048	 -32.58348048
No	 -4.07293506	 -30.54701295	 -30.54701295
No	 -2.03646753	 -32.58348048	 -30.54701295
No	 -2.03646753	 -30.54701295	 -32.58348048
No	 -4.07293506	 -32.58348048	 -28.51054542
No	 -4.07293506	 -30.54701295	 -26.47407789
No	 -2.03646753	 -30.54701295	 -28.51054542
No	 -4.07293506	 -30.54701295	 26.47407789
No	 -4.07293506	 -32.58348048	 28.51054542
No	 -4.07293506	 -30.54701295	 30.54701295
No	 -2.03646753	 -32.58348048	 30.54701295
No	 -2.03646753	 -30.54701295	 28.51054542
No	 -4.07293506	 -32.58348048	 32.58348048
No	 -4.07293506	 -30.54701295	 34.61994801
No	 -2.03646753	 -32.58348048	 34.61994801
No	 -2.03646753	 -30.54701295	 32.58348048
No	 -4.07293506	 -32.58348048	 36.65641554
No	 -4.07293506	 -28.51054542	 -32.58348048
No	 -4.07293506	 -26.47407789	 -30.54701295
No	 -2.03646753	 -28.51054542	 -30.54701295
No	 -4.07293506	 -28.51054542	 -28.51054542
No	 -4.07293506	 -26.47407789	 -26.47407789
No	 -2.03646753	 -28.51054542	 -26.47407789
No	 -2.03646753	 -26.47407789	 -28.51054542
No	 -4.07293506	 -28.51054542	 -24.43761036
No	 -4.07293506	 -26.47407789	 -22.40114283
No	 -2.03646753	 -26.47407789	 -24.43761036
No	 -4.07293506	 -26.47407789	 22.40114283
No	 -4.07293506	 -28.51054542	 24.43761036
No	 -4.07293506	 -26.47407789	 26.47407789
No	 -2.03646753	 -28.51054542	 26.47407789
No	 -2.03646753	 -26.47407789	 24.43761036
No	 -4.07293506	 -28.51054542	 28.51054542
No	 -4.07293506	 -26.47407789	 30.54701295
No	 -2.03646753	 -28.51054542	 30.54701295
No	 -2.03646753	 -26.47407789	 28.51054542
No	 -4.07293506	 -28.51054542	 32.58348048
No	 -4.07293506	 -24.43761036	 -28.51054542
No	 -4.07293506	 -22.40114283	 -26.47407789
No	 -2.03646753	 -24.43761036	 -26.47407789
No	 -4.07293506	 -24.43761036	 -24.43761036
No	 -4.07293506	 -22.40114283	 -22.40114283
No	 -2.03646753	 -24.43761036	 -22.40114283
No	 -2.03646753	 -22.40114283	 -24.43761036
No	 -4.07293506	 -24.43761036	 -20.36467530
No	 -4.07293506	 -22.40114283	 -18.32820777
No	 -2.03646753	 -22.40114283	 -20.36467530
No	 -4.07293506	 -22.40114283	 18.32820777
No	 -4.07293506	 -24.43761036	 20.36467530
No	 -4.07293506	 -22.40114283	 22.40114283
No	 -2.03646753	 -24.43761036	 22.40114283
No	 -2.03646753	 -22.40114283	 20.36467530
No	 -4.07293506	 -24.43761036	 24.43761036
No	 -4.07293506	 -22.40114283	 26.47407789
No	 -2.03646753	 -24.43761036	 26.47407789
No	 -2.03646753	 -22.40114283	 24.43761036
No	 -4.07293506	 -24.43761036	 28.51054542
No	 -4.07293506	 -20.36467530	 -24.43761036
No	 -4.07293506	 -18.32820777	 -22.40114283
No	 -2.03646753	 -20.36467530	 -22.40114283
No	 -4.07293506	 -20.36467530	 -20.36467530
No	 -4.07293506	 -18.32820777	 -18.32820777
No	 -2.03646753	 -20.36467530	 -18.32820777
No	 -2.03646753	 -18.32820777	 -20.36467530
No	 -4.07293506	 -20.36467530	 -16.29174024
No	 -4.07293506	 -18.32820777	 -14.25527271
No	 -2.03646753	 -18.32820777	 -16.29174024
No	 -4.07293506	 -18.32820777	 14.25527271
No	 -4.07293506	 -20.36467530	 16.29174024
No	 -4.07293506	 -18.32820777	 18.32820777
No	 -2.03646753	 -20.36467530	 18.32820777
No	 -2.03646753	 -18.32820777	 16.29174024
No	 -4.07293506	 -20.36467530	 20.36467530
No	 -4.07293506	 -18.32820777	 22.40114283
No	 -2.03646753	 -20.36467530	 22.40114283
No	 -2.03646753	 -18.32820777	 20.36467530
No	 -4.07293506	 -20.36467530	 24.43761036
No	 -4.07293506	 -16.29174024	 -20.36467530
No	 -4.07293506	 -14.25527271	 -18.32820777
No	 -2.03646753	 -16.29174024	 -18.32820777
No	 -4.07293506	 -16.29174024	 -16.29174024
No	 -4.07293506	 -14.25527271	 -14.25527271
No	 -2.03646753	 -16.29174024	 -14.25527271
No	 -2.03646753	 -14.25527271	 -16.29174024
No	 -4.07293506	 -16.29174024	 -12.21880518
No	 -4.07293506	 -14.25527271	 -10.18233765
No	 -2.03646753	 -14.25527271	 -12.21880518
No	 -4.07293506	 -14.25527271	 10.18233765
No	 -4.07293506	 -16.29174024	 12.21880518
No	 -4.07293506	 -14.25527271	 14.25527271
No	 -2.03646753	 -16.29174024	 14.25527271
No	 -2.03646753	 -14.25527271	 12.21880518
No	 -4.07293506	 -16.29174024	 16.29174024
No	 -4.07293506	 -14.25527271	 18.32820777
No	 -2.03646753	 -16.29174024	 18.32820777
No	 -2.03646753	 -14.25527271	 16.29174024
No	 -4.07293506	 -16.29174024	 20.36467530
No	 -4.07293506	 -12.21880518	 -16.29174024
No	 -4.07293506	 -10.18233765	 -14.25527271
No	 -2.03646753	 -12.21880518	 -14.25527271
No	 -4.07293506	 -12.21880518	 -12.21880518
No	 -4.07293506	 -10.18233765	 -10.18233765
No	 -2.03646753	 -12.21880518	 -10.18233765
No	 -2.03646753	 -10.18233765	 -12.21880518
No	 -4.07293506	 -12.21880518	 -8.14587012
No	 -4.07293506	 -10.18233765	 -6.10940259
No	 -2.03646753	 -10.18233765	 -8.14587012
No	 -4.07293506	 -10.18233765	 6.10940259
No	 -4.07293506	 -12.21880518	 8.14587012
No	 -4.07293506	 -10.18233765	 10.18233765
No	 -2.03646753	 -12.21880518	 10.18233765
No	 -2.03646753	 -10.18233765	 8.14587012
No	 -4.07293506	 -12.21880518	 12.21880518
No	 -4.07293506	 -10.18233765	 14.25527271
No	 -2.03646753	 -12.21880518	 14.25527271
No	 -2.03646753	 -10.18233765	 12.21880518
No	 -4.07293506	 -12.21880518	 16.29174024
No	 -4.07293506	 -8.14587012	 -12.21880518
No	 -4.07293506	 -6.10940259	 -10.18233765
No	 -2.03646753	 -8.14587012	 -10.18233765
No	 -4.07293506	 -8.14587012	 -8.14587012
No	 -4.07293506	 -6.10940259	 -6.10940259
No	 -2.03646753	 -8.14587012	 -6.10940259
No	 -2.03646753	 -6.10940259	 -8.14587012
No	 -4.07293506	 -8.14587012	 -4.07293506
No	 -4.07293506	 -6.10940259	 -2.03646753
No	 -2.03646753	 -6.10940259	 -4.07293506
No	 -4.07293506	 -6.10940259	 2.03646753
No	 -4.07293506	 -8.14587012	 4.07293506
No	 -4.07293506	 -6.10940259	 6.10940259
No	 -2.03646753	 -8.14587012	 6.10940259
No	 -2.03646753	 -6.10940259	 4.07293506
No	 -4.07293506	 -8.14587012	 8.14587012
No	 -4.07293506	 -6.10940259	 10.18233765
No	 -2.03646753	 -8.14587012	 10.18233765
No	 -2.03646753	 -6.10940259	 8.14587012
No	 -4.07293506	 -8.14587012	 12.21880518
No	 -4.07293506	 -4.07293506	 -8.14587012
No	 -4.07293506	 -2.03646753	 -6.10940259
No	 -2.03646753	 -4.07293506	 -6.10940259
No	 -4.07293506	 -4.07293506	 -4.07293506
No	 -4.07293506	 -2.03646753	 -2.03646753
No	 -2.03646753	 -4.07293506	 -2.03646753
No	 -2.03646753	 -2.03646753	 -4.07293506
No	 -4.07293506	 -4.07293506	 -0.00000000
No	 -4.07293506	 -2.03646753	 2.03646753
No	 -2.03646753	 -4.07293506	 2.03646753
No	 -2.03646753	 -2.03646753	 -0.00000000
No	 -4.07293506	 -4.07293506	 4.07293506
No	 -4.07293506	 -2.03646753	 6.10940259
No	 -2.03646753	 -4.07293506	 6.10940259
No	 -2.03646753	 -2.03646753	 4.07293506
No	 -4.07293506	 -4.07293506	 8.14587012
No	 -4.07293506	 2.03646753	 -6.10940259
No	 -4.07293506	 -0.00000000	 -4.07293506
No	 -4.07293506	 2.03646753	 -2.03646753
No	 -2.03646753	 -0.00000000	 -2.03646753
No	 -2.03646753	 2.03646753	 -4.07293506
No	 -4.07293506	 2.03646753	 2.03646753
No	 -2.03646753	 -0.00000000	 2.03646753
No	 -2.03646753	 2.03646753	 -0.00000000
No	 -4.07293506	 -0.00000000	 4.07293506
No	 -4.07293506	 2.03646753	 6.10940259
No	 -2.03646753	 2.03646753	 4.07293506
No	 -4.07293506	 6.10940259	 -10.18233765
No	 -4.07293506	 4.07293506	 -8.14587012
No	 -4.07293506	 6.10940259	 -6.10940259
No	 -2.03646753	 4.07293506	 -6.10940259
No	 -2.03646753	 6.10940259	 -8.14587012
No	 -4.07293506	 4.07293506	 -4.07293506
No	 -4.07293506	 6.10940259	 -2.03646753
No	 -2.03646753	 4.07293506	 -2.03646753
No	 -2.03646753	 6.10940259	 -4.07293506
No	 -4.07293506	 4.07293506	 -0.00000000
No	 -4.07293506	 6.10940259	 2.03646753
No	 -2.03646753	 4.07293506	 2.03646753
No	 -4.07293506	 4.07293506	 4.07293506
No	 -4.07293506	 6.10940259	 6.10940259
No	 -2.03646753	 4.07293506	 6.10940259
No	 -2.03646753	 6.10940259	 4.07293506
No	 -4.07293506	 4.07293506	 8.14587012
No	 -4.07293506	 6.10940259	 10.18233765
No	 -2.03646753	 6.10940259	 8.14587012
No	 -4.07293506	 10.18233765	 -14.25527271
No	 -4.07293506	 8.14587012	 -12.21880518
No	 -4.07293506	 10.18233765	 -10.18233765
No	 -2.03646753	 8.14587012	 -10.18233765
No	 -2.03646753	 10.18233765	 -12.21880518
No	 -4.07293506	 8.14587012	 -8.14587012
No	 -4.07293506	 10.18233765	 -6.10940259
No	 -2.03646753	 8.14587012	 -6.10940259
No	 -2.03646753	 10.18233765	 -8.14587012
No	 -4.07293506	 8.14587012	 -4.07293506
No	 -4.07293506	 8.14587012	 4.07293506
No	 -4.07293506	 10.18233765	 6.10940259
No	 -2.03646753	 8.14587012	 6.10940259
No	 -4.07293506	 8.14587012	 8.14587012
No	 -4.07293506	 10.18233765	 10.18233765
No	 -2.03646753	 8.14587012	 10.18233765
No	 -2.03646753	 10.18233765	 8.14587012
No	 -4.07293506	 8.14587012	 12.21880518
No	 -4.07293506	 10.18233765	 14.25527271
No	 -2.03646753	 10.18233765	 12.21880518
No	 -4.07293506	 14.25527271	 -18.32820777
No	 -4.07293506	 12.21880518	 -16.29174024
No	 -4.07293506	 14.25527271	 -14.25527271
No	 -2.03646753	 12.21880518	 -14.25527271
No	 -2.03646753	 14.25527271	 -16.29174024
No	 -4.07293506	 12.21880518	 -12.21880518
No	 -4.07293506	 14.25527271	 -10.18233765
No	 -2.03646753	 12.21880518	 -10.18233765
No	 -2.03646753	 14.25527271	 -12.21880518
No	 -4.07293506	 12.21880518	 -8.14587012
No	 -4.07293506	 12.21880518	 8.14587012
No	 -4.07293506	 14.25527271	 10.18233765
No	 -2.03646753	 12.21880518	 10.18233765
No	 -4.07293506	 12.21880518	 12.21880518
No	 -4.07293506	 14.25527271	 14.25527271
No	 -2.03646753	 12.21880518	 14.25527271
No	 -2.03646753	 14.25527271	 12.21880518
No	 -4.07293506	 12.21880518	 16.29174024
No	 -4.07293506	 14.25527271	 18.32820777
No	 -2.03646753	 14.25527271	 16.29174024
No	 -4.07293506	 18.32820777	 -22.40114283
No	 -4.07293506	 16.29174024	 -20.36467530
No	 -4.07293506	 18.32820777	 -18.32820777
No	 -2.03646753	 16.29174024	 -18.32820777
No	 -2.03646753	 18.32820777	 -20.36467530
No	 -4.07293506	 16.29174024	 -16.29174024
No	 -4.07293506	 18.32820777	 -14.25527271
No	 -2.03646753	 16.29174024	 -14.25527271
No	 -2.03646753	 18.32820777	 -16.29174024
No	 -4.07293506	 16.29174024	 -12.21880518
No	 -4.07293506	 16.29174024	 12.21880518
No	 -4.07293506	 18.32820777	 14.25527271
No	 -2.03646753	 16.29174024	 14.25527271
No	 -4.07293506	 16.29174024	 16.29174024
No	 -4.07293506	 18.32820777	 18.32820777
No	 -2.03646753	 16.29174024	 18.32820777
No	 -2.03646753	 18.32820777	 16.29174024
No	 -4.07293506	 16.29174024	 20.36467530
No	 -4.07293506	 18.32820777	 22.40114283
No	 -2.03646753	 18.32820777	 20.36467530
No	 -4.07293506	 22.40114283	 -26.47407789
No	 -4.07293506	 20.36467530	 -24.43761036
No	 -4.07293506	 22.40114283	 -22.40114283
No	 -2.03646753	 20.36467530	 -22.40114283
No	 -2.03646753	 22.40114283	 -24.43761036
No	 -4.07293506	 20.36467530	 -20.36467530
No	 -4.07293506	 22.40114283	 -18.32820777
No	 -2.03646753	 20.36467530	 -18.32820777
No	 -2.03646753	 22.40114283	 -20.36467530
No	 -4.07293506	 20.36467530	 -16.29174024
No	 -4.07293506	 20.36467530	 16.29174024
No	 -4.07293506	 22.40114283	 18.32820777
No	 -2.03646753	 20.36467530	 18.32820777
No	 -4.07293506	 20.36467530	 20.36467530
No	 -4.07293506	 22.40114283	 22.40114283
No	 -2.03646753	 20.36467530	 22.40114283
No	 -2.03646753	 22.40114283	 20.36467530
No	 -4.07293506	 20.36467530	 24.43761036
No	 -4.07293506	 22.40114283	 26.47407789
No	 -2.03646753	 22.40114283	 24.43761036
No	 -4.07293506	 26.47407789	 -30.54701295
No	 -4.07293506	 24.43761036	 -28.51054542
No	 -4.07293506	 26.47407789	 -26.47407789
No	 -2.03646753	 24.43761036	 -26.47407789
No	 -2.03646753	 26.47407789	 -28.51054542
No	 -4.07293506	 24.43761036	 -24.43761036
No	 -4.07293506	 26.47407789	 -22.40114283
No	 -2.03646753	 24.43761036	 -22.40114283
No	 -2.03646753	 26.47407789	 -24.43761036
No	 -4.07293506	 24.43761036	 -20.36467530
No	 -4.07293506	 24.43761036	 20.36467530
No	 -4.07293506	 26.47407789	 22.40114283
No	 -2.03646753	 24.43761036	 22.40114283
No	 -4.07293506	 24.43761036	 24.43761036
No	 -4.07293506	 26.47407789	 26.47407789
No	 -2.03646753	 24.43761036	 26.47407789
No	 -2.03646753	 26.47407789	 24.43761036
No	 -4.07293506	 24.43761036	 28.51054542
No	 -4.07293506	 26.47407789	 30.54701295
No	 -2.03646753	 26.47407789	 28.51054542
No	 -4.07293506	 30.54701295	 -34.61994801
No	 -4.07293506	 28.51054542	 -32.58348048
No	 -4.07293506	 30.54701295	 -30.54701295
No	 -2.03646753	 28.51054542	 -30.54701295
No	 -2.03646753	 30.54701295	 -32.58348048
No	 -4.07293506	 28.51054542	 -28.51054542
No	 -4.07293506	 30.54701295	 -26.47407789
No	 -2.03646753	 28.51054542	 -26.47407789
No	 -2.03646753	 30.54701295	 -28.51054542
No	 -4.07293506	 28.51054542	 -24.43761036
No	 -4.07293506	 28.51054542	 24.43761036
No	 -4.07293506	 30.54701295	 26.47407789
No	 -2.03646753	 28.51054542	 26.47407789
No	 -4.07293506	 28.51054542	 28.51054542
No	 -4.07293506	 30.54701295	 30.54701295
No	 -2.03646753	 28.51054542	 30.54701295
No	 -2.03646753	 30.54701295	 28.51054542
No	 -4.07293506	 28.51054542	 32.58348048
No	 -4.07293506	 30.54701295	 34.61994801
No	 -2.03646753	 30.54701295	 32.58348048
Co	 -4.07293506	 32.58348048	 -40.72935060
No	 -4.07293506	 34.61994801	 -38.69288307
Co	 -2.03646753	 34.61994801	 -40.72935060
No	 -4.07293506	 32.58348048	 -36.65641554
No	 -4.07293506	 34.61994801	 -34.61994801
No	 -2.03646753	 32.58348048	 -34.61994801
No	 -2.03646753	 34.61994801	 -36.65641554
No	 -4.07293506	 32.58348048	 -32.58348048
No	 -4.07293506	 34.61994801	 -30.54701295
No	 -2.03646753	 32.58348048	 -30.54701295
No	 -2.03646753	 34.61994801	 -32.58348048
No	 -4.07293506	 32.58348048	 -28.51054542
No	 -4.07293506	 32.58348048	 28.51054542
No	 -4.07293506	 34.61994801	 30.54701295
No	 -2.03646753	 32.58348048	 30.54701295
No	 -4.07293506	 32.58348048	 32.58348048
No	 -4.07293506	 34.61994801	 34.61994801
No	 -2.03646753	 32.58348048	 34.61994801
No	 -2.03646753	 34.61994801	 32.58348048
No	 -4.07293506	 32.58348048	 36.65641554
No	 -4.07293506	 34.61994801	 38.69288307
No	 -2.03646753	 34.61994801	 36.65641554
Co	 -4.07293506	 36.65641554	 -40.72935060
No	 -4.07293506	 38.69288307	 -38.69288307
No	 -2.03646753	 36.65641554	 -38.69288307
Co	 -2.03646753	 38.69288307	 -40.72935060
No	 -4.07293506	 36.65641554	 -36.65641554
No	 -4.07293506	 38.69288307	 -34.61994801
No	 -2.03646753	 36.65641554	 -34.61994801
No	 -2.03646753	 38.69288307	 -36.65641554
No	 -4.07293506	 36.65641554	 -32.58348048
No	 -4.07293506	 36.65641554	 32.58348048
No	 -4.07293506	 38.69288307	 34.61994801
No	 -2.03646753	 36.65641554	 34.61994801
No	 -4.07293506	 36.65641554	 36.65641554
No	 -4.07293506	 38.69288307	 38.69288307
No	 -2.03646753	 36.65641554	 38.69288307
No	 -2.03646753	 38.69288307	 36.65641554
Co	 -0.00000000	 -40.72935060	 -40.72935060
No	 -0.00000000	 -38.69288307	 -38.69288307
Co	 2.03646753	 -40.72935060	 -38.69288307
Co	 2.03646753	 -38.69288307	 -40.72935060
Co	 -0.00000000	 -40.72935060	 -36.65641554
Co	 2.03646753	 -40.72935060	 -34.61994801
No	 2.03646753	 -38.69288307	 -36.65641554
Co	 2.03646753	 -40.72935060	 34.61994801
Co	 -0.00000000	 -40.72935060	 36.65641554
No	 -0.00000000	 -38.69288307	 38.69288307
Co	 2.03646753	 -40.72935060	 38.69288307
No	 2.03646753	 -38.69288307	 36.65641554
Co	 -0.00000000	 -36.65641554	 -40.72935060
No	 2.03646753	 -36.65641554	 -38.69288307
Co	 2.03646753	 -34.61994801	 -40.72935060
No	 -0.00000000	 -36.65641554	 -36.65641554
No	 -0.00000000	 -34.61994801	 -34.61994801
No	 2.03646753	 -36.65641554	 -34.61994801
No	 2.03646753	 -34.61994801	 -36.65641554
No	 2.03646753	 -34.61994801	 -32.58348048
No	 -0.00000000	 -34.61994801	 34.61994801
No	 2.03646753	 -36.65641554	 34.61994801
No	 2.03646753	 -34.61994801	 32.58348048
No	 -0.00000000	 -36.65641554	 36.65641554
No	 2.03646753	 -36.65641554	 38.69288307
No	 2.03646753	 -34.61994801	 36.65641554
No	 2.03646753	 -32.58348048	 -34.61994801
No	 -0.00000000	 -32.58348048	 -32.58348048
No	 -0.00000000	 -30.54701295	 -30.54701295
No	 2.03646753	 -32.58348048	 -30.54701295
No	 2.03646753	 -30.54701295	 -32.58348048
No	 2.03646753	 -30.54701295	 -28.51054542
No	 -0.00000000	 -30.54701295	 30.54701295
No	 2.03646753	 -32.58348048	 30.54701295
No	 2.03646753	 -30.54701295	 28.51054542
No	 -0.00000000	 -32.58348048	 32.58348048
No	 2.03646753	 -32.58348048	 34.61994801
No	 2.03646753	 -30.54701295	 32.58348048
No	 2.03646753	 -28.51054542	 -30.54701295
No	 -0.00000000	 -28.51054542	 -28.51054542
No	 -0.00000000	 -26.47407789	 -26.47407789
No	 2.03646753	 -28.51054542	 -26.47407789
No	 2.03646753	 -26.47407789	 -28.51054542
No	 2.03646753	 -26.47407789	 -24.43761036
No	 -0.00000000	 -26.47407789	 26.47407789
No	 2.03646753	 -28.51054542	 26.47407789
No	 2.03646753	 -26.47407789	 24.43761036
No	 -0.00000000	 -28.51054542	 28.51054542
No	 2.03646753	 -28.51054542	 30.54701295
No	 2.03646753	 -26.47407789	 28.51054542
No	 2.03646753	 -24.43761036	 -26.47407789
No	 -0.00000000	 -24.43761036	 -24.43761036
No	 -0.00000000	 -22.40114283	 -22.40114283
No	 2.03646753	 -24.43761036	 -22.40114283
No	 2.03646753	 -22.40114283	 -24.43761036
No	 2.03646753	 -22.40114283	 -20.36467530
No	 -0.00000000	 -22.40114283	 22.40114283
No	 2.03646753	 -24.43761036	 22.40114283
No	 2.03646753	 -22.40114283	 20.36467530
No	 -0.00000000	 -24.43761036	 24.43761036
No	 2.03646753	 -24.43761036	 26.47407789
No	 2.03646753	 -22.40114283	 24.43761036
No	 2.03646753	 -20.36467530	 -22.40114283
No	 -0.00000000	 -20.36467530	 -20.36467530
No	 -0.00000000	 -18.32820777	 -18.32820777
No	 2.03646753	 -20.36467530	 -18.32820777
No	 2.03646753	 -18.32820777	 -20.36467530
No	 2.03646753	 -18.32820777	 -16.29174024
No	 -0.00000000	 -18.32820777	 18.32820777
No	 2.03646753	 -20.36467530	 18.32820777
No	 2.03646753	 -18.32820777	 16.29174024
No	 -0.00000000	 -20.36467530	 20.36467530
No	 2.03646753	 -20.36467530	 22.40114283
No	 2.03646753	 -18.32820777	 20.36467530
No	 2.03646753	 -16.29174024	 -18.32820777
No	 -0.00000000	 -16.29174024	 -16.29174024
No	 -0.00000000	 -14.25527271	 -14.25527271
No	 2.03646753	 -16.29174024	 -14.25527271
No	 2.03646753	 -14.25527271	 -16.29174024
No	 2.03646753	 -14.25527271	 -12.21880518
No	 -0.00000000	 -14.25527271	 14.25527271
No	 2.03646753	 -16.29174024	 14.25527271
No	 2.03646753	 -14.25527271	 12.21880518
No	 -0.00000000	 -16.29174024	 16.29174024
No	 2.03646753	 -16.29174024	 18.32820777
No	 2.03646753	 -14.25527271	 16.29174024
No	 2.03646753	 -12.21880518	 -14.25527271
No	 -0.00000000	 -12.21880518	 -12.21880518
No	 -0.00000000	 -10.18233765	 -10.18233765
No	 2.03646753	 -12.21880518	 -10.18233765
No	 2.03646753	 -10.18233765	 -12.21880518
No	 2.03646753	 -10.18233765	 -8.14587012
No	 -0.00000000	 -10.18233765	 10.18233765
No	 2.03646753	 -12.21880518	 10.18233765
No	 2.03646753	 -10.18233765	 8.14587012
No	 -0.00000000	 -12.21880518	 12.21880518
No	 2.03646753	 -12.21880518	 14.25527271
No	 2.03646753	 -10.18233765	 12.21880518
No	 2.03646753	 -8.14587012	 -10.18233765
No	 -0.00000000	 -8.14587012	 -8.14587012
No	 -0.00000000	 -6.10940259	 -6.10940259
No	 2.03646753	 -8.14587012	 -6.10940259
No	 2.03646753	 -6.10940259	 -8.14587012
No	 2.03646753	 -6.10940259	 -4.07293506
No	 -0.00000000	 -6.10940259	 6.10940259
No	 2.03646753	 -8.14587012	 6.10940259
No	 2.03646753	 -6.10940259	 4.07293506
No	 -0.00000000	 -8.14587012	 8.14587012
No	 2.03646753	 -8.14587012	 10.18233765
No	 2.03646753	 -6.10940259	 8.14587012
No	 2.03646753	 -4.07293506	 -6.10940259
No	 -0.00000000	 -4.07293506	 -4.07293506
No	 -0.00000000	 -2.03646753	 -2.03646753
No	 2.03646753	 -4.07293506	 -2.03646753
No	 2.03646753	 -2.03646753	 -4.07293506
No	 -0.00000000	 -2.03646753	 2.03646753
No	 2.03646753	 -4.07293506	 2.03646753
No	 2.03646753	 -2.03646753	 -0.00000000
No	 -0.00000000	 -4.07293506	 4.07293506
No	 2.03646753	 -4.07293506	 6.10940259
No	 2.03646753	 -2.03646753	 4.07293506
No	 -0.00000000	 2.03646753	 -2.03646753
No	 2.03646753	 -0.00000000	 -2.03646753
No	 2.03646753	 2.03646753	 -4.07293506
No	 -0.00000000	 -0.00000000	 -0.00000000
No	 -0.00000000	 2.03646753	 2.03646753
No	 2.03646753	 -0.00000000	 2.03646753
No	 2.03646753	 2.03646753	 -0.00000000
No	 2.03646753	 2.03646753	 4.07293506
No	 -0.00000000	 6.10940259	 -6.10940259
No	 2.03646753	 4.07293506	 -6.10940259
No	 2.03646753	 6.10940259	 -8.14587012
No	 -0.00000000	 4.07293506	 -4.07293506
No	 2.03646753	 4.07293506	 -2.03646753
No	 2.03646753	 6.10940259	 -4.07293506
No	 2.03646753	 4.07293506	 2.03646753
No	 -0.00000000	 4.07293506	 4.07293506
No	 -0.00000000	 6.10940259	 6.10940259
No	 2.03646753	 4.07293506	 6.10940259
No	 2.03646753	 6.10940259	 4.07293506
No	 2.03646753	 6.10940259	 8.14587012
No	 -0.00000000	 10.18233765	 -10.18233765
No	 2.03646753	 8.14587012	 -10.18233765
No	 2.03646753	 10.18233765	 -12.21880518
No	 -0.00000000	 8.14587012	 -8.14587012
No	 2.03646753	 8.14587012	 -6.10940259
No	 2.03646753	 10.18233765	 -8.14587012
No	 2.03646753	 8.14587012	 6.10940259
No	 -0.00000000	 8.14587012	 8.14587012
No	 -0.00000000	 10.18233765	 10.18233765
No	 2.03646753	 8.14587012	 10.18233765
No	 2.03646753	 10.18233765	 8.14587012
No	 2.03646753	 10.18233765	 12.21880518
No	 -0.00000000	 14.25527271	 -14.25527271
No	 2.03646753	 12.21880518	 -14.25527271
No	 2.03646753	 14.25527271	 -16.29174024
No	 -0.00000000	 12.21880518	 -12.21880518
No	 2.03646753	 12.21880518	 -10.18233765
No	 2.03646753	 14.25527271	 -12.21880518
No	 2.03646753	 12.21880518	 10.18233765
No	 -0.00000000	 12.21880518	 12.21880518
No	 -0.00000000	 14.25527271	 14.25527271
No	 2.03646753	 12.21880518	 14.25527271
No	 2.03646753	 14.25527271	 12.21880518
No	 2.03646753	 14.25527271	 16.29174024
No	 -0.00000000	 18.32820777	 -18.32820777
No	 2.03646753	 16.29174024	 -18.32820777
No	 2.03646753	 18.32820777	 -20.36467530
No	 -0.00000000	 16.29174024	 -16.29174024
No	 2.03646753	 16.29174024	 -14.25527271
No	 2.03646753	 18.32820777	 -16.29174024
No	 2.03646753	 16.29174024	 14.25527271
No	 -0.00000000	 16.29174024	 16.29174024
No	 -0.00000000	 18.32820777	 18.32820777
No	 2.03646753	 16.29174024	 18.32820777
No	 2.03646753	 18.32820777	 16.29174024
No	 2.03646753	 18.32820777	 20.36467530
No	 -0.00000000	 22.40114283	 -22.40114283
No	 2.03646753	 20.36467530	 -22.40114283
No	 2.03646753	 22.40114283	 -24.43761036
No	 -0.00000000	 20.36467530	 -20.36467530
No	 2.03646753	 20.36467530	 -18.32820777
No	 2.03646753	 22.40114283	 -20.36467530
No	 2.03646753	 20.36467530	 18.32820777
No	 -0.00000000	 20.36467530	 20.36467530
No	 -0.00000000	 22.40114283	 22.40114283
No	 2.03646753	 20.36467530	 22.40114283
No	 2.03646753	 22.40114283	 20.36467530
No	 2.03646753	 22.40114283	 24.43761036
No	 -0.00000000	 26.47407789	 -26.47407789
No	 2.03646753	 24.43761036	 -26.47407789
No	 2.03646753	 26.47407789	 -28.51054542
No	 -0.00000000	 24.43761036	 -24.43761036
No	 2.03646753	 24.43761036	 -22.40114283
No	 2.03646753	 26.47407789	 -24.43761036
No	 2.03646753	 24.43761036	 22.40114283
No	 -0.00000000	 24.43761036	 24.43761036
No	 -0.00000000	 26.47407789	 26.47407789
No	 2.03646753	 24.43761036	 26.47407789
No	 2.03646753	 26.47407789	 24.43761036
No	 2.03646753	 26.47407789	 28.51054542
No	 -0.00000000	 30.54701295	 -30.54701295
No	 2.03646753	 28.51054542	 -30.54701295
No	 2.03646753	 30.54701295	 -32.58348048
No	 -0.00000000	 28.51054542	 -28.51054542
No	 2.03646753	 28.51054542	 -26.47407789
No	 2.03646753	 30.54701295	 -28.51054542
No	 2.03646753	 28.51054542	 26.47407789
No	 -0.00000000	 28.51054542	 28.51054542
No	 -0.00000000	 30.54701295	 30.54701295
No	 2.03646753	 28.51054542	 30.54701295
No	 2.03646753	 30.54701295	 28.51054542
No	 2.03646753	 30.54701295	 32.58348048
Co	 2.03646753	 34.61994801	 -40.72935060
No	 -0.00000000	 34.61994801	 -34.61994801
No	 2.03646753	 32.58348048	 -34.61994801
No	 2.03646753	 34.61994801	 -36.65641554
No	 -0.00000000	 32.58348048	 -32.58348048
No	 2.03646753	 32.58348048	 -30.54701295
No	 2.03646753	 34.61994801	 -32.58348048
No	 2.03646753	 32.58348048	 30.54701295
No	 -0.00000000	 32.58348048	 32.58348048
No	 -0.00000000	 34.61994801	 34.61994801
No	 2.03646753	 32.58348048	 34.61994801
No	 2.03646753	 34.61994801	 32.58348048
No	 2.03646753	 34.61994801	 36.65641554
Co	 -0.00000000	 36.65641554	 -40.72935060
No	 -0.00000000	 38.69288307	 -38.69288307
No	 2.03646753	 36.65641554	 -38.69288307
Co	 2.03646753	 38.69288307	 -40.72935060
No	 -0.00000000	 36.65641554	 -36.65641554
No	 2.03646753	 36.65641554	 -34.61994801
No	 2.03646753	 38.69288307	 -36.65641554
No	 2.03646753	 36.65641554	 34.61994801
No	 -0.00000000	 36.65641554	 36.65641554
No	 -0.00000000	 38.69288307	 38.69288307
No	 2.03646753	 36.65641554	 38.69288307
No	 2.03646753	 38.69288307	 36.65641554
Co	 4.07293506	 -40.72935060	 -40.72935060
No	 4.07293506	 -38.69288307	 -38.69288307
Co	 6.10940259	 -40.72935060	 -38.69288307
Co	 6.10940259	 -38.69288307	 -40.72935060
Co	 4.07293506	 -40.72935060	 -36.65641554
No	 4.07293506	 -38.69288307	 -34.61994801
Co	 6.10940259	 -40.72935060	 -34.61994801
No	 6.10940259	 -38.69288307	 -36.65641554
Co	 4.07293506	 -40.72935060	 -32.58348048
Co	 6.10940259	 -40.72935060	 -30.54701295
No	 6.10940259	 -38.69288307	 -32.58348048
Co	 6.10940259	 -40.72935060	 30.54701295
Co	 4.07293506	 -40.72935060	 32.58348048
No	 4.07293506	 -38.69288307	 34.61994801
Co	 6.10940259	 -40.72935060	 34.61994801
No	 6.10940259	 -38.69288307	 32.58348048
Co	 4.07293506	 -40.72935060	 36.65641554
No	 4.07293506	 -38.69288307	 38.69288307
Co	 6.10940259	 -40.72935060	 38.69288307
No	 6.10940259	 -38.69288307	 36.65641554
Co	 4.07293506	 -36.65641554	 -40.72935060
No	 4.07293506	 -34.61994801	 -38.69288307
No	 6.10940259	 -36.65641554	 -38.69288307
Co	 6.10940259	 -34.61994801	 -40.72935060
No	 4.07293506	 -36.65641554	 -36.65641554
No	 4.07293506	 -34.61994801	 -34.61994801
No	 6.10940259	 -36.65641554	 -34.61994801
No	 6.10940259	 -34.61994801	 -36.65641554
No	 4.07293506	 -36.65641554	 -32.58348048
No	 4.07293506	 -34.61994801	 -30.54701295
No	 6.10940259	 -36.65641554	 -30.54701295
No	 6.10940259	 -34.61994801	 -32.58348048
No	 6.10940259	 -34.61994801	 -28.51054542
No	 4.07293506	 -34.61994801	 30.54701295
No	 6.10940259	 -36.65641554	 30.54701295
No	 6.10940259	 -34.61994801	 28.51054542
No	 4.07293506	 -36.65641554	 32.58348048
No	 4.07293506	 -34.61994801	 34.61994801
No	 6.10940259	 -36.65641554	 34.61994801
No	 6.10940259	 -34.61994801	 32.58348048
No	 4.07293506	 -36.65641554	 36.65641554
No	 4.07293506	 -34.61994801	 38.69288307
No	 6.10940259	 -36.65641554	 38.69288307
No	 6.10940259	 -34.61994801	 36.65641554
Co	 4.07293506	 -32.58348048	 -40.72935060
No	 6.10940259	 -32.58348048	 -38.69288307
Co	 6.10940259	 -30.54701295	 -40.72935060
No	 4.07293506	 -32.58348048	 -36.65641554
No	 4.07293506	 -30.54701295	 -34.61994801
No	 6.10940259	 -32.58348048	 -34.61994801
No	 6.10940259	 -30.54701295	 -36.65641554
No	 4.07293506	 -32.58348048	 -32.58348048
No	 4.07293506	 -30.54701295	 -30.54701295
No	 6.10940259	 -32.58348048	 -30.54701295
No	 6.10940259	 -30.54701295	 -32.58348048
No	 4.07293506	 -32.58348048	 -28.51054542
No	 4.07293506	 -30.54701295	 -26.47407789
No	 6.10940259	 -32.58348048	 -26.47407789
No	 6.10940259	 -30.54701295	 -28.51054542
No	 6.10940259	 -30.54701295	 -24.43761036
No	 4.07293506	 -30.54701295	 26.47407789
No	 6.10940259	 -32.58348048	 26.47407789
No	 6.10940259	 -30.54701295	 24.43761036
No	 4.07293506	 -32.58348048	 28.51054542
No	 4.07293506	 -30.54701295	 30.54701295
No	 6.10940259	 -32.58348048	 30.54701295
No	 6.10940259	 -30.54701295	 28.51054542
No	 4.07293506	 -32.58348048	 32.58348048
No	 4.07293506	 -30.54701295	 34.61994801
No	 6.10940259	 -32.58348048	 34.61994801
No	 6.10940259	 -30.54701295	 32.58348048
No	 4.07293506	 -32.58348048	 36.65641554
No	 6.10940259	 -32.58348048	 38.69288307
No	 6.10940259	 -30.54701295	 36.65641554
No	 6.10940259	 -28.51054542	 -34.61994801
No	 4.07293506	 -28.51054542	 -32.58348048
No	 4.07293506	 -26.47407789	 -30.54701295
No	 6.10940259	 -28.51054542	 -30.54701295
No	 6.10940259	 -26.47407789	 -32.58348048
No	 4.07293506	 -28.51054542	 -28.51054542
No	 4.07293506	 -26.47407789	 -26.47407789
No	 6.10940259	 -28.51054542	 -26.47407789
No	 6.10940259	 -26.47407789	 -28.51054542
No	 4.07293506	 -28.51054542	 -24.43761036
No	 4.07293506	 -26.47407789	 -22.40114283
No	 6.10940259	 -28.51054542	 -22.40114283
No	 6.10940259	 -26.47407789	 -24.43761036
No	 6.10940259	 -26.47407789	 -20.36467530
No	 4.07293506	 -26.47407789	 22.40114283
No	 6.10940259	 -28.51054542	 22.40114283
No	 6.10940259	 -26.47407789	 20.36467530
No	 4.07293506	 -28.51054542	 24.43761036
No	 4.07293506	 -26.47407789	 26.47407789
No	 6.10940259	 -28.51054542	 26.47407789
No	 6.10940259	 -26.47407789	 24.43761036
No	 4.07293506	 -28.51054542	 28.51054542
No	 4.07293506	 -26.47407789	 30.54701295
No	 6.10940259	 -28.51054542	 30.54701295
No	 6.10940259	 -26.47407789	 28.51054542
No	 4.07293506	 -28.51054542	 32.58348048
No	 6.10940259	 -28.51054542	 34.61994801
No	 6.10940259	 -26.47407789	 32.58348048
No	 6.10940259	 -24.43761036	 -30.54701295
No	 4.07293506	 -24.43761036	 -28.51054542
No	 4.07293506	 -22.40114283	 -26.47407789
No	 6.10940259	 -24.43761036	 -26.47407789
No	 6.10940259	 -22.40114283	 -28.51054542
No	 4.07293506	 -24.43761036	 -24.43761036
No	 4.07293506	 -22.40114283	 -22.40114283
No	 6.10940259	 -24.43761036	 -22.40114283
No	 6.10940259	 -22.40114283	 -24.43761036
No	 4.07293506	 -24.43761036	 -20.36467530
No	 4.07293506	 -22.40114283	 -18.32820777
No	 6.10940259	 -24.43761036	 -18.32820777
No	 6.10940259	 -22.40114283	 -20.36467530
No	 6.10940259	 -22.40114283	 -16.29174024
No	 4.07293506	 -22.40114283	 18.32820777
No	 6.10940259	 -24.43761036	 18.32820777
No	 6.10940259	 -22.40114283	 16.29174024
No	 4.07293506	 -24.43761036	 20.36467530
No	 4.07293506	 -22.40114283	 22.40114283
No	 6.10940259	 -24.43761036	 22.40114283
No	 6.10940259	 -22.40114283	 20.36467530
No	 4.07293506	 -24.43761036	 24.43761036
No	 4.07293506	 -22.40114283	 26.47407789
No	 6.10940259	 -24.43761036	 26.47407789
No	 6.10940259	 -22.40114283	 24.43761036
No	 4.07293506	 -24.43761036	 28.51054542
No	 6.10940259	 -24.43761036	 30.54701295
No	 6.10940259	 -22.40114283	 28.51054542
No	 6.10940259	 -20.36467530	 -26.47407789
No	 4.07293506	 -20.36467530	 -24.43761036
No	 4.07293506	 -18.32820777	 -22.40114283
No	 6.10940259	 -20.36467530	 -22.40114283
No	 6.10940259	 -18.32820777	 -24.43761036
No	 4.07293506	 -20.36467530	 -20.36467530
No	 4.07293506	 -18.32820777	 -18.32820777
No	 6.10940259	 -20.36467530	 -18.32820777
No	 6.10940259	 -18.32820777	 -20.36467530
No	 4.07293506	 -20.36467530	 -16.29174024
No	 4.07293506	 -18.32820777	 -14.25527271
No	 6.10940259	 -20.36467530	 -14.25527271
No	 6.10940259	 -18.32820777	 -16.29174024
No	 6.10940259	 -18.32820777	 -12.21880518
No	 4.07293506	 -18.32820777	 14.25527271
No	 6.10940259	 -20.36467530	 14.25527271
No	 6.10940259	 -18.32820777	 12.21880518
No	 4.07293506	 -20.36467530	 16.29174024
No	 4.07293506	 -18.32820777	 18.32820777
No	 6.10940259	 -20.36467530	 18.32820777
No	 6.10940259	 -18.32820777	 16.29174024
No	 4.07293506	 -20.36467530	 20.36467530
No	 4.07293506	 -18.32820777	 22.40114283
No	 6.10940259	 -20.36467530	 22.40114283
No	 6.10940259	 -18.32820777	 20.36467530
No	 4.07293506	 -20.36467530	 24.43761036
No	 6.10940259	 -20.36467530	 26.47407789
No	 6.10940259	 -18.32820777	 24.43761036
No	 6.10940259	 -16.29174024	 -22.40114283
No	 4.07293506	 -16.29174024	 -20.36467530
No	 4.07293506	 -14.25527271	 -18.32820777
No	 6.10940259	 -16.29174024	 -18.32820777
No	 6.10940259	 -14.25527271	 -20.36467530
No	 4.07293506	 -16.29174024	 -16.29174024
No	 4.07293506	 -14.25527271	 -14.25527271
No	 6.10940259	 -16.29174024	 -14.25527271
No	 6.10940259	 -14.25527271	 -16.29174024
No	 4.07293506	 -16.29174024	 -12.21880518
No	 4.07293506	 -14.25527271	 -10.18233765
No	 6.10940259	 -16.29174024	 -10.18233765
No	 6.10940259	 -14.25527271	 -12.21880518
No	 6.10940259	 -14.25527271	 -8.14587012
No	 4.07293506	 -14.25527271	 10.18233765
No	 6.10940259	 -16.29174024	 10.18233765
No	 6.10940259	 -14.25527271	 8.14587012
No	 4.07293506	 -16.29174024	 12.21880518
No	 4.07293506	 -14.25527271	 14.25527271
No	 6.10940259	 -16.29174024	 14.25527271
No	 6.10940259	 -14.25527271	 12.21880518
No	 4.07293506	 -16.29174024	 16.29174024
No	 4.07293506	 -14.25527271	 18.32820777
No	 6.10940259	 -16.29174024	 18.32820777
No	 6.10940259	 -14.25527271	 16.29174024
No	 4.07293506	 -16.29174024	 20.36467530
No	 6.10940259	 -16.29174024	 22.40114283
No	 6.10940259	 -14.25527271	 20.36467530
No	 6.10940259	 -12.21880518	 -18.32820777
No	 4.07293506	 -12.21880518	 -16.29174024
No	 4.07293506	 -10.18233765	 -14.25527271
No	 6.10940259	 -12.21880518	 -14.25527271
No	 6.10940259	 -10.18233765	 -16.29174024
No	 4.07293506	 -12.21880518	 -12.21880518
No	 4.07293506	 -10.18233765	 -10.18233765
No	 6.10940259	 -12.21880518	 -10.18233765
No	 6.10940259	 -10.18233765	 -12.21880518
No	 4.07293506	 -12.21880518	 -8.14587012
No	 4.07293506	 -10.18233765	 -6.10940259
No	 6.10940259	 -12.21880518	 -6.10940259
No	 6.10940259	 -10.18233765	 -8.14587012
No	 6.10940259	 -10.18233765	 -4.07293506
No	 4.07293506	 -10.18233765	 6.10940259
No	 6.10940259	 -12.21880518	 6.10940259
No	 6.10940259	 -10.18233765	 4.07293506
No	 4.07293506	 -12.21880518	 8.14587012
No	 4.07293506	 -10.18233765	 10.18233765
No	 6.10940259	 -12.21880518	 10.18233765
No	 6.10940259	 -10.18233765	 8.14587012
No	 4.07293506	 -12.21880518	 12.21880518
No	 4.07293506	 -10.18233765	 14.25527271
No	 6.10940259	 -12.21880518	 14.25527271
No	 6.10940259	 -10.18233765	 12.21880518
No	 4.07293506	 -12.21880518	 16.29174024
No	 6.10940259	 -12.21880518	 18.32820777
No	 6.10940259	 -10.18233765	 16.29174024
No	 6.10940259	 -8.14587012	 -14.25527271
No	 4.07293506	 -8.14587012	 -12.21880518
No	 4.07293506	 -6.10940259	 -10.18233765
No	 6.10940259	 -8.14587012	 -10.18233765
No	 6.10940259	 -6.10940259	 -12.21880518
No	 4.07293506	 -8.14587012	 -8.14587012
No	 4.07293506	 -6.10940259	 -6.10940259
No	 6.10940259	 -8.14587012	 -6.10940259
No	 6.10940259	 -6.10940259	 -8.14587012
No	 4.07293506	 -8.14587012	 -4.07293506
No	 4.07293506	 -6.10940259	 -2.03646753
No	 6.10940259	 -8.14587012	 -2.03646753
No	 6.10940259	 -6.10940259	 -4.07293506
No	 4.07293506	 -6.10940259	 2.03646753
No	 6.10940259	 -8.14587012	 2.03646753
No	 6.10940259	 -6.10940259	 -0.00000000
No	 4.07293506	 -8.14587012	 4.07293506
No	 4.07293506	 -6.10940259	 6.10940259
No	 6.10940259	 -8.14587012	 6.10940259
No	 6.10940259	 -6.10940259	 4.07293506
No	 4.07293506	 -8.14587012	 8.14587012
No	 4.07293506	 -6.10940259	 10.18233765
No	 6.10940259	 -8.14587012	 10.18233765
No	 6.10940259	 -6.10940259	 8.14587012
No	 4.07293506	 -8.14587012	 12.21880518
No	 6.10940259	 -8.14587012	 14.25527271
No	 6.10940259	 -6.10940259	 12.21880518
No	 6.10940259	 -4.07293506	 -10.18233765
No	 4.07293506	 -4.07293506	 -8.14587012
No	 4.07293506	 -2.03646753	 -6.10940259
No	 6.10940259	 -4.07293506	 -6.10940259
No	 6.10940259	 -2.03646753	 -8.14587012
No	 4.07293506	 -4.07293506	 -4.07293506
No	 4.07293506	 -2.03646753	 -2.03646753
No	 6.10940259	 -4.07293506	 -2.03646753
No	 6.10940259	 -2.03646753	 -4.07293506
No	 4.07293506	 -4.07293506	 -0.00000000
No	 4.07293506	 -2.03646753	 2.03646753
No	 6.10940259	 -4.07293506	 2.03646753
No	 4.07293506	 -4.07293506	 4.07293506
No	 4.07293506	 -2.03646753	 6.10940259
No	 6.10940259	 -4.07293506	 6.10940259
No	 6.10940259	 -2.03646753	 4.07293506
No	 4.07293506	 -4.07293506	 8.14587012
No	 6.10940259	 -4.07293506	 10.18233765
No	 6.10940259	 -2.03646753	 8.14587012
No	 4.07293506	 2.03646753	 -6.10940259
No	 6.10940259	 -0.00000000	 -6.10940259
No	 6.10940259	 2.03646753	 -8.14587012
No	 4.07293506	 -0.00000000	 -4.07293506
No	 4.07293506	 2.03646753	 -2.03646753
No	 6.10940259	 2.03646753	 -4.07293506
No	 4.07293506	 2.03646753	 2.03646753
No	 4.07293506	 -0.00000000	 4.07293506
No	 4.07293506	 2.03646753	 6.10940259
No	 6.10940259	 -0.00000000	 6.10940259
No	 6.10940259	 2.03646753	 4.07293506
No	 6.10940259	 2.03646753	 8.14587012
No	 4.07293506	 6.10940259	 -10.18233765
No	 6.10940259	 4.07293506	 -10.18233765
No	 6.10940259	 6.10940259	 -12.21880518
No	 4.07293506	 4.07293506	 -8.14587012
No	 4.07293506	 6.10940259	 -6.10940259
No	 6.10940259	 4.07293506	 -6.10940259
No	 6.10940259	 6.10940259	 -8.14587012
No	 4.07293506	 4.07293506	 -4.07293506
No	 4.07293506	 6.10940259	 -2.03646753
No	 6.10940259	 4.07293506	 -2.03646753
No	 6.10940259	 6.10940259	 -4.07293506
No	 4.07293506	 4.07293506	 -0.00000000
No	 4.07293506	 6.10940259	 2.03646753
No	 6.10940259	 4.07293506	 2.03646753
No	 6.10940259	 6.10940259	 -0.00000000
No	 4.07293506	 4.07293506	 4.07293506
No	 4.07293506	 6.10940259	 6.10940259
No	 6.10940259	 4.07293506	 6.10940259
No	 6.10940259	 6.10940259	 4.07293506
No	 4.07293506	 4.07293506	 8.14587012
No	 4.07293506	 6.10940259	 10.18233765
No	 6.10940259	 4.07293506	 10.18233765
No	 6.10940259	 6.10940259	 8.14587012
No	 6.10940259	 6.10940259	 12.21880518
No	 4.07293506	 10.18233765	 -14.25527271
No	 6.10940259	 8.14587012	 -14.25527271
No	 6.10940259	 10.18233765	 -16.29174024
No	 4.07293506	 8.14587012	 -12.21880518
No	 4.07293506	 10.18233765	 -10.18233765
No	 6.10940259	 8.14587012	 -10.18233765
No	 6.10940259	 10.18233765	 -12.21880518
No	 4.07293506	 8.14587012	 -8.14587012
No	 4.07293506	 10.18233765	 -6.10940259
No	 6.10940259	 8.14587012	 -6.10940259
No	 6.10940259	 10.18233765	 -8.14587012
No	 4.07293506	 8.14587012	 -4.07293506
No	 6.10940259	 8.14587012	 -2.03646753
No	 6.10940259	 10.18233765	 -4.07293506
No	 6.10940259	 8.14587012	 2.03646753
No	 4.07293506	 8.14587012	 4.07293506
No	 4.07293506	 10.18233765	 6.10940259
No	 6.10940259	 8.14587012	 6.10940259
No	 6.10940259	 10.18233765	 4.07293506
No	 4.07293506	 8.14587012	 8.14587012
No	 4.07293506	 10.18233765	 10.18233765
No	 6.10940259	 8.14587012	 10.18233765
No	 6.10940259	 10.18233765	 8.14587012
No	 4.07293506	 8.14587012	 12.21880518
No	 4.07293506	 10.18233765	 14.25527271
No	 6.10940259	 8.14587012	 14.25527271
No	 6.10940259	 10.18233765	 12.21880518
No	 6.10940259	 10.18233765	 16.29174024
No	 4.07293506	 14.25527271	 -18.32820777
No	 6.10940259	 12.21880518	 -18.32820777
No	 6.10940259	 14.25527271	 -20.36467530
No	 4.07293506	 12.21880518	 -16.29174024
No	 4.07293506	 14.25527271	 -14.25527271
No	 6.10940259	 12.21880518	 -14.25527271
No	 6.10940259	 14.25527271	 -16.29174024
No	 4.07293506	 12.21880518	 -12.21880518
No	 4.07293506	 14.25527271	 -10.18233765
No	 6.10940259	 12.21880518	 -10.18233765
No	 6.10940259	 14.25527271	 -12.21880518
No	 4.07293506	 12.21880518	 -8.14587012
No	 6.10940259	 12.21880518	 -6.10940259
No	 6.10940259	 14.25527271	 -8.14587012
No	 6.10940259	 12.21880518	 6.10940259
No	 4.07293506	 12.21880518	 8.14587012
No	 4.07293506	 14.25527271	 10.18233765
No	 6.10940259	 12.21880518	 10.18233765
No	 6.10940259	 14.25527271	 8.14587012
No	 4.07293506	 12.21880518	 12.21880518
No	 4.07293506	 14.25527271	 14.25527271
No	 6.10940259	 12.21880518	 14.25527271
No	 6.10940259	 14.25527271	 12.21880518
No	 4.07293506	 12.21880518	 16.29174024
No	 4.07293506	 14.25527271	 18.32820777
No	 6.10940259	 12.21880518	 18.32820777
No	 6.10940259	 14.25527271	 16.29174024
No	 6.10940259	 14.25527271	 20.36467530
No	 4.07293506	 18.32820777	 -22.40114283
No	 6.10940259	 16.29174024	 -22.40114283
No	 6.10940259	 18.32820777	 -24.43761036
No	 4.07293506	 16.29174024	 -20.36467530
No	 4.07293506	 18.32820777	 -18.32820777
No	 6.10940259	 16.29174024	 -18.32820777
No	 6.10940259	 18.32820777	 -20.36467530
No	 4.07293506	 16.29174024	 -16.29174024
No	 4.07293506	 18.32820777	 -14.25527271
No	 6.10940259	 16.29174024	 -14.25527271
No	 6.10940259	 18.32820777	 -16.29174024
No	 4.07293506	 16.29174024	 -12.21880518
No	 6.10940259	 16.29174024	 -10.18233765
No	 6.10940259	 18.32820777	 -12.21880518
No	 6.10940259	 16.29174024	 10.18233765
No	 4.07293506	 16.29174024	 12.21880518
No	 4.07293506	 18.32820777	 14.25527271
No	 6.10940259	 16.29174024	 14.25527271
No	 6.10940259	 18.32820777	 12.21880518
No	 4.07293506	 16.29174024	 16.29174024
No	 4.07293506	 18.32820777	 18.32820777
No	 6.10940259	 16.29174024	 18.32820777
No	 6.10940259	 18.32820777	 16.29174024
No	 4.07293506	 16.29174024	 20.36467530
No	 4.07293506	 18.32820777	 22.40114283
No	 6.10940259	 16.29174024	 22.40114283
No	 6.10940259	 18.32820777	 20.36467530
No	 6.10940259	 18.32820777	 24.43761036
No	 4.07293506	 22.40114283	 -26.47407789
No	 6.10940259	 20.36467530	 -26.47407789
No	 6.10940259	 22.40114283	 -28.51054542
No	 4.07293506	 20.36467530	 -24.43761036
No	 4.07293506	 22.40114283	 -22.40114283
No	 6.10940259	 20.36467530	 -22.40114283
No	 6.10940259	 22.40114283	 -24.43761036
No	 4.07293506	 20.36467530	 -20.36467530
No	 4.07293506	 22.40114283	 -18.32820777
No	 6.10940259	 20.36467530	 -18.32820777
No	 6.10940259	 22.40114283	 -20.36467530
No	 4.07293506	 20.36467530	 -16.29174024
No	 6.10940259	 20.36467530	 -14.25527271
No	 6.10940259	 22.40114283	 -16.29174024
No	 6.10940259	 20.36467530	 14.25527271
No	 4.07293506	 20.36467530	 16.29174024
No	 4.07293506	 22.40114283	 18.32820777
No	 6.10940259	 20.36467530	 18.32820777
No	 6.10940259	 22.40114283	 16.29174024
No	 4.07293506	 20.36467530	 20.36467530
No	 4.07293506	 22.40114283	 22.40114283
No	 6.10940259	 20.36467530	 22.40114283
No	 6.10940259	 22.40114283	 20.36467530
No	 4.07293506	 20.36467530	 24.43761036
No	 4.07293506	 22.40114283	 26.47407789
No	 6.10940259	 20.36467530	 26.47407789
No	 6.10940259	 22.40114283	 24.43761036
No	 6.10940259	 22.40114283	 28.51054542
No	 4.07293506	 26.47407789	 -30.54701295
No	 6.10940259	 24.43761036	 -30.54701295
No	 6.10940259	 26.47407789	 -32.58348048
No	 4.07293506	 24.43761036	 -28.51054542
No	 4.07293506	 26.47407789	 -26.47407789
No	 6.10940259	 24.43761036	 -26.47407789
No	 6.10940259	 26.47407789	 -28.51054542
No	 4.07293506	 24.43761036	 -24.43761036
No	 4.07293506	 26.47407789	 -22.40114283
No	 6.10940259	 24.43761036	 -22.40114283
No	 6.10940259	 26.47407789	 -24.43761036
No	 4.07293506	 24.43761036	 -20.36467530
No	 6.10940259	 24.43761036	 -18.32820777
No	 6.10940259	 26.47407789	 -20.36467530
No	 6.10940259	 24.43761036	 18.32820777
No	 4.07293506	 24.43761036	 20.36467530
No	 4.07293506	 26.47407789	 22.40114283
No	 6.10940259	 24.43761036	 22.40114283
No	 6.10940259	 26.47407789	 20.36467530
No	 4.07293506	 24.43761036	 24.43761036
No	 4.07293506	 26.47407789	 26.47407789
No	 6.10940259	 24.43761036	 26.47407789
No	 6.10940259	 26.47407789	 24.43761036
No	 4.07293506	 24.43761036	 28.51054542
No	 4.07293506	 26.47407789	 30.54701295
No	 6.10940259	 24.43761036	 30.54701295
No	 6.10940259	 26.47407789	 28.51054542
No	 6.10940259	 26.47407789	 32.58348048
Co	 6.10940259	 30.54701295	 -40.72935060
No	 4.07293506	 30.54701295	 -34.61994801
No	 6.10940259	 28.51054542	 -34.61994801
No	 6.10940259	 30.54701295	 -36.65641554
No	 4.07293506	 28.51054542	 -32.58348048
No	 4.07293506	 30.54701295	 -30.54701295
No	 6.10940259	 28.51054542	 -30.54701295
No	 6.10940259	 30.54701295	 -32.58348048
No	 4.07293506	 28.51054542	 -28.51054542
No	 4.07293506	 30.54701295	 -26.47407789
No	 6.10940259	 28.51054542	 -26.47407789
No	 6.10940259	 30.54701295	 -28.51054542
No	 4.07293506	 28.51054542	 -24.43761036
No	 6.10940259	 28.51054542	 -22.40114283
No	 6.10940259	 30.54701295	 -24.43761036
No	 6.10940259	 28.51054542	 22.40114283
No	 4.07293506	 28.51054542	 24.43761036
No	 4.07293506	 30.54701295	 26.47407789
No	 6.10940259	 28.51054542	 26.47407789
No	 6.10940259	 30.54701295	 24.43761036
No	 4.07293506	 28.51054542	 28.51054542
No	 4.07293506	 30.54701295	 30.54701295
No	 6.10940259	 28.51054542	 30.54701295
No	 6.10940259	 30.54701295	 28.51054542
No	 4.07293506	 28.51054542	 32.58348048
No	 4.07293506	 30.54701295	 34.61994801
No	 6.10940259	 28.51054542	 34.61994801
No	 6.10940259	 30.54701295	 32.58348048
No	 6.10940259	 30.54701295	 36.65641554
Co	 4.07293506	 32.58348048	 -40.72935060
No	 4.07293506	 34.61994801	 -38.69288307
No	 6.10940259	 32.58348048	 -38.69288307
Co	 6.10940259	 34.61994801	 -40.72935060
No	 4.07293506	 32.58348048	 -36.65641554
No	 4.07293506	 34.61994801	 -34.61994801
No	 6.10940259	 32.58348048	 -34.61994801
No	 6.10940259	 34.61994801	 -36.65641554
No	 4.07293506	 32.58348048	 -32.58348048
No	 4.07293506	 34.61994801	 -30.54701295
No	 6.10940259	 32.58348048	 -30.54701295
No	 6.10940259	 34.61994801	 -32.58348048
No	 4.07293506	 32.58348048	 -28.51054542
No	 6.10940259	 32.58348048	 -26.47407789
No	 6.10940259	 34.61994801	 -28.51054542
No	 6.10940259	 32.58348048	 26.47407789
No	 4.07293506	 32.58348048	 28.51054542
No	 4.07293506	 34.61994801	 30.54701295
No	 6.10940259	 32.58348048	 30.54701295
No	 6.10940259	 34.61994801	 28.51054542
No	 4.07293506	 32.58348048	 32.58348048
No	 4.07293506	 34.61994801	 34.61994801
No	 6.10940259	 32.58348048	 34.61994801
No	 6.10940259	 34.61994801	 32.58348048
No	 4.07293506	 32.58348048	 36.65641554
No	 4.07293506	 34.61994801	 38.69288307
No	 6.10940259	 32.58348048	 38.69288307
No	 6.10940259	 34.61994801	 36.65641554
Co	 4.07293506	 36.65641554	 -40.72935060
No	 4.07293506	 38.69288307	 -38.69288307
No	 6.10940259	 36.65641554	 -38.69288307
Co	 6.10940259	 38.69288307	 -40.72935060
No	 4.07293506	 36.65641554	 -36.65641554
No	 4.07293506	 38.69288307	 -34.61994801
No	 6.10940259	 36.65641554	 -34.61994801
No	 6.10940259	 38.69288307	 -36.65641554
No	 4.07293506	 36.65641554	 -32.58348048
No	 6.10940259	 36.65641554	 -30.54701295
No	 6.10940259	 38.69288307	 -32.58348048
No	 6.10940259	 36.65641554	 30.54701295
No	 4.07293506	 36.65641554	 32.58348048
No	 4.07293506	 38.69288307	 34.61994801
No	 6.10940259	 36.65641554	 34.61994801
No	 6.10940259	 38.69288307	 32.58348048
No	 4.07293506	 36.65641554	 36.65641554
No	 4.07293506	 38.69288307	 38.69288307
No	 6.10940259	 36.65641554	 38.69288307
No	 6.10940259	 38.69288307	 36.65641554
Co	 8.14587012	 -40.72935060	 -40.72935060
No	 8.14587012	 -38.69288307	 -38.69288307
Co	 10.18233765	 -40.72935060	 -38.69288307
Co	 10.18233765	 -38.69288307	 -40.72935060
Co	 8.14587012	 -40.72935060	 -36.65641554
No	 8.14587012	 -38.69288307	 -34.61994801
Co	 10.18233765	 -40.72935060	 -34.61994801
No	 10.18233765	 -38.69288307	 -36.65641554
Co	 8.14587012	 -40.72935060	 -32.58348048
No	 8.14587012	 -38.69288307	 -30.54701295
Co	 10.18233765	 -40.72935060	 -30.54701295
No	 10.18233765	 -38.69288307	 -32.58348048
Co	 8.14587012	 -40.72935060	 -28.51054542
Co	 10.18233765	 -40.72935060	 -26.47407789
No	 10.18233765	 -38.69288307	 -28.51054542
Co	 10.18233765	 -40.72935060	 26.47407789
Co	 8.14587012	 -40.72935060	 28.51054542
No	 8.14587012	 -38.69288307	 30.54701295
Co	 10.18233765	 -40.72935060	 30.54701295
No	 10.18233765	 -38.69288307	 28.51054542
Co	 8.14587012	 -40.72935060	 32.58348048
No	 8.14587012	 -38.69288307	 34.61994801
Co	 10.18233765	 -40.72935060	 34.61994801
No	 10.18233765	 -38.69288307	 32.58348048
Co	 8.14587012	 -40.72935060	 36.65641554
No	 8.14587012	 -38.69288307	 38.69288307
Co	 10.18233765	 -40.72935060	 38.69288307
No	 10.18233765	 -38.69288307	 36.65641554
Co	 8.14587012	 -36.65641554	 -40.72935060
No	 8.14587012	 -34.61994801	 -38.69288307
No	 10.18233765	 -36.65641554	 -38.69288307
Co	 10.18233765	 -34.61994801	 -40.72935060
No	 8.14587012	 -36.65641554	 -36.65641554
No	 8.14587012	 -34.61994801	 -34.61994801
No	 10.18233765	 -36.65641554	 -34.61994801
No	 10.18233765	 -34.61994801	 -36.65641554
No	 8.14587012	 -36.65641554	 -32.58348048
No	 8.14587012	 -34.61994801	 -30.54701295
No	 10.18233765	 -36.65641554	 -30.54701295
No	 10.18233765	 -34.61994801	 -32.58348048
No	 8.14587012	 -36.65641554	 -28.51054542
No	 8.14587012	 -34.61994801	 -26.47407789
No	 10.18233765	 -36.65641554	 -26.47407789
No	 10.18233765	 -34.61994801	 -28.51054542
No	 10.18233765	 -34.61994801	 -24.43761036
No	 8.14587012	 -34.61994801	 26.47407789
No	 10.18233765	 -36.65641554	 26.47407789
No	 10.18233765	 -34.61994801	 24.43761036
No	 8.14587012	 -36.65641554	 28.51054542
No	 8.14587012	 -34.61994801	 30.54701295
No	 10.18233765	 -36.65641554	 30.54701295
No	 10.18233765	 -34.61994801	 28.51054542
No	 8.14587012	 -36.65641554	 32.58348048
No	 8.14587012	 -34.61994801	 34.61994801
No	 10.18233765	 -36.65641554	 34.61994801
No	 10.18233765	 -34.61994801	 32.58348048
No	 8.14587012	 -36.65641554	 36.65641554
No	 8.14587012	 -34.61994801	 38.69288307
No	 10.18233765	 -36.65641554	 38.69288307
No	 10.18233765	 -34.61994801	 36.65641554
Co	 8.14587012	 -32.58348048	 -40.72935060
No	 8.14587012	 -30.54701295	 -38.69288307
No	 10.18233765	 -32.58348048	 -38.69288307
Co	 10.18233765	 -30.54701295	 -40.72935060
No	 8.14587012	 -32.58348048	 -36.65641554
No	 8.14587012	 -30.54701295	 -34.61994801
No	 10.18233765	 -32.58348048	 -34.61994801
No	 10.18233765	 -30.54701295	 -36.65641554
No	 8.14587012	 -32.58348048	 -32.58348048
No	 8.14587012	 -30.54701295	 -30.54701295
No	 10.18233765	 -32.58348048	 -30.54701295
No	 10.18233765	 -30.54701295	 -32.58348048
No	 8.14587012	 -32.58348048	 -28.51054542
No	 8.14587012	 -30.54701295	 -26.47407789
No	 10.18233765	 -32.58348048	 -26.47407789
No	 10.18233765	 -30.54701295	 -28.51054542
No	 8.14587012	 -32.58348048	 -24.43761036
No	 8.14587012	 -30.54701295	 -22.40114283
No	 10.18233765	 -32.58348048	 -22.40114283
No	 10.18233765	 -30.54701295	 -24.43761036
No	 10.18233765	 -30.54701295	 -20.36467530
No	 8.14587012	 -30.54701295	 22.40114283
No	 10.18233765	 -32.58348048	 22.40114283
No	 10.18233765	 -30.54701295	 20.36467530
No	 8.14587012	 -32.58348048	 24.43761036
No	 8.14587012	 -30.54701295	 26.47407789
No	 10.18233765	 -32.58348048	 26.47407789
No	 10.18233765	 -30.54701295	 24.43761036
No	 8.14587012	 -32.58348048	 28.51054542
No	 8.14587012	 -30.54701295	 30.54701295
No	 10.18233765	 -32.58348048	 30.54701295
No	 10.18233765	 -30.54701295	 28.51054542
No	 8.14587012	 -32.58348048	 32.58348048
No	 8.14587012	 -30.54701295	 34.61994801
No	 10.18233765	 -32.58348048	 34.61994801
No	 10.18233765	 -30.54701295	 32.58348048
No	 8.14587012	 -32.58348048	 36.65641554
No	 8.14587012	 -30.54701295	 38.69288307
No	 10.18233765	 -32.58348048	 38.69288307
No	 10.18233765	 -30.54701295	 36.65641554
Co	 8.14587012	 -28.51054542	 -40.72935060
No	 10.18233765	 -28.51054542	 -38.69288307
Co	 10.18233765	 -26.47407789	 -40.72935060
No	 8.14587012	 -28.51054542	 -36.65641554
No	 8.14587012	 -26.47407789	 -34.61994801
No	 10.18233765	 -28.51054542	 -34.61994801
No	 10.18233765	 -26.47407789	 -36.65641554
No	 8.14587012	 -28.51054542	 -32.58348048
No	 8.14587012	 -26.47407789	 -30.54701295
No	 10.18233765	 -28.51054542	 -30.54701295
No	 10.18233765	 -26.47407789	 -32.58348048
No	 8.14587012	 -28.51054542	 -28.51054542
No	 8.14587012	 -26.47407789	 -26.47407789
No	 10.18233765	 -28.51054542	 -26.47407789
No	 10.18233765	 -26.47407789	 -28.51054542
No	 8.14587012	 -28.51054542	 -24.43761036
No	 8.14587012	 -26.47407789	 -22.40114283
No	 10.18233765	 -28.51054542	 -22.40114283
No	 10.18233765	 -26.47407789	 -24.43761036
No	 8.14587012	 -28.51054542	 -20.36467530
No	 8.14587012	 -26.47407789	 -18.32820777
No	 10.18233765	 -28.51054542	 -18.32820777
No	 10.18233765	 -26.47407789	 -20.36467530
No	 10.18233765	 -26.47407789	 -16.29174024
No	 8.14587012	 -26.47407789	 18.32820777
No	 10.18233765	 -28.51054542	 18.32820777
No	 10.18233765	 -26.47407789	 16.29174024
No	 8.14587012	 -28.51054542	 20.36467530
No	 8.14587012	 -26.47407789	 22.40114283
No	 10.18233765	 -28.51054542	 22.40114283
No	 10.18233765	 -26.47407789	 20.36467530
No	 8.14587012	 -28.51054542	 24.43761036
No	 8.14587012	 -26.47407789	 26.47407789
No	 10.18233765	 -28.51054542	 26.47407789
No	 10.18233765	 -26.47407789	 24.43761036
No	 8.14587012	 -28.51054542	 28.51054542
No	 8.14587012	 -26.47407789	 30.54701295
No	 10.18233765	 -28.51054542	 30.54701295
No	 10.18233765	 -26.47407789	 28.51054542
No	 8.14587012	 -28.51054542	 32.58348048
No	 8.14587012	 -26.47407789	 34.61994801
No	 10.18233765	 -28.51054542	 34.61994801
No	 10.18233765	 -26.47407789	 32.58348048
No	 8.14587012	 -28.51054542	 36.65641554
No	 10.18233765	 -28.51054542	 38.69288307
No	 10.18233765	 -26.47407789	 36.65641554
No	 10.18233765	 -24.43761036	 -34.61994801
No	 8.14587012	 -24.43761036	 -32.58348048
No	 8.14587012	 -22.40114283	 -30.54701295
No	 10.18233765	 -24.43761036	 -30.54701295
No	 10.18233765	 -22.40114283	 -32.58348048
No	 8.14587012	 -24.43761036	 -28.51054542
No	 8.14587012	 -22.40114283	 -26.47407789
No	 10.18233765	 -24.43761036	 -26.47407789
No	 10.18233765	 -22.40114283	 -28.51054542
No	 8.14587012	 -24.43761036	 -24.43761036
No	 8.14587012	 -22.40114283	 -22.40114283
No	 10.18233765	 -24.43761036	 -22.40114283
No	 10.18233765	 -22.40114283	 -24.43761036
No	 8.14587012	 -24.43761036	 -20.36467530
No	 8.14587012	 -22.40114283	 -18.32820777
No	 10.18233765	 -24.43761036	 -18.32820777
No	 10.18233765	 -22.40114283	 -20.36467530
No	 8.14587012	 -24.43761036	 -16.29174024
No	 8.14587012	 -22.40114283	 -14.25527271
No	 10.18233765	 -24.43761036	 -14.25527271
No	 10.18233765	 -22.40114283	 -16.29174024
No	 10.18233765	 -22.40114283	 -12.21880518
No	 8.14587012	 -22.40114283	 14.25527271
No	 10.18233765	 -24.43761036	 14.25527271
No	 10.18233765	 -22.40114283	 12.21880518
No	 8.14587012	 -24.43761036	 16.29174024
No	 8.14587012	 -22.40114283	 18.32820777
No	 10.18233765	 -24.43761036	 18.32820777
No	 10.18233765	 -22.40114283	 16.29174024
No	 8.14587012	 -24.43761036	 20.36467530
No	 8.14587012	 -22.40114283	 22.40114283
No	 10.18233765	 -24.43761036	 22.40114283
No	 10.18233765	 -22.40114283	 20.36467530
No	 8.14587012	 -24.43761036	 24.43761036
No	 8.14587012	 -22.40114283	 26.47407789
No	 10.18233765	 -24.43761036	 26.47407789
No	 10.18233765	 -22.40114283	 24.43761036
No	 8.14587012	 -24.43761036	 28.51054542
No	 8.14587012	 -22.40114283	 30.54701295
No	 10.18233765	 -24.43761036	 30.54701295
No	 10.18233765	 -22.40114283	 28.51054542
No	 8.14587012	 -24.43761036	 32.58348048
No	 10.18233765	 -24.43761036	 34.61994801
No	 10.18233765	 -22.40114283	 32.58348048
No	 10.18233765	 -20.36467530	 -30.54701295
No	 8.14587012	 -20.36467530	 -28.51054542
No	 8.14587012	 -18.32820777	 -26.47407789
No	 10.18233765	 -20.36467530	 -26.47407789
No	 10.18233765	 -18.32820777	 -28.51054542
No	 8.14587012	 -20.36467530	 -24.43761036
No	 8.14587012	 -18.32820777	 -22.40114283
No	 10.18233765	 -20.36467530	 -22.40114283
No	 10.18233765	 -18.32820777	 -24.43761036
No	 8.14587012	 -20.36467530	 -20.36467530
No	 8.14587012	 -18.32820777	 -18.32820777
No	 10.18233765	 -20.36467530	 -18.32820777
No	 10.18233765	 -18.32820777	 -20.36467530
No	 8.14587012	 -20.36467530	 -16.29174024
No	 8.14587012	 -18.32820777	 -14.25527271
No	 10.18233765	 -20.36467530	 -14.25527271
No	 10.18233765	 -18.32820777	 -16.29174024
No	 8.14587012	 -20.36467530	 -12.21880518
No	 8.14587012	 -18.32820777	 -10.18233765
No	 10.18233765	 -20.36467530	 -10.18233765
No	 10.18233765	 -18.32820777	 -12.21880518
No	 10.18233765	 -18.32820777	 -8.14587012
No	 8.14587012	 -18.32820777	 10.18233765
No	 10.18233765	 -20.36467530	 10.18233765
No	 10.18233765	 -18.32820777	 8.14587012
No	 8.14587012	 -20.36467530	 12.21880518
No	 8.14587012	 -18.32820777	 14.25527271
No	 10.18233765	 -20.36467530	 14.25527271
No	 10.18233765	 -18.32820777	 12.21880518
No	 8.14587012	 -20.36467530	 16.29174024
No	 8.14587012	 -18.32820777	 18.32820777
No	 10.18233765	 -20.36467530	 18.32820777
No	 10.18233765	 -18.32820777	 16.29174024
No	 8.14587012	 -20.36467530	 20.36467530
No	 8.14587012	 -18.32820777	 22.40114283
No	 10.18233765	 -20.36467530	 22.40114283
No	 10.18233765	 -18.32820777	 20.36467530
No	 8.14587012	 -20.36467530	 24.43761036
No	 8.14587012	 -18.32820777	 26.47407789
No	 10.18233765	 -20.36467530	 26.47407789
No	 10.18233765	 -18.32820777	 24.43761036
No	 8.14587012	 -20.36467530	 28.51054542
No	 10.18233765	 -20.36467530	 30.54701295
No	 10.18233765	 -18.32820777	 28.51054542
No	 10.18233765	 -16.29174024	 -26.47407789
No	 8.14587012	 -16.29174024	 -24.43761036
No	 8.14587012	 -14.25527271	 -22.40114283
No	 10.18233765	 -16.29174024	 -22.40114283
No	 10.18233765	 -14.25527271	 -24.43761036
No	 8.14587012	 -16.29174024	 -20.36467530
No	 8.14587012	 -14.25527271	 -18.32820777
No	 10.18233765	 -16.29174024	 -18.32820777
No	 10.18233765	 -14.25527271	 -20.36467530
No	 8.14587012	 -16.29174024	 -16.29174024
No	 8.14587012	 -14.25527271	 -14.25527271
No	 10.18233765	 -16.29174024	 -14.25527271
No	 10.18233765	 -14.25527271	 -16.29174024
No	 8.14587012	 -16.29174024	 -12.21880518
No	 8.14587012	 -14.25527271	 -10.18233765
No	 10.18233765	 -16.29174024	 -10.18233765
No	 10.18233765	 -14.25527271	 -12.21880518
No	 8.14587012	 -16.29174024	 -8.14587012
No	 8.14587012	 -14.25527271	 -6.10940259
No	 10.18233765	 -16.29174024	 -6.10940259
No	 10.18233765	 -14.25527271	 -8.14587012
No	 10.18233765	 -14.25527271	 -4.07293506
No	 8.14587012	 -14.25527271	 6.10940259
No	 10.18233765	 -16.29174024	 6.10940259
No	 10.18233765	 -14.25527271	 4.07293506
No	 8.14587012	 -16.29174024	 8.14587012
No	 8.14587012	 -14.25527271	 10.18233765
No	 10.18233765	 -16.29174024	 10.18233765
No	 10.18233765	 -14.25527271	 8.14587012
No	 8.14587012	 -16.29174024	 12.21880518
No	 8.14587012	 -14.25527271	 14.25527271
No	 10.18233765	 -16.29174024	 14.25527271
No	 10.18233765	 -14.25527271	 12.21880518
No	 8.14587012	 -16.29174024	 16.29174024
No	 8.14587012	 -14.25527271	 18.32820777
No	 10.18233765	 -16.29174024	 18.32820777
No	 10.18233765	 -14.25527271	 16.29174024
No	 8.14587012	 -16.29174024	 20.36467530
No	 8.14587012	 -14.25527271	 22.40114283
No	 10.18233765	 -16.29174024	 22.40114283
No	 10.18233765	 -14.25527271	 20.36467530
No	 8.14587012	 -16.29174024	 24.43761036
No	 10.18233765	 -16.29174024	 26.47407789
No	 10.18233765	 -14.25527271	 24.43761036
No	 10.18233765	 -12.21880518	 -22.40114283
No	 8.14587012	 -12.21880518	 -20.36467530
No	 8.14587012	 -10.18233765	 -18.32820777
No	 10.18233765	 -12.21880518	 -18.32820777
No	 10.18233765	 -10.18233765	 -20.36467530
No	 8.14587012	 -12.21880518	 -16.29174024
No	 8.14587012	 -10.18233765	 -14.25527271
No	 10.18233765	 -12.21880518	 -14.25527271
No	 10.18233765	 -10.18233765	 -16.29174024
No	 8.14587012	 -12.21880518	 -12.21880518
No	 8.14587012	 -10.18233765	 -10.18233765
No	 10.18233765	 -12.21880518	 -10.18233765
No	 10.18233765	 -10.18233765	 -12.21880518
No	 8.14587012	 -12.21880518	 -8.14587012
No	 8.14587012	 -10.18233765	 -6.10940259
No	 10.18233765	 -12.21880518	 -6.10940259
No	 10.18233765	 -10.18233765	 -8.14587012
No	 8.14587012	 -12.21880518	 -4.07293506
No	 8.14587012	 -10.18233765	 -2.03646753
No	 10.18233765	 -12.21880518	 -2.03646753
No	 10.18233765	 -10.18233765	 -4.07293506
No	 8.14587012	 -10.18233765	 2.03646753
No	 10.18233765	 -12.21880518	 2.03646753
No	 10.18233765	 -10.18233765	 -0.00000000
No	 8.14587012	 -12.21880518	 4.07293506
No	 8.14587012	 -10.18233765	 6.10940259
No	 10.18233765	 -12.21880518	 6.10940259
No	 10.18233765	 -10.18233765	 4.07293506
No	 8.14587012	 -12.21880518	 8.14587012
No	 8.14587012	 -10.18233765	 10.18233765
No	 10.18233765	 -12.21880518	 10.18233765
No	 10.18233765	 -10.18233765	 8.14587012
No	 8.14587012	 -12.21880518	 12.21880518
No	 8.14587012	 -10.18233765	 14.25527271
No	 10.18233765	 -12.21880518	 14.25527271
No	 10.18233765	 -10.18233765	 12.21880518
No	 8.14587012	 -12.21880518	 16.29174024
No	 8.14587012	 -10.18233765	 18.32820777
No	 10.18233765	 -12.21880518	 18.32820777
No	 10.18233765	 -10.18233765	 16.29174024
No	 8.14587012	 -12.21880518	 20.36467530
No	 10.18233765	 -12.21880518	 22.40114283
No	 10.18233765	 -10.18233765	 20.36467530
No	 10.18233765	 -8.14587012	 -18.32820777
No	 8.14587012	 -8.14587012	 -16.29174024
No	 8.14587012	 -6.10940259	 -14.25527271
No	 10.18233765	 -8.14587012	 -14.25527271
No	 10.18233765	 -6.10940259	 -16.29174024
No	 8.14587012	 -8.14587012	 -12.21880518
No	 8.14587012	 -6.10940259	 -10.18233765
No	 10.18233765	 -8.14587012	 -10.18233765
No	 10.18233765	 -6.10940259	 -12.21880518
No	 8.14587012	 -8.14587012	 -8.14587012
No	 8.14587012	 -6.10940259	 -6.10940259
No	 10.18233765	 -8.14587012	 -6.10940259
No	 10.18233765	 -6.10940259	 -8.14587012
No	 8.14587012	 -8.14587012	 -4.07293506
No	 8.14587012	 -6.10940259	 -2.03646753
No	 10.18233765	 -8.14587012	 -2.03646753
No	 10.18233765	 -6.10940259	 -4.07293506
No	 8.14587012	 -8.14587012	 -0.00000000
No	 8.14587012	 -6.10940259	 2.03646753
No	 10.18233765	 -8.14587012	 2.03646753
No	 8.14587012	 -8.14587012	 4.07293506
No	 8.14587012	 -6.10940259	 6.10940259
No	 10.18233765	 -8.14587012	 6.10940259
No	 10.18233765	 -6.10940259	 4.07293506
No	 8.14587012	 -8.14587012	 8.14587012
No	 8.14587012	 -6.10940259	 10.18233765
No	 10.18233765	 -8.14587012	 10.18233765
No	 10.18233765	 -6.10940259	 8.14587012
No	 8.14587012	 -8.14587012	 12.21880518
No	 8.14587012	 -6.10940259	 14.25527271
No	 10.18233765	 -8.14587012	 14.25527271
No	 10.18233765	 -6.10940259	 12.21880518
No	 8.14587012	 -8.14587012	 16.29174024
No	 10.18233765	 -8.14587012	 18.32820777
No	 10.18233765	 -6.10940259	 16.29174024
No	 10.18233765	 -4.07293506	 -14.25527271
No	 8.14587012	 -4.07293506	 -12.21880518
No	 8.14587012	 -2.03646753	 -10.18233765
No	 10.18233765	 -4.07293506	 -10.18233765
No	 10.18233765	 -2.03646753	 -12.21880518
No	 8.14587012	 -4.07293506	 -8.14587012
No	 8.14587012	 -2.03646753	 -6.10940259
No	 10.18233765	 -4.07293506	 -6.10940259
No	 10.18233765	 -2.03646753	 -8.14587012
No	 8.14587012	 -4.07293506	 -4.07293506
No	 8.14587012	 -4.07293506	 4.07293506
No	 8.14587012	 -2.03646753	 6.10940259
No	 10.18233765	 -4.07293506	 6.10940259
No	 8.14587012	 -4.07293506	 8.14587012
No	 8.14587012	 -2.03646753	 10.18233765
No	 10.18233765	 -4.07293506	 10.18233765
No	 10.18233765	 -2.03646753	 8.14587012
No	 8.14587012	 -4.07293506	 12.21880518
No	 10.18233765	 -4.07293506	 14.25527271
No	 10.18233765	 -2.03646753	 12.21880518
No	 8.14587012	 2.03646753	 -10.18233765
No	 10.18233765	 -0.00000000	 -10.18233765
No	 10.18233765	 2.03646753	 -12.21880518
No	 8.14587012	 -0.00000000	 -8.14587012
No	 8.14587012	 2.03646753	 -6.10940259
No	 10.18233765	 2.03646753	 -8.14587012
No	 8.14587012	 2.03646753	 6.10940259
No	 8.14587012	 -0.00000000	 8.14587012
No	 8.14587012	 2.03646753	 10.18233765
No	 10.18233765	 -0.00000000	 10.18233765
No	 10.18233765	 2.03646753	 8.14587012
No	 10.18233765	 2.03646753	 12.21880518
No	 8.14587012	 6.10940259	 -14.25527271
No	 10.18233765	 4.07293506	 -14.25527271
No	 10.18233765	 6.10940259	 -16.29174024
No	 8.14587012	 4.07293506	 -12.21880518
No	 8.14587012	 6.10940259	 -10.18233765
No	 10.18233765	 4.07293506	 -10.18233765
No	 10.18233765	 6.10940259	 -12.21880518
No	 8.14587012	 4.07293506	 -8.14587012
No	 8.14587012	 6.10940259	 -6.10940259
No	 10.18233765	 4.07293506	 -6.10940259
No	 10.18233765	 6.10940259	 -8.14587012
No	 8.14587012	 4.07293506	 -4.07293506
No	 8.14587012	 6.10940259	 -2.03646753
No	 10.18233765	 6.10940259	 -4.07293506
No	 8.14587012	 6.10940259	 2.03646753
No	 8.14587012	 4.07293506	 4.07293506
No	 8.14587012	 6.10940259	 6.10940259
No	 10.18233765	 4.07293506	 6.10940259
No	 10.18233765	 6.10940259	 4.07293506
No	 8.14587012	 4.07293506	 8.14587012
No	 8.14587012	 6.10940259	 10.18233765
No	 10.18233765	 4.07293506	 10.18233765
No	 10.18233765	 6.10940259	 8.14587012
No	 8.14587012	 4.07293506	 12.21880518
No	 8.14587012	 6.10940259	 14.25527271
No	 10.18233765	 4.07293506	 14.25527271
No	 10.18233765	 6.10940259	 12.21880518
No	 10.18233765	 6.10940259	 16.29174024
No	 8.14587012	 10.18233765	 -18.32820777
No	 10.18233765	 8.14587012	 -18.32820777
No	 10.18233765	 10.18233765	 -20.36467530
No	 8.14587012	 8.14587012	 -16.29174024
No	 8.14587012	 10.18233765	 -14.25527271
No	 10.18233765	 8.14587012	 -14.25527271
No	 10.18233765	 10.18233765	 -16.29174024
No	 8.14587012	 8.14587012	 -12.21880518
No	 8.14587012	 10.18233765	 -10.18233765
No	 10.18233765	 8.14587012	 -10.18233765
No	 10.18233765	 10.18233765	 -12.21880518
No	 8.14587012	 8.14587012	 -8.14587012
No	 8.14587012	 10.18233765	 -6.10940259
No	 10.18233765	 8.14587012	 -6.10940259
No	 10.18233765	 10.18233765	 -8.14587012
No	 8.14587012	 8.14587012	 -4.07293506
No	 8.14587012	 10.18233765	 -2.03646753
No	 10.18233765	 8.14587012	 -2.03646753
No	 10.18233765	 10.18233765	 -4.07293506
No	 8.14587012	 8.14587012	 -0.00000000
No	 8.14587012	 10.18233765	 2.03646753
No	 10.18233765	 8.14587012	 2.03646753
No	 10.18233765	 10.18233765	 -0.00000000
No	 8.14587012	 8.14587012	 4.07293506
No	 8.14587012	 10.18233765	 6.10940259
No	 10.18233765	 8.14587012	 6.10940259
No	 10.18233765	 10.18233765	 4.07293506
No	 8.14587012	 8.14587012	 8.14587012
No	 8.14587012	 10.18233765	 10.18233765
No	 10.18233765	 8.14587012	 10.18233765
No	 10.18233765	 10.18233765	 8.14587012
No	 8.14587012	 8.14587012	 12.21880518
No	 8.14587012	 10.18233765	 14.25527271
No	 10.18233765	 8.14587012	 14.25527271
No	 10.18233765	 10.18233765	 12.21880518
No	 8.14587012	 8.14587012	 16.29174024
No	 8.14587012	 10.18233765	 18.32820777
No	 10.18233765	 8.14587012	 18.32820777
No	 10.18233765	 10.18233765	 16.29174024
No	 10.18233765	 10.18233765	 20.36467530
No	 8.14587012	 14.25527271	 -22.40114283
No	 10.18233765	 12.21880518	 -22.40114283
No	 10.18233765	 14.25527271	 -24.43761036
No	 8.14587012	 12.21880518	 -20.36467530
No	 8.14587012	 14.25527271	 -18.32820777
No	 10.18233765	 12.21880518	 -18.32820777
No	 10.18233765	 14.25527271	 -20.36467530
No	 8.14587012	 12.21880518	 -16.29174024
No	 8.14587012	 14.25527271	 -14.25527271
No	 10.18233765	 12.21880518	 -14.25527271
No	 10.18233765	 14.25527271	 -16.29174024
No	 8.14587012	 12.21880518	 -12.21880518
No	 8.14587012	 14.25527271	 -10.18233765
No	 10.18233765	 12.21880518	 -10.18233765
No	 10.18233765	 14.25527271	 -12.21880518
No	 8.14587012	 12.21880518	 -8.14587012
No	 8.14587012	 14.25527271	 -6.10940259
No	 10.18233765	 12.21880518	 -6.10940259
No	 10.18233765	 14.25527271	 -8.14587012
No	 8.14587012	 12.21880518	 -4.07293506
No	 10.18233765	 12.21880518	 -2.03646753
No	 10.18233765	 14.25527271	 -4.07293506
No	 10.18233765	 12.21880518	 2.03646753
No	 8.14587012	 12.21880518	 4.07293506
No	 8.14587012	 14.25527271	 6.10940259
No	 10.18233765	 12.21880518	 6.10940259
No	 10.18233765	 14.25527271	 4.07293506
No	 8.14587012	 12.21880518	 8.14587012
No	 8.14587012	 14.25527271	 10.18233765
No	 10.18233765	 12.21880518	 10.18233765
No	 10.18233765	 14.25527271	 8.14587012
No	 8.14587012	 12.21880518	 12.21880518
No	 8.14587012	 14.25527271	 14.25527271
No	 10.18233765	 12.21880518	 14.25527271
No	 10.18233765	 14.25527271	 12.21880518
No	 8.14587012	 12.21880518	 16.29174024
No	 8.14587012	 14.25527271	 18.32820777
No	 10.18233765	 12.21880518	 18.32820777
No	 10.18233765	 14.25527271	 16.29174024
No	 8.14587012	 12.21880518	 20.36467530
No	 8.14587012	 14.25527271	 22.40114283
No	 10.18233765	 12.21880518	 22.40114283
No	 10.18233765	 14.25527271	 20.36467530
No	 10.18233765	 14.25527271	 24.43761036
No	 8.14587012	 18.32820777	 -26.47407789
No	 10.18233765	 16.29174024	 -26.47407789
No	 10.18233765	 18.32820777	 -28.51054542
No	 8.14587012	 16.29174024	 -24.43761036
No	 8.14587012	 18.32820777	 -22.40114283
No	 10.18233765	 16.29174024	 -22.40114283
No	 10.18233765	 18.32820777	 -24.43761036
No	 8.14587012	 16.29174024	 -20.36467530
No	 8.14587012	 18.32820777	 -18.32820777
No	 10.18233765	 16.29174024	 -18.32820777
No	 10.18233765	 18.32820777	 -20.36467530
No	 8.14587012	 16.29174024	 -16.29174024
No	 8.14587012	 18.32820777	 -14.25527271
No	 10.18233765	 16.29174024	 -14.25527271
No	 10.18233765	 18.32820777	 -16.29174024
No	 8.14587012	 16.29174024	 -12.21880518
No	 8.14587012	 18.32820777	 -10.18233765
No	 10.18233765	 16.29174024	 -10.18233765
No	 10.18233765	 18.32820777	 -12.21880518
No	 8.14587012	 16.29174024	 -8.14587012
No	 10.18233765	 16.29174024	 -6.10940259
No	 10.18233765	 18.32820777	 -8.14587012
No	 10.18233765	 16.29174024	 6.10940259
No	 8.14587012	 16.29174024	 8.14587012
No	 8.14587012	 18.32820777	 10.18233765
No	 10.18233765	 16.29174024	 10.18233765
No	 10.18233765	 18.32820777	 8.14587012
No	 8.14587012	 16.29174024	 12.21880518
No	 8.14587012	 18.32820777	 14.25527271
No	 10.18233765	 16.29174024	 14.25527271
No	 10.18233765	 18.32820777	 12.21880518
No	 8.14587012	 16.29174024	 16.29174024
No	 8.14587012	 18.32820777	 18.32820777
No	 10.18233765	 16.29174024	 18.32820777
No	 10.18233765	 18.32820777	 16.29174024
No	 8.14587012	 16.29174024	 20.36467530
No	 8.14587012	 18.32820777	 22.40114283
No	 10.18233765	 16.29174024	 22.40114283
No	 10.18233765	 18.32820777	 20.36467530
No	 8.14587012	 16.29174024	 24.43761036
No	 8.14587012	 18.32820777	 26.47407789
No	 10.18233765	 16.29174024	 26.47407789
No	 10.18233765	 18.32820777	 24.43761036
No	 10.18233765	 18.32820777	 28.51054542
No	 8.14587012	 22.40114283	 -30.54701295
No	 10.18233765	 20.36467530	 -30.54701295
No	 10.18233765	 22.40114283	 -32.58348048
No	 8.14587012	 20.36467530	 -28.51054542
No	 8.14587012	 22.40114283	 -26.47407789
No	 10.18233765	 20.36467530	 -26.47407789
No	 10.18233765	 22.40114283	 -28.51054542
No	 8.14587012	 20.36467530	 -24.43761036
No	 8.14587012	 22.40114283	 -22.40114283
No	 10.18233765	 20.36467530	 -22.40114283
No	 10.18233765	 22.40114283	 -24.43761036
No	 8.14587012	 20.36467530	 -20.36467530
No	 8.14587012	 22.40114283	 -18.32820777
No	 10.18233765	 20.36467530	 -18.32820777
No	 10.18233765	 22.40114283	 -20.36467530
No	 8.14587012	 20.36467530	 -16.29174024
No	 8.14587012	 22.40114283	 -14.25527271
No	 10.18233765	 20.36467530	 -14.25527271
No	 10.18233765	 22.40114283	 -16.29174024
No	 8.14587012	 20.36467530	 -12.21880518
No	 10.18233765	 20.36467530	 -10.18233765
No	 10.18233765	 22.40114283	 -12.21880518
No	 10.18233765	 20.36467530	 10.18233765
No	 8.14587012	 20.36467530	 12.21880518
No	 8.14587012	 22.40114283	 14.25527271
No	 10.18233765	 20.36467530	 14.25527271
No	 10.18233765	 22.40114283	 12.21880518
No	 8.14587012	 20.36467530	 16.29174024
No	 8.14587012	 22.40114283	 18.32820777
No	 10.18233765	 20.36467530	 18.32820777
No	 10.18233765	 22.40114283	 16.29174024
No	 8.14587012	 20.36467530	 20.36467530
No	 8.14587012	 22.40114283	 22.40114283
No	 10.18233765	 20.36467530	 22.40114283
No	 10.18233765	 22.40114283	 20.36467530
No	 8.14587012	 20.36467530	 24.43761036
No	 8.14587012	 22.40114283	 26.47407789
No	 10.18233765	 20.36467530	 26.47407789
No	 10.18233765	 22.40114283	 24.43761036
No	 8.14587012	 20.36467530	 28.51054542
No	 8.14587012	 22.40114283	 30.54701295
No	 10.18233765	 20.36467530	 30.54701295
No	 10.18233765	 22.40114283	 28.51054542
No	 10.18233765	 22.40114283	 32.58348048
Co	 10.18233765	 26.47407789	 -40.72935060
No	 8.14587012	 26.47407789	 -34.61994801
No	 10.18233765	 24.43761036	 -34.61994801
No	 10.18233765	 26.47407789	 -36.65641554
No	 8.14587012	 24.43761036	 -32.58348048
No	 8.14587012	 26.47407789	 -30.54701295
No	 10.18233765	 24.43761036	 -30.54701295
No	 10.18233765	 26.47407789	 -32.58348048
No	 8.14587012	 24.43761036	 -28.51054542
No	 8.14587012	 26.47407789	 -26.47407789
No	 10.18233765	 24.43761036	 -26.47407789
No	 10.18233765	 26.47407789	 -28.51054542
No	 8.14587012	 24.43761036	 -24.43761036
No	 8.14587012	 26.47407789	 -22.40114283
No	 10.18233765	 24.43761036	 -22.40114283
No	 10.18233765	 26.47407789	 -24.43761036
No	 8.14587012	 24.43761036	 -20.36467530
No	 8.14587012	 26.47407789	 -18.32820777
No	 10.18233765	 24.43761036	 -18.32820777
No	 10.18233765	 26.47407789	 -20.36467530
No	 8.14587012	 24.43761036	 -16.29174024
No	 10.18233765	 24.43761036	 -14.25527271
No	 10.18233765	 26.47407789	 -16.29174024
No	 10.18233765	 24.43761036	 14.25527271
No	 8.14587012	 24.43761036	 16.29174024
No	 8.14587012	 26.47407789	 18.32820777
No	 10.18233765	 24.43761036	 18.32820777
No	 10.18233765	 26.47407789	 16.29174024
No	 8.14587012	 24.43761036	 20.36467530
No	 8.14587012	 26.47407789	 22.40114283
No	 10.18233765	 24.43761036	 22.40114283
No	 10.18233765	 26.47407789	 20.36467530
No	 8.14587012	 24.43761036	 24.43761036
No	 8.14587012	 26.47407789	 26.47407789
No	 10.18233765	 24.43761036	 26.47407789
No	 10.18233765	 26.47407789	 24.43761036
No	 8.14587012	 24.43761036	 28.51054542
No	 8.14587012	 26.47407789	 30.54701295
No	 10.18233765	 24.43761036	 30.54701295
No	 10.18233765	 26.47407789	 28.51054542
No	 8.14587012	 24.43761036	 32.58348048
No	 8.14587012	 26.47407789	 34.61994801
No	 10.18233765	 24.43761036	 34.61994801
No	 10.18233765	 26.47407789	 32.58348048
No	 10.18233765	 26.47407789	 36.65641554
Co	 8.14587012	 28.51054542	 -40.72935060
No	 8.14587012	 30.54701295	 -38.69288307
No	 10.18233765	 28.51054542	 -38.69288307
Co	 10.18233765	 30.54701295	 -40.72935060
No	 8.14587012	 28.51054542	 -36.65641554
No	 8.14587012	 30.54701295	 -34.61994801
No	 10.18233765	 28.51054542	 -34.61994801
No	 10.18233765	 30.54701295	 -36.65641554
No	 8.14587012	 28.51054542	 -32.58348048
No	 8.14587012	 30.54701295	 -30.54701295
No	 10.18233765	 28.51054542	 -30.54701295
No	 10.18233765	 30.54701295	 -32.58348048
No	 8.14587012	 28.51054542	 -28.51054542
No	 8.14587012	 30.54701295	 -26.47407789
No	 10.18233765	 28.51054542	 -26.47407789
No	 10.18233765	 30.54701295	 -28.51054542
No	 8.14587012	 28.51054542	 -24.43761036
No	 8.14587012	 30.54701295	 -22.40114283
No	 10.18233765	 28.51054542	 -22.40114283
No	 10.18233765	 30.54701295	 -24.43761036
No	 8.14587012	 28.51054542	 -20.36467530
No	 10.18233765	 28.51054542	 -18.32820777
No	 10.18233765	 30.54701295	 -20.36467530
No	 10.18233765	 28.51054542	 18.32820777
No	 8.14587012	 28.51054542	 20.36467530
No	 8.14587012	 30.54701295	 22.40114283
No	 10.18233765	 28.51054542	 22.40114283
No	 10.18233765	 30.54701295	 20.36467530
No	 8.14587012	 28.51054542	 24.43761036
No	 8.14587012	 30.54701295	 26.47407789
No	 10.18233765	 28.51054542	 26.47407789
No	 10.18233765	 30.54701295	 24.43761036
No	 8.14587012	 28.51054542	 28.51054542
No	 8.14587012	 30.54701295	 30.54701295
No	 10.18233765	 28.51054542	 30.54701295
No	 10.18233765	 30.54701295	 28.51054542
No	 8.14587012	 28.51054542	 32.58348048
No	 8.14587012	 30.54701295	 34.61994801
No	 10.18233765	 28.51054542	 34.61994801
No	 10.18233765	 30.54701295	 32.58348048
No	 8.14587012	 28.51054542	 36.65641554
No	 8.14587012	 30.54701295	 38.69288307
No	 10.18233765	 28.51054542	 38.69288307
No	 10.18233765	 30.54701295	 36.65641554
Co	 8.14587012	 32.58348048	 -40.72935060
No	 8.14587012	 34.61994801	 -38.69288307
No	 10.18233765	 32.58348048	 -38.69288307
Co	 10.18233765	 34.61994801	 -40.72935060
No	 8.14587012	 32.58348048	 -36.65641554
No	 8.14587012	 34.61994801	 -34.61994801
No	 10.18233765	 32.58348048	 -34.61994801
No	 10.18233765	 34.61994801	 -36.65641554
No	 8.14587012	 32.58348048	 -32.58348048
No	 8.14587012	 34.61994801	 -30.54701295
No	 10.18233765	 32.58348048	 -30.54701295
No	 10.18233765	 34.61994801	 -32.58348048
No	 8.14587012	 32.58348048	 -28.51054542
No	 8.14587012	 34.61994801	 -26.47407789
No	 10.18233765	 32.58348048	 -26.47407789
No	 10.18233765	 34.61994801	 -28.51054542
No	 8.14587012	 32.58348048	 -24.43761036
No	 10.18233765	 32.58348048	 -22.40114283
No	 10.18233765	 34.61994801	 -24.43761036
No	 10.18233765	 32.58348048	 22.40114283
No	 8.14587012	 32.58348048	 24.43761036
No	 8.14587012	 34.61994801	 26.47407789
No	 10.18233765	 32.58348048	 26.47407789
No	 10.18233765	 34.61994801	 24.43761036
No	 8.14587012	 32.58348048	 28.51054542
No	 8.14587012	 34.61994801	 30.54701295
No	 10.18233765	 32.58348048	 30.54701295
No	 10.18233765	 34.61994801	 28.51054542
No	 8.14587012	 32.58348048	 32.58348048
No	 8.14587012	 34.61994801	 34.61994801
No	 10.18233765	 32.58348048	 34.61994801
No	 10.18233765	 34.61994801	 32.58348048
No	 8.14587012	 32.58348048	 36.65641554
No	 8.14587012	 34.61994801	 38.69288307
No	 10.18233765	 32.58348048	 38.69288307
No	 10.18233765	 34.61994801	 36.65641554
Co	 8.14587012	 36.65641554	 -40.72935060
No	 8.14587012	 38.69288307	 -38.69288307
No	 10.18233765	 36.65641554	 -38.69288307
Co	 10.18233765	 38.69288307	 -40.72935060
No	 8.14587012	 36.65641554	 -36.65641554
No	 8.14587012	 38.69288307	 -34.61994801
No	 10.18233765	 36.65641554	 -34.61994801
No	 10.18233765	 38.69288307	 -36.65641554
No	 8.14587012	 36.65641554	 -32.58348048
No	 8.14587012	 38.69288307	 -30.54701295
No	 10.18233765	 36.65641554	 -30.54701295
No	 10.18233765	 38.69288307	 -32.58348048
No	 8.14587012	 36.65641554	 -28.51054542
No	 10.18233765	 36.65641554	 -26.47407789
No	 10.18233765	 38.69288307	 -28.51054542
No	 10.18233765	 36.65641554	 26.47407789
No	 8.14587012	 36.65641554	 28.51054542
No	 8.14587012	 38.69288307	 30.54701295
No	 10.18233765	 36.65641554	 30.54701295
No	 10.18233765	 38.69288307	 28.51054542
No	 8.14587012	 36.65641554	 32.58348048
No	 8.14587012	 38.69288307	 34.61994801
No	 10.18233765	 36.65641554	 34.61994801
No	 10.18233765	 38.69288307	 32.58348048
No	 8.14587012	 36.65641554	 36.65641554
No	 8.14587012	 38.69288307	 38.69288307
No	 10.18233765	 36.65641554	 38.69288307
No	 10.18233765	 38.69288307	 36.65641554
Co	 12.21880518	 -40.72935060	 -40.72935060
No	 12.21880518	 -38.69288307	 -38.69288307
Co	 14.25527271	 -40.72935060	 -38.69288307
Co	 14.25527271	 -38.69288307	 -40.72935060
Co	 12.21880518	 -40.72935060	 -36.65641554
No	 12.21880518	 -38.69288307	 -34.61994801
Co	 14.25527271	 -40.72935060	 -34.61994801
No	 14.25527271	 -38.69288307	 -36.65641554
Co	 12.21880518	 -40.72935060	 -32.58348048
No	 12.21880518	 -38.69288307	 -30.54701295
Co	 14.25527271	 -40.72935060	 -30.54701295
No	 14.25527271	 -38.69288307	 -32.58348048
Co	 12.21880518	 -40.72935060	 -28.51054542
No	 12.21880518	 -38.69288307	 -26.47407789
Co	 14.25527271	 -40.72935060	 -26.47407789
No	 14.25527271	 -38.69288307	 -28.51054542
Co	 12.21880518	 -40.72935060	 -24.43761036
Co	 14.25527271	 -40.72935060	 -22.40114283
No	 14.25527271	 -38.69288307	 -24.43761036
Co	 14.25527271	 -40.72935060	 22.40114283
Co	 12.21880518	 -40.72935060	 24.43761036
No	 12.21880518	 -38.69288307	 26.47407789
Co	 14.25527271	 -40.72935060	 26.47407789
No	 14.25527271	 -38.69288307	 24.43761036
Co	 12.21880518	 -40.72935060	 28.51054542
No	 12.21880518	 -38.69288307	 30.54701295
Co	 14.25527271	 -40.72935060	 30.54701295
No	 14.25527271	 -38.69288307	 28.51054542
Co	 12.21880518	 -40.72935060	 32.58348048
No	 12.21880518	 -38.69288307	 34.61994801
Co	 14.25527271	 -40.72935060	 34.61994801
No	 14.25527271	 -38.69288307	 32.58348048
Co	 12.21880518	 -40.72935060	 36.65641554
No	 12.21880518	 -38.69288307	 38.69288307
Co	 14.25527271	 -40.72935060	 38.69288307
No	 14.25527271	 -38.69288307	 36.65641554
Co	 12.21880518	 -36.65641554	 -40.72935060
No	 12.21880518	 -34.61994801	 -38.69288307
No	 14.25527271	 -36.65641554	 -38.69288307
Co	 14.25527271	 -34.61994801	 -40.72935060
No	 12.21880518	 -36.65641554	 -36.65641554
No	 12.21880518	 -34.61994801	 -34.61994801
No	 14.25527271	 -36.65641554	 -34.61994801
No	 14.25527271	 -34.61994801	 -36.65641554
No	 12.21880518	 -36.65641554	 -32.58348048
No	 12.21880518	 -34.61994801	 -30.54701295
No	 14.25527271	 -36.65641554	 -30.54701295
No	 14.25527271	 -34.61994801	 -32.58348048
No	 12.21880518	 -36.65641554	 -28.51054542
No	 12.21880518	 -34.61994801	 -26.47407789
No	 14.25527271	 -36.65641554	 -26.47407789
No	 14.25527271	 -34.61994801	 -28.51054542
No	 12.21880518	 -36.65641554	 -24.43761036
No	 12.21880518	 -34.61994801	 -22.40114283
No	 14.25527271	 -36.65641554	 -22.40114283
No	 14.25527271	 -34.61994801	 -24.43761036
No	 14.25527271	 -34.61994801	 -20.36467530
No	 12.21880518	 -34.61994801	 22.40114283
No	 14.25527271	 -36.65641554	 22.40114283
No	 14.25527271	 -34.61994801	 20.36467530
No	 12.21880518	 -36.65641554	 24.43761036
No	 12.21880518	 -34.61994801	 26.47407789
No	 14.25527271	 -36.65641554	 26.47407789
No	 14.25527271	 -34.61994801	 24.43761036
No	 12.21880518	 -36.65641554	 28.51054542
No	 12.21880518	 -34.61994801	 30.54701295
No	 14.25527271	 -36.65641554	 30.54701295
No	 14.25527271	 -34.61994801	 28.51054542
No	 12.21880518	 -36.65641554	 32.58348048
No	 12.21880518	 -34.61994801	 34.61994801
No	 14.25527271	 -36.65641554	 34.61994801
No	 14.25527271	 -34.61994801	 32.58348048
No	 12.21880518	 -36.65641554	 36.65641554
No	 12.21880518	 -34.61994801	 38.69288307
No	 14.25527271	 -36.65641554	 38.69288307
No	 14.25527271	 -34.61994801	 36.65641554
Co	 12.21880518	 -32.58348048	 -40.72935060
No	 12.21880518	 -30.54701295	 -38.69288307
No	 14.25527271	 -32.58348048	 -38.69288307
Co	 14.25527271	 -30.54701295	 -40.72935060
No	 12.21880518	 -32.58348048	 -36.65641554
No	 12.21880518	 -30.54701295	 -34.61994801
No	 14.25527271	 -32.58348048	 -34.61994801
No	 14.25527271	 -30.54701295	 -36.65641554
No	 12.21880518	 -32.58348048	 -32.58348048
No	 12.21880518	 -30.54701295	 -30.54701295
No	 14.25527271	 -32.58348048	 -30.54701295
No	 14.25527271	 -30.54701295	 -32.58348048
No	 12.21880518	 -32.58348048	 -28.51054542
No	 12.21880518	 -30.54701295	 -26.47407789
No	 14.25527271	 -32.58348048	 -26.47407789
No	 14.25527271	 -30.54701295	 -28.51054542
No	 12.21880518	 -32.58348048	 -24.43761036
No	 12.21880518	 -30.54701295	 -22.40114283
No	 14.25527271	 -32.58348048	 -22.40114283
No	 14.25527271	 -30.54701295	 -24.43761036
No	 12.21880518	 -32.58348048	 -20.36467530
No	 12.21880518	 -30.54701295	 -18.32820777
No	 14.25527271	 -32.58348048	 -18.32820777
No	 14.25527271	 -30.54701295	 -20.36467530
No	 14.25527271	 -30.54701295	 -16.29174024
No	 12.21880518	 -30.54701295	 18.32820777
No	 14.25527271	 -32.58348048	 18.32820777
No	 14.25527271	 -30.54701295	 16.29174024
No	 12.21880518	 -32.58348048	 20.36467530
No	 12.21880518	 -30.54701295	 22.40114283
No	 14.25527271	 -32.58348048	 22.40114283
No	 14.25527271	 -30.54701295	 20.36467530
No	 12.21880518	 -32.58348048	 24.43761036
No	 12.21880518	 -30.54701295	 26.47407789
No	 14.25527271	 -32.58348048	 26.47407789
No	 14.25527271	 -30.54701295	 24.43761036
No	 12.21880518	 -32.58348048	 28.51054542
No	 12.21880518	 -30.54701295	 30.54701295
No	 14.25527271	 -32.58348048	 30.54701295
No	 14.25527271	 -30.54701295	 28.51054542
No	 12.21880518	 -32.58348048	 32.58348048
No	 12.21880518	 -30.54701295	 34.61994801
No	 14.25527271	 -32.58348048	 34.61994801
No	 14.25527271	 -30.54701295	 32.58348048
No	 12.21880518	 -32.58348048	 36.65641554
No	 12.21880518	 -30.54701295	 38.69288307
No	 14.25527271	 -32.58348048	 38.69288307
No	 14.25527271	 -30.54701295	 36.65641554
Co	 12.21880518	 -28.51054542	 -40.72935060
No	 12.21880518	 -26.47407789	 -38.69288307
No	 14.25527271	 -28.51054542	 -38.69288307
Co	 14.25527271	 -26.47407789	 -40.72935060
No	 12.21880518	 -28.51054542	 -36.65641554
No	 12.21880518	 -26.47407789	 -34.61994801
No	 14.25527271	 -28.51054542	 -34.61994801
No	 14.25527271	 -26.47407789	 -36.65641554
No	 12.21880518	 -28.51054542	 -32.58348048
No	 12.21880518	 -26.47407789	 -30.54701295
No	 14.25527271	 -28.51054542	 -30.54701295
No	 14.25527271	 -26.47407789	 -32.58348048
No	 12.21880518	 -28.51054542	 -28.51054542
No	 12.21880518	 -26.47407789	 -26.47407789
No	 14.25527271	 -28.51054542	 -26.47407789
No	 14.25527271	 -26.47407789	 -28.51054542
No	 12.21880518	 -28.51054542	 -24.43761036
No	 12.21880518	 -26.47407789	 -22.40114283
No	 14.25527271	 -28.51054542	 -22.40114283
No	 14.25527271	 -26.47407789	 -24.43761036
No	 12.21880518	 -28.51054542	 -20.36467530
No	 12.21880518	 -26.47407789	 -18.32820777
No	 14.25527271	 -28.51054542	 -18.32820777
No	 14.25527271	 -26.47407789	 -20.36467530
No	 12.21880518	 -28.51054542	 -16.29174024
No	 12.21880518	 -26.47407789	 -14.25527271
No	 14.25527271	 -28.51054542	 -14.25527271
No	 14.25527271	 -26.47407789	 -16.29174024
No	 14.25527271	 -26.47407789	 -12.21880518
No	 12.21880518	 -26.47407789	 14.25527271
No	 14.25527271	 -28.51054542	 14.25527271
No	 14.25527271	 -26.47407789	 12.21880518
No	 12.21880518	 -28.51054542	 16.29174024
No	 12.21880518	 -26.47407789	 18.32820777
No	 14.25527271	 -28.51054542	 18.32820777
No	 14.25527271	 -26.47407789	 16.29174024
No	 12.21880518	 -28.51054542	 20.36467530
No	 12.21880518	 -26.47407789	 22.40114283
No	 14.25527271	 -28.51054542	 22.40114283
No	 14.25527271	 -26.47407789	 20.36467530
No	 12.21880518	 -28.51054542	 24.43761036
No	 12.21880518	 -26.47407789	 26.47407789
No	 14.25527271	 -28.51054542	 26.47407789
No	 14.25527271	 -26.47407789	 24.43761036
No	 12.21880518	 -28.51054542	 28.51054542
No	 12.21880518	 -26.47407789	 30.54701295
No	 14.25527271	 -28.51054542	 30.54701295
No	 14.25527271	 -26.47407789	 28.51054542
No	 12.21880518	 -28.51054542	 32.58348048
No	 12.21880518	 -26.47407789	 34.61994801
No	 14.25527271	 -28.51054542	 34.61994801
No	 14.25527271	 -26.47407789	 32.58348048
No	 12.21880518	 -28.51054542	 36.65641554
No	 12.21880518	 -26.47407789	 38.69288307
No	 14.25527271	 -28.51054542	 38.69288307
No	 14.25527271	 -26.47407789	 36.65641554
Co	 12.21880518	 -24.43761036	 -40.72935060
No	 14.25527271	 -24.43761036	 -38.69288307
Co	 14.25527271	 -22.40114283	 -40.72935060
No	 12.21880518	 -24.43761036	 -36.65641554
No	 12.21880518	 -22.40114283	 -34.61994801
No	 14.25527271	 -24.43761036	 -34.61994801
No	 14.25527271	 -22.40114283	 -36.65641554
No	 12.21880518	 -24.43761036	 -32.58348048
No	 12.21880518	 -22.40114283	 -30.54701295
No	 14.25527271	 -24.43761036	 -30.54701295
No	 14.25527271	 -22.40114283	 -32.58348048
No	 12.21880518	 -24.43761036	 -28.51054542
No	 12.21880518	 -22.40114283	 -26.47407789
No	 14.25527271	 -24.43761036	 -26.47407789
No	 14.25527271	 -22.40114283	 -28.51054542
No	 12.21880518	 -24.43761036	 -24.43761036
No	 12.21880518	 -22.40114283	 -22.40114283
No	 14.25527271	 -24.43761036	 -22.40114283
No	 14.25527271	 -22.40114283	 -24.43761036
No	 12.21880518	 -24.43761036	 -20.36467530
No	 12.21880518	 -22.40114283	 -18.32820777
No	 14.25527271	 -24.43761036	 -18.32820777
No	 14.25527271	 -22.40114283	 -20.36467530
No	 12.21880518	 -24.43761036	 -16.29174024
No	 12.21880518	 -22.40114283	 -14.25527271
No	 14.25527271	 -24.43761036	 -14.25527271
No	 14.25527271	 -22.40114283	 -16.29174024
No	 12.21880518	 -24.43761036	 -12.21880518
No	 12.21880518	 -22.40114283	 -10.18233765
No	 14.25527271	 -24.43761036	 -10.18233765
No	 14.25527271	 -22.40114283	 -12.21880518
No	 14.25527271	 -22.40114283	 -8.14587012
No	 12.21880518	 -22.40114283	 10.18233765
No	 14.25527271	 -24.43761036	 10.18233765
No	 14.25527271	 -22.40114283	 8.14587012
No	 12.21880518	 -24.43761036	 12.21880518
No	 12.21880518	 -22.40114283	 14.25527271
No	 14.25527271	 -24.43761036	 14.25527271
No	 14.25527271	 -22.40114283	 12.21880518
No	 12.21880518	 -24.43761036	 16.29174024
No	 12.21880518	 -22.40114283	 18.32820777
No	 14.25527271	 -24.43761036	 18.32820777
No	 14.25527271	 -22.40114283	 16.29174024
No	 12.21880518	 -24.43761036	 20.36467530
No	 12.21880518	 -22.40114283	 22.40114283
No	 14.25527271	 -24.43761036	 22.40114283
No	 14.25527271	 -22.40114283	 20.36467530
No	 12.21880518	 -24.43761036	 24.43761036
No	 12.21880518	 -22.40114283	 26.47407789
No	 14.25527271	 -24.43761036	 26.47407789
No	 14.25527271	 -22.40114283	 24.43761036
No	 12.21880518	 -24.43761036	 28.51054542
No	 12.21880518	 -22.40114283	 30.54701295
No	 14.25527271	 -24.43761036	 30.54701295
No	 14.25527271	 -22.40114283	 28.51054542
No	 12.21880518	 -24.43761036	 32.58348048
No	 12.21880518	 -22.40114283	 34.61994801
No	 14.25527271	 -24.43761036	 34.61994801
No	 14.25527271	 -22.40114283	 32.58348048
No	 12.21880518	 -24.43761036	 36.65641554
No	 14.25527271	 -24.43761036	 38.69288307
No	 14.25527271	 -22.40114283	 36.65641554
No	 14.25527271	 -20.36467530	 -34.61994801
No	 12.21880518	 -20.36467530	 -32.58348048
No	 12.21880518	 -18.32820777	 -30.54701295
No	 14.25527271	 -20.36467530	 -30.54701295
No	 14.25527271	 -18.32820777	 -32.58348048
No	 12.21880518	 -20.36467530	 -28.51054542
No	 12.21880518	 -18.32820777	 -26.47407789
No	 14.25527271	 -20.36467530	 -26.47407789
No	 14.25527271	 -18.32820777	 -28.51054542
No	 12.21880518	 -20.36467530	 -24.43761036
No	 12.21880518	 -18.32820777	 -22.40114283
No	 14.25527271	 -20.36467530	 -22.40114283
No	 14.25527271	 -18.32820777	 -24.43761036
No	 12.21880518	 -20.36467530	 -20.36467530
No	 12.21880518	 -18.32820777	 -18.32820777
No	 14.25527271	 -20.36467530	 -18.32820777
No	 14.25527271	 -18.32820777	 -20.36467530
No	 12.21880518	 -20.36467530	 -16.29174024
No	 12.21880518	 -18.32820777	 -14.25527271
No	 14.25527271	 -20.36467530	 -14.25527271
No	 14.25527271	 -18.32820777	 -16.29174024
No	 12.21880518	 -20.36467530	 -12.21880518
No	 12.21880518	 -18.32820777	 -10.18233765
No	 14.25527271	 -20.36467530	 -10.18233765
No	 14.25527271	 -18.32820777	 -12.21880518
No	 12.21880518	 -20.36467530	 -8.14587012
No	 12.21880518	 -18.32820777	 -6.10940259
No	 14.25527271	 -20.36467530	 -6.10940259
No	 14.25527271	 -18.32820777	 -8.14587012
No	 14.25527271	 -18.32820777	 -4.07293506
No	 12.21880518	 -18.32820777	 6.10940259
No	 14.25527271	 -20.36467530	 6.10940259
No	 14.25527271	 -18.32820777	 4.07293506
No	 12.21880518	 -20.36467530	 8.14587012
No	 12.21880518	 -18.32820777	 10.18233765
No	 14.25527271	 -20.36467530	 10.18233765
No	 14.25527271	 -18.32820777	 8.14587012
No	 12.21880518	 -20.36467530	 12.21880518
No	 12.21880518	 -18.32820777	 14.25527271
No	 14.25527271	 -20.36467530	 14.25527271
No	 14.25527271	 -18.32820777	 12.21880518
No	 12.21880518	 -20.36467530	 16.29174024
No	 12.21880518	 -18.32820777	 18.32820777
No	 14.25527271	 -20.36467530	 18.32820777
No	 14.25527271	 -18.32820777	 16.29174024
No	 12.21880518	 -20.36467530	 20.36467530
No	 12.21880518	 -18.32820777	 22.40114283
No	 14.25527271	 -20.36467530	 22.40114283
No	 14.25527271	 -18.32820777	 20.36467530
No	 12.21880518	 -20.36467530	 24.43761036
No	 12.21880518	 -18.32820777	 26.47407789
No	 14.25527271	 -20.36467530	 26.47407789
No	 14.25527271	 -18.32820777	 24.43761036
No	 12.21880518	 -20.36467530	 28.51054542
No	 12.21880518	 -18.32820777	 30.54701295
No	 14.25527271	 -20.36467530	 30.54701295
No	 14.25527271	 -18.32820777	 28.51054542
No	 12.21880518	 -20.36467530	 32.58348048
No	 14.25527271	 -20.36467530	 34.61994801
No	 14.25527271	 -18.32820777	 32.58348048
No	 14.25527271	 -16.29174024	 -30.54701295
No	 12.21880518	 -16.29174024	 -28.51054542
No	 12.21880518	 -14.25527271	 -26.47407789
No	 14.25527271	 -16.29174024	 -26.47407789
No	 14.25527271	 -14.25527271	 -28.51054542
No	 12.21880518	 -16.29174024	 -24.43761036
No	 12.21880518	 -14.25527271	 -22.40114283
No	 14.25527271	 -16.29174024	 -22.40114283
No	 14.25527271	 -14.25527271	 -24.43761036
No	 12.21880518	 -16.29174024	 -20.36467530
No	 12.21880518	 -14.25527271	 -18.32820777
No	 14.25527271	 -16.29174024	 -18.32820777
No	 14.25527271	 -14.25527271	 -20.36467530
No	 12.21880518	 -16.29174024	 -16.29174024
No	 12.21880518	 -14.25527271	 -14.25527271
No	 14.25527271	 -16.29174024	 -14.25527271
No	 14.25527271	 -14.25527271	 -16.29174024
No	 12.21880518	 -16.29174024	 -12.21880518
No	 12.21880518	 -14.25527271	 -10.18233765
No	 14.25527271	 -16.29174024	 -10.18233765
No	 14.25527271	 -14.25527271	 -12.21880518
No	 12.21880518	 -16.29174024	 -8.14587012
No	 12.21880518	 -14.25527271	 -6.10940259
No	 14.25527271	 -16.29174024	 -6.10940259
No	 14.25527271	 -14.25527271	 -8.14587012
No	 12.21880518	 -16.29174024	 -4.07293506
No	 12.21880518	 -14.25527271	 -2.03646753
No	 14.25527271	 -16.29174024	 -2.03646753
No	 14.25527271	 -14.25527271	 -4.07293506
No	 12.21880518	 -14.25527271	 2.03646753
No	 14.25527271	 -16.29174024	 2.03646753
No	 14.25527271	 -14.25527271	 -0.00000000
No	 12.21880518	 -16.29174024	 4.07293506
No	 12.21880518	 -14.25527271	 6.10940259
No	 14.25527271	 -16.29174024	 6.10940259
No	 14.25527271	 -14.25527271	 4.07293506
No	 12.21880518	 -16.29174024	 8.14587012
No	 12.21880518	 -14.25527271	 10.18233765
No	 14.25527271	 -16.29174024	 10.18233765
No	 14.25527271	 -14.25527271	 8.14587012
No	 12.21880518	 -16.29174024	 12.21880518
No	 12.21880518	 -14.25527271	 14.25527271
No	 14.25527271	 -16.29174024	 14.25527271
No	 14.25527271	 -14.25527271	 12.21880518
No	 12.21880518	 -16.29174024	 16.29174024
No	 12.21880518	 -14.25527271	 18.32820777
No	 14.25527271	 -16.29174024	 18.32820777
No	 14.25527271	 -14.25527271	 16.29174024
No	 12.21880518	 -16.29174024	 20.36467530
No	 12.21880518	 -14.25527271	 22.40114283
No	 14.25527271	 -16.29174024	 22.40114283
No	 14.25527271	 -14.25527271	 20.36467530
No	 12.21880518	 -16.29174024	 24.43761036
No	 12.21880518	 -14.25527271	 26.47407789
No	 14.25527271	 -16.29174024	 26.47407789
No	 14.25527271	 -14.25527271	 24.43761036
No	 12.21880518	 -16.29174024	 28.51054542
No	 14.25527271	 -16.29174024	 30.54701295
No	 14.25527271	 -14.25527271	 28.51054542
No	 14.25527271	 -12.21880518	 -26.47407789
No	 12.21880518	 -12.21880518	 -24.43761036
No	 12.21880518	 -10.18233765	 -22.40114283
No	 14.25527271	 -12.21880518	 -22.40114283
No	 14.25527271	 -10.18233765	 -24.43761036
No	 12.21880518	 -12.21880518	 -20.36467530
No	 12.21880518	 -10.18233765	 -18.32820777
No	 14.25527271	 -12.21880518	 -18.32820777
No	 14.25527271	 -10.18233765	 -20.36467530
No	 12.21880518	 -12.21880518	 -16.29174024
No	 12.21880518	 -10.18233765	 -14.25527271
No	 14.25527271	 -12.21880518	 -14.25527271
No	 14.25527271	 -10.18233765	 -16.29174024
No	 12.21880518	 -12.21880518	 -12.21880518
No	 12.21880518	 -10.18233765	 -10.18233765
No	 14.25527271	 -12.21880518	 -10.18233765
No	 14.25527271	 -10.18233765	 -12.21880518
No	 12.21880518	 -12.21880518	 -8.14587012
No	 12.21880518	 -10.18233765	 -6.10940259
No	 14.25527271	 -12.21880518	 -6.10940259
No	 14.25527271	 -10.18233765	 -8.14587012
No	 12.21880518	 -12.21880518	 -4.07293506
No	 12.21880518	 -10.18233765	 -2.03646753
No	 14.25527271	 -12.21880518	 -2.03646753
No	 14.25527271	 -10.18233765	 -4.07293506
No	 12.21880518	 -12.21880518	 -0.00000000
No	 12.21880518	 -10.18233765	 2.03646753
No	 14.25527271	 -12.21880518	 2.03646753
No	 12.21880518	 -12.21880518	 4.07293506
No	 12.21880518	 -10.18233765	 6.10940259
No	 14.25527271	 -12.21880518	 6.10940259
No	 14.25527271	 -10.18233765	 4.07293506
No	 12.21880518	 -12.21880518	 8.14587012
No	 12.21880518	 -10.18233765	 10.18233765
No	 14.25527271	 -12.21880518	 10.18233765
No	 14.25527271	 -10.18233765	 8.14587012
No	 12.21880518	 -12.21880518	 12.21880518
No	 12.21880518	 -10.18233765	 14.25527271
No	 14.25527271	 -12.21880518	 14.25527271
No	 14.25527271	 -10.18233765	 12.21880518
No	 12.21880518	 -12.21880518	 16.29174024
No	 12.21880518	 -10.18233765	 18.32820777
No	 14.25527271	 -12.21880518	 18.32820777
No	 14.25527271	 -10.18233765	 16.29174024
No	 12.21880518	 -12.21880518	 20.36467530
No	 12.21880518	 -10.18233765	 22.40114283
No	 14.25527271	 -12.21880518	 22.40114283
No	 14.25527271	 -10.18233765	 20.36467530
No	 12.21880518	 -12.21880518	 24.43761036
No	 14.25527271	 -12.21880518	 26.47407789
No	 14.25527271	 -10.18233765	 24.43761036
No	 14.25527271	 -8.14587012	 -22.40114283
No	 12.21880518	 -8.14587012	 -20.36467530
No	 12.21880518	 -6.10940259	 -18.32820777
No	 14.25527271	 -8.14587012	 -18.32820777
No	 14.25527271	 -6.10940259	 -20.36467530
No	 12.21880518	 -8.14587012	 -16.29174024
No	 12.21880518	 -6.10940259	 -14.25527271
No	 14.25527271	 -8.14587012	 -14.25527271
No	 14.25527271	 -6.10940259	 -16.29174024
No	 12.21880518	 -8.14587012	 -12.21880518
No	 12.21880518	 -6.10940259	 -10.18233765
No	 14.25527271	 -8.14587012	 -10.18233765
No	 14.25527271	 -6.10940259	 -12.21880518
No	 12.21880518	 -8.14587012	 -8.14587012
No	 12.21880518	 -6.10940259	 -6.10940259
No	 14.25527271	 -8.14587012	 -6.10940259
No	 14.25527271	 -6.10940259	 -8.14587012
No	 12.21880518	 -8.14587012	 -4.07293506
No	 12.21880518	 -8.14587012	 4.07293506
No	 12.21880518	 -6.10940259	 6.10940259
No	 14.25527271	 -8.14587012	 6.10940259
No	 12.21880518	 -8.14587012	 8.14587012
No	 12.21880518	 -6.10940259	 10.18233765
No	 14.25527271	 -8.14587012	 10.18233765
No	 14.25527271	 -6.10940259	 8.14587012
No	 12.21880518	 -8.14587012	 12.21880518
No	 12.21880518	 -6.10940259	 14.25527271
No	 14.25527271	 -8.14587012	 14.25527271
No	 14.25527271	 -6.10940259	 12.21880518
No	 12.21880518	 -8.14587012	 16.29174024
No	 12.21880518	 -6.10940259	 18.32820777
No	 14.25527271	 -8.14587012	 18.32820777
No	 14.25527271	 -6.10940259	 16.29174024
No	 12.21880518	 -8.14587012	 20.36467530
No	 14.25527271	 -8.14587012	 22.40114283
No	 14.25527271	 -6.10940259	 20.36467530
No	 14.25527271	 -4.07293506	 -18.32820777
No	 12.21880518	 -4.07293506	 -16.29174024
No	 12.21880518	 -2.03646753	 -14.25527271
No	 14.25527271	 -4.07293506	 -14.25527271
No	 14.25527271	 -2.03646753	 -16.29174024
No	 12.21880518	 -4.07293506	 -12.21880518
No	 12.21880518	 -2.03646753	 -10.18233765
No	 14.25527271	 -4.07293506	 -10.18233765
No	 14.25527271	 -2.03646753	 -12.21880518
No	 12.21880518	 -4.07293506	 -8.14587012
No	 12.21880518	 -4.07293506	 8.14587012
No	 12.21880518	 -2.03646753	 10.18233765
No	 14.25527271	 -4.07293506	 10.18233765
No	 12.21880518	 -4.07293506	 12.21880518
No	 12.21880518	 -2.03646753	 14.25527271
No	 14.25527271	 -4.07293506	 14.25527271
No	 14.25527271	 -2.03646753	 12.21880518
No	 12.21880518	 -4.07293506	 16.29174024
No	 14.25527271	 -4.07293506	 18.32820777
No	 14.25527271	 -2.03646753	 16.29174024
No	 12.21880518	 2.03646753	 -14.25527271
No	 14.25527271	 -0.00000000	 -14.25527271
No	 14.25527271	 2.03646753	 -16.29174024
No	 12.21880518	 -0.00000000	 -12.21880518
No	 12.21880518	 2.03646753	 -10.18233765
No	 14.25527271	 2.03646753	 -12.21880518
No	 12.21880518	 2.03646753	 10.18233765
No	 12.21880518	 -0.00000000	 12.21880518
No	 12.21880518	 2.03646753	 14.25527271
No	 14.25527271	 -0.00000000	 14.25527271
No	 14.25527271	 2.03646753	 12.21880518
No	 14.25527271	 2.03646753	 16.29174024
No	 12.21880518	 6.10940259	 -18.32820777
No	 14.25527271	 4.07293506	 -18.32820777
No	 14.25527271	 6.10940259	 -20.36467530
No	 12.21880518	 4.07293506	 -16.29174024
No	 12.21880518	 6.10940259	 -14.25527271
No	 14.25527271	 4.07293506	 -14.25527271
No	 14.25527271	 6.10940259	 -16.29174024
No	 12.21880518	 4.07293506	 -12.21880518
No	 12.21880518	 6.10940259	 -10.18233765
No	 14.25527271	 4.07293506	 -10.18233765
No	 14.25527271	 6.10940259	 -12.21880518
No	 12.21880518	 4.07293506	 -8.14587012
No	 12.21880518	 6.10940259	 -6.10940259
No	 14.25527271	 6.10940259	 -8.14587012
No	 12.21880518	 6.10940259	 6.10940259
No	 12.21880518	 4.07293506	 8.14587012
No	 12.21880518	 6.10940259	 10.18233765
No	 14.25527271	 4.07293506	 10.18233765
No	 14.25527271	 6.10940259	 8.14587012
No	 12.21880518	 4.07293506	 12.21880518
No	 12.21880518	 6.10940259	 14.25527271
No	 14.25527271	 4.07293506	 14.25527271
No	 14.25527271	 6.10940259	 12.21880518
No	 12.21880518	 4.07293506	 16.29174024
No	 12.21880518	 6.10940259	 18.32820777
No	 14.25527271	 4.07293506	 18.32820777
No	 14.25527271	 6.10940259	 16.29174024
No	 14.25527271	 6.10940259	 20.36467530
No	 12.21880518	 10.18233765	 -22.40114283
No	 14.25527271	 8.14587012	 -22.40114283
No	 14.25527271	 10.18233765	 -24.43761036
No	 12.21880518	 8.14587012	 -20.36467530
No	 12.21880518	 10.18233765	 -18.32820777
No	 14.25527271	 8.14587012	 -18.32820777
No	 14.25527271	 10.18233765	 -20.36467530
No	 12.21880518	 8.14587012	 -16.29174024
No	 12.21880518	 10.18233765	 -14.25527271
No	 14.25527271	 8.14587012	 -14.25527271
No	 14.25527271	 10.18233765	 -16.29174024
No	 12.21880518	 8.14587012	 -12.21880518
No	 12.21880518	 10.18233765	 -10.18233765
No	 14.25527271	 8.14587012	 -10.18233765
No	 14.25527271	 10.18233765	 -12.21880518
No	 12.21880518	 8.14587012	 -8.14587012
No	 12.21880518	 10.18233765	 -6.10940259
No	 14.25527271	 8.14587012	 -6.10940259
No	 14.25527271	 10.18233765	 -8.14587012
No	 12.21880518	 8.14587012	 -4.07293506
No	 12.21880518	 10.18233765	 -2.03646753
No	 14.25527271	 10.18233765	 -4.07293506
No	 12.21880518	 10.18233765	 2.03646753
No	 12.21880518	 8.14587012	 4.07293506
No	 12.21880518	 10.18233765	 6.10940259
No	 14.25527271	 8.14587012	 6.10940259
No	 14.25527271	 10.18233765	 4.07293506
No	 12.21880518	 8.14587012	 8.14587012
No	 12.21880518	 10.18233765	 10.18233765
No	 14.25527271	 8.14587012	 10.18233765
No	 14.25527271	 10.18233765	 8.14587012
No	 12.21880518	 8.14587012	 12.21880518
No	 12.21880518	 10.18233765	 14.25527271
No	 14.25527271	 8.14587012	 14.25527271
No	 14.25527271	 10.18233765	 12.21880518
No	 12.21880518	 8.14587012	 16.29174024
No	 12.21880518	 10.18233765	 18.32820777
No	 14.25527271	 8.14587012	 18.32820777
No	 14.25527271	 10.18233765	 16.29174024
No	 12.21880518	 8.14587012	 20.36467530
No	 12.21880518	 10.18233765	 22.40114283
No	 14.25527271	 8.14587012	 22.40114283
No	 14.25527271	 10.18233765	 20.36467530
No	 14.25527271	 10.18233765	 24.43761036
No	 12.21880518	 14.25527271	 -26.47407789
No	 14.25527271	 12.21880518	 -26.47407789
No	 14.25527271	 14.25527271	 -28.51054542
No	 12.21880518	 12.21880518	 -24.43761036
No	 12.21880518	 14.25527271	 -22.40114283
No	 14.25527271	 12.21880518	 -22.40114283
No	 14.25527271	 14.25527271	 -24.43761036
No	 12.21880518	 12.21880518	 -20.36467530
No	 12.21880518	 14.25527271	 -18.32820777
No	 14.25527271	 12.21880518	 -18.32820777
No	 14.25527271	 14.25527271	 -20.36467530
No	 12.21880518	 12.21880518	 -16.29174024
No	 12.21880518	 14.25527271	 -14.25527271
No	 14.25527271	 12.21880518	 -14.25527271
No	 14.25527271	 14.25527271	 -16.29174024
No	 12.21880518	 12.21880518	 -12.21880518
No	 12.21880518	 14.25527271	 -10.18233765
No	 14.25527271	 12.21880518	 -10.18233765
No	 14.25527271	 14.25527271	 -12.21880518
No	 12.21880518	 12.21880518	 -8.14587012
No	 12.21880518	 14.25527271	 -6.10940259
No	 14.25527271	 12.21880518	 -6.10940259
No	 14.25527271	 14.25527271	 -8.14587012
No	 12.21880518	 12.21880518	 -4.07293506
No	 12.21880518	 14.25527271	 -2.03646753
No	 14.25527271	 12.21880518	 -2.03646753
No	 14.25527271	 14.25527271	 -4.07293506
No	 12.21880518	 12.21880518	 -0.00000000
No	 12.21880518	 14.25527271	 2.03646753
No	 14.25527271	 12.21880518	 2.03646753
No	 14.25527271	 14.25527271	 -0.00000000
No	 12.21880518	 12.21880518	 4.07293506
No	 12.21880518	 14.25527271	 6.10940259
No	 14.25527271	 12.21880518	 6.10940259
No	 14.25527271	 14.25527271	 4.07293506
No	 12.21880518	 12.21880518	 8.14587012
No	 12.21880518	 14.25527271	 10.18233765
No	 14.25527271	 12.21880518	 10.18233765
No	 14.25527271	 14.25527271	 8.14587012
No	 12.21880518	 12.21880518	 12.21880518
No	 12.21880518	 14.25527271	 14.25527271
No	 14.25527271	 12.21880518	 14.25527271
No	 14.25527271	 14.25527271	 12.21880518
No	 12.21880518	 12.21880518	 16.29174024
No	 12.21880518	 14.25527271	 18.32820777
No	 14.25527271	 12.21880518	 18.32820777
No	 14.25527271	 14.25527271	 16.29174024
No	 12.21880518	 12.21880518	 20.36467530
No	 12.21880518	 14.25527271	 22.40114283
No	 14.25527271	 12.21880518	 22.40114283
No	 14.25527271	 14.25527271	 20.36467530
No	 12.21880518	 12.21880518	 24.43761036
No	 12.21880518	 14.25527271	 26.47407789
No	 14.25527271	 12.21880518	 26.47407789
No	 14.25527271	 14.25527271	 24.43761036
No	 14.25527271	 14.25527271	 28.51054542
No	 12.21880518	 18.32820777	 -30.54701295
No	 14.25527271	 16.29174024	 -30.54701295
No	 14.25527271	 18.32820777	 -32.58348048
No	 12.21880518	 16.29174024	 -28.51054542
No	 12.21880518	 18.32820777	 -26.47407789
No	 14.25527271	 16.29174024	 -26.47407789
No	 14.25527271	 18.32820777	 -28.51054542
No	 12.21880518	 16.29174024	 -24.43761036
No	 12.21880518	 18.32820777	 -22.40114283
No	 14.25527271	 16.29174024	 -22.40114283
No	 14.25527271	 18.32820777	 -24.43761036
No	 12.21880518	 16.29174024	 -20.36467530
No	 12.21880518	 18.32820777	 -18.32820777
No	 14.25527271	 16.29174024	 -18.32820777
No	 14.25527271	 18.32820777	 -20.36467530
No	 12.21880518	 16.29174024	 -16.29174024
No	 12.21880518	 18.32820777	 -14.25527271
No	 14.25527271	 16.29174024	 -14.25527271
No	 14.25527271	 18.32820777	 -16.29174024
No	 12.21880518	 16.29174024	 -12.21880518
No	 12.21880518	 18.32820777	 -10.18233765
No	 14.25527271	 16.29174024	 -10.18233765
No	 14.25527271	 18.32820777	 -12.21880518
No	 12.21880518	 16.29174024	 -8.14587012
No	 12.21880518	 18.32820777	 -6.10940259
No	 14.25527271	 16.29174024	 -6.10940259
No	 14.25527271	 18.32820777	 -8.14587012
No	 12.21880518	 16.29174024	 -4.07293506
No	 14.25527271	 16.29174024	 -2.03646753
No	 14.25527271	 18.32820777	 -4.07293506
No	 14.25527271	 16.29174024	 2.03646753
No	 12.21880518	 16.29174024	 4.07293506
No	 12.21880518	 18.32820777	 6.10940259
No	 14.25527271	 16.29174024	 6.10940259
No	 14.25527271	 18.32820777	 4.07293506
No	 12.21880518	 16.29174024	 8.14587012
No	 12.21880518	 18.32820777	 10.18233765
No	 14.25527271	 16.29174024	 10.18233765
No	 14.25527271	 18.32820777	 8.14587012
No	 12.21880518	 16.29174024	 12.21880518
No	 12.21880518	 18.32820777	 14.25527271
No	 14.25527271	 16.29174024	 14.25527271
No	 14.25527271	 18.32820777	 12.21880518
No	 12.21880518	 16.29174024	 16.29174024
No	 12.21880518	 18.32820777	 18.32820777
No	 14.25527271	 16.29174024	 18.32820777
No	 14.25527271	 18.32820777	 16.29174024
No	 12.21880518	 16.29174024	 20.36467530
No	 12.21880518	 18.32820777	 22.40114283
No	 14.25527271	 16.29174024	 22.40114283
No	 14.25527271	 18.32820777	 20.36467530
No	 12.21880518	 16.29174024	 24.43761036
No	 12.21880518	 18.32820777	 26.47407789
No	 14.25527271	 16.29174024	 26.47407789
No	 14.25527271	 18.32820777	 24.43761036
No	 12.21880518	 16.29174024	 28.51054542
No	 12.21880518	 18.32820777	 30.54701295
No	 14.25527271	 16.29174024	 30.54701295
No	 14.25527271	 18.32820777	 28.51054542
No	 14.25527271	 18.32820777	 32.58348048
Co	 14.25527271	 22.40114283	 -40.72935060
No	 12.21880518	 22.40114283	 -34.61994801
No	 14.25527271	 20.36467530	 -34.61994801
No	 14.25527271	 22.40114283	 -36.65641554
No	 12.21880518	 20.36467530	 -32.58348048
No	 12.21880518	 22.40114283	 -30.54701295
No	 14.25527271	 20.36467530	 -30.54701295
No	 14.25527271	 22.40114283	 -32.58348048
No	 12.21880518	 20.36467530	 -28.51054542
No	 12.21880518	 22.40114283	 -26.47407789
No	 14.25527271	 20.36467530	 -26.47407789
No	 14.25527271	 22.40114283	 -28.51054542
No	 12.21880518	 20.36467530	 -24.43761036
No	 12.21880518	 22.40114283	 -22.40114283
No	 14.25527271	 20.36467530	 -22.40114283
No	 14.25527271	 22.40114283	 -24.43761036
No	 12.21880518	 20.36467530	 -20.36467530
No	 12.21880518	 22.40114283	 -18.32820777
No	 14.25527271	 20.36467530	 -18.32820777
No	 14.25527271	 22.40114283	 -20.36467530
No	 12.21880518	 20.36467530	 -16.29174024
No	 12.21880518	 22.40114283	 -14.25527271
No	 14.25527271	 20.36467530	 -14.25527271
No	 14.25527271	 22.40114283	 -16.29174024
No	 12.21880518	 20.36467530	 -12.21880518
No	 12.21880518	 22.40114283	 -10.18233765
No	 14.25527271	 20.36467530	 -10.18233765
No	 14.25527271	 22.40114283	 -12.21880518
No	 12.21880518	 20.36467530	 -8.14587012
No	 14.25527271	 20.36467530	 -6.10940259
No	 14.25527271	 22.40114283	 -8.14587012
No	 14.25527271	 20.36467530	 6.10940259
No	 12.21880518	 20.36467530	 8.14587012
No	 12.21880518	 22.40114283	 10.18233765
No	 14.25527271	 20.36467530	 10.18233765
No	 14.25527271	 22.40114283	 8.14587012
No	 12.21880518	 20.36467530	 12.21880518
No	 12.21880518	 22.40114283	 14.25527271
No	 14.25527271	 20.36467530	 14.25527271
No	 14.25527271	 22.40114283	 12.21880518
No	 12.21880518	 20.36467530	 16.29174024
No	 12.21880518	 22.40114283	 18.32820777
No	 14.25527271	 20.36467530	 18.32820777
No	 14.25527271	 22.40114283	 16.29174024
No	 12.21880518	 20.36467530	 20.36467530
No	 12.21880518	 22.40114283	 22.40114283
No	 14.25527271	 20.36467530	 22.40114283
No	 14.25527271	 22.40114283	 20.36467530
No	 12.21880518	 20.36467530	 24.43761036
No	 12.21880518	 22.40114283	 26.47407789
No	 14.25527271	 20.36467530	 26.47407789
No	 14.25527271	 22.40114283	 24.43761036
No	 12.21880518	 20.36467530	 28.51054542
No	 12.21880518	 22.40114283	 30.54701295
No	 14.25527271	 20.36467530	 30.54701295
No	 14.25527271	 22.40114283	 28.51054542
No	 12.21880518	 20.36467530	 32.58348048
No	 12.21880518	 22.40114283	 34.61994801
No	 14.25527271	 20.36467530	 34.61994801
No	 14.25527271	 22.40114283	 32.58348048
No	 14.25527271	 22.40114283	 36.65641554
Co	 12.21880518	 24.43761036	 -40.72935060
No	 12.21880518	 26.47407789	 -38.69288307
No	 14.25527271	 24.43761036	 -38.69288307
Co	 14.25527271	 26.47407789	 -40.72935060
No	 12.21880518	 24.43761036	 -36.65641554
No	 12.21880518	 26.47407789	 -34.61994801
No	 14.25527271	 24.43761036	 -34.61994801
No	 14.25527271	 26.47407789	 -36.65641554
No	 12.21880518	 24.43761036	 -32.58348048
No	 12.21880518	 26.47407789	 -30.54701295
No	 14.25527271	 24.43761036	 -30.54701295
No	 14.25527271	 26.47407789	 -32.58348048
No	 12.21880518	 24.43761036	 -28.51054542
No	 12.21880518	 26.47407789	 -26.47407789
No	 14.25527271	 24.43761036	 -26.47407789
No	 14.25527271	 26.47407789	 -28.51054542
No	 12.21880518	 24.43761036	 -24.43761036
No	 12.21880518	 26.47407789	 -22.40114283
No	 14.25527271	 24.43761036	 -22.40114283
No	 14.25527271	 26.47407789	 -24.43761036
No	 12.21880518	 24.43761036	 -20.36467530
No	 12.21880518	 26.47407789	 -18.32820777
No	 14.25527271	 24.43761036	 -18.32820777
No	 14.25527271	 26.47407789	 -20.36467530
No	 12.21880518	 24.43761036	 -16.29174024
No	 12.21880518	 26.47407789	 -14.25527271
No	 14.25527271	 24.43761036	 -14.25527271
No	 14.25527271	 26.47407789	 -16.29174024
No	 12.21880518	 24.43761036	 -12.21880518
No	 14.25527271	 24.43761036	 -10.18233765
No	 14.25527271	 26.47407789	 -12.21880518
No	 14.25527271	 24.43761036	 10.18233765
No	 12.21880518	 24.43761036	 12.21880518
No	 12.21880518	 26.47407789	 14.25527271
No	 14.25527271	 24.43761036	 14.25527271
No	 14.25527271	 26.47407789	 12.21880518
No	 12.21880518	 24.43761036	 16.29174024
No	 12.21880518	 26.47407789	 18.32820777
No	 14.25527271	 24.43761036	 18.32820777
No	 14.25527271	 26.47407789	 16.29174024
No	 12.21880518	 24.43761036	 20.36467530
No	 12.21880518	 26.47407789	 22.40114283
No	 14.25527271	 24.43761036	 22.40114283
No	 14.25527271	 26.47407789	 20.36467530
No	 12.21880518	 24.43761036	 24.43761036
No	 12.21880518	 26.47407789	 26.47407789
No	 14.25527271	 24.43761036	 26.47407789
No	 14.25527271	 26.47407789	 24.43761036
No	 12.21880518	 24.43761036	 28.51054542
No	 12.21880518	 26.47407789	 30.54701295
No	 14.25527271	 24.43761036	 30.54701295
No	 14.25527271	 26.47407789	 28.51054542
No	 12.21880518	 24.43761036	 32.58348048
No	 12.21880518	 26.47407789	 34.61994801
No	 14.25527271	 24.43761036	 34.61994801
No	 14.25527271	 26.47407789	 32.58348048
No	 12.21880518	 24.43761036	 36.65641554
No	 12.21880518	 26.47407789	 38.69288307
No	 14.25527271	 24.43761036	 38.69288307
No	 14.25527271	 26.47407789	 36.65641554
Co	 12.21880518	 28.51054542	 -40.72935060
No	 12.21880518	 30.54701295	 -38.69288307
No	 14.25527271	 28.51054542	 -38.69288307
Co	 14.25527271	 30.54701295	 -40.72935060
No	 12.21880518	 28.51054542	 -36.65641554
No	 12.21880518	 30.54701295	 -34.61994801
No	 14.25527271	 28.51054542	 -34.61994801
No	 14.25527271	 30.54701295	 -36.65641554
No	 12.21880518	 28.51054542	 -32.58348048
No	 12.21880518	 30.54701295	 -30.54701295
No	 14.25527271	 28.51054542	 -30.54701295
No	 14.25527271	 30.54701295	 -32.58348048
No	 12.21880518	 28.51054542	 -28.51054542
No	 12.21880518	 30.54701295	 -26.47407789
No	 14.25527271	 28.51054542	 -26.47407789
No	 14.25527271	 30.54701295	 -28.51054542
No	 12.21880518	 28.51054542	 -24.43761036
No	 12.21880518	 30.54701295	 -22.40114283
No	 14.25527271	 28.51054542	 -22.40114283
No	 14.25527271	 30.54701295	 -24.43761036
No	 12.21880518	 28.51054542	 -20.36467530
No	 12.21880518	 30.54701295	 -18.32820777
No	 14.25527271	 28.51054542	 -18.32820777
No	 14.25527271	 30.54701295	 -20.36467530
No	 12.21880518	 28.51054542	 -16.29174024
No	 14.25527271	 28.51054542	 -14.25527271
No	 14.25527271	 30.54701295	 -16.29174024
No	 14.25527271	 28.51054542	 14.25527271
No	 12.21880518	 28.51054542	 16.29174024
No	 12.21880518	 30.54701295	 18.32820777
No	 14.25527271	 28.51054542	 18.32820777
No	 14.25527271	 30.54701295	 16.29174024
No	 12.21880518	 28.51054542	 20.36467530
No	 12.21880518	 30.54701295	 22.40114283
No	 14.25527271	 28.51054542	 22.40114283
No	 14.25527271	 30.54701295	 20.36467530
No	 12.21880518	 28.51054542	 24.43761036
No	 12.21880518	 30.54701295	 26.47407789
No	 14.25527271	 28.51054542	 26.47407789
No	 14.25527271	 30.54701295	 24.43761036
No	 12.21880518	 28.51054542	 28.51054542
No	 12.21880518	 30.54701295	 30.54701295
No	 14.25527271	 28.51054542	 30.54701295
No	 14.25527271	 30.54701295	 28.51054542
No	 12.21880518	 28.51054542	 32.58348048
No	 12.21880518	 30.54701295	 34.61994801
No	 14.25527271	 28.51054542	 34.61994801
No	 14.25527271	 30.54701295	 32.58348048
No	 12.21880518	 28.51054542	 36.65641554
No	 12.21880518	 30.54701295	 38.69288307
No	 14.25527271	 28.51054542	 38.69288307
No	 14.25527271	 30.54701295	 36.65641554
Co	 12.21880518	 32.58348048	 -40.72935060
No	 12.21880518	 34.61994801	 -38.69288307
No	 14.25527271	 32.58348048	 -38.69288307
Co	 14.25527271	 34.61994801	 -40.72935060
No	 12.21880518	 32.58348048	 -36.65641554
No	 12.21880518	 34.61994801	 -34.61994801
No	 14.25527271	 32.58348048	 -34.61994801
No	 14.25527271	 34.61994801	 -36.65641554
No	 12.21880518	 32.58348048	 -32.58348048
No	 12.21880518	 34.61994801	 -30.54701295
No	 14.25527271	 32.58348048	 -30.54701295
No	 14.25527271	 34.61994801	 -32.58348048
No	 12.21880518	 32.58348048	 -28.51054542
No	 12.21880518	 34.61994801	 -26.47407789
No	 14.25527271	 32.58348048	 -26.47407789
No	 14.25527271	 34.61994801	 -28.51054542
No	 12.21880518	 32.58348048	 -24.43761036
No	 12.21880518	 34.61994801	 -22.40114283
No	 14.25527271	 32.58348048	 -22.40114283
No	 14.25527271	 34.61994801	 -24.43761036
No	 12.21880518	 32.58348048	 -20.36467530
No	 14.25527271	 32.58348048	 -18.32820777
No	 14.25527271	 34.61994801	 -20.36467530
No	 14.25527271	 32.58348048	 18.32820777
No	 12.21880518	 32.58348048	 20.36467530
No	 12.21880518	 34.61994801	 22.40114283
No	 14.25527271	 32.58348048	 22.40114283
No	 14.25527271	 34.61994801	 20.36467530
No	 12.21880518	 32.58348048	 24.43761036
No	 12.21880518	 34.61994801	 26.47407789
No	 14.25527271	 32.58348048	 26.47407789
No	 14.25527271	 34.61994801	 24.43761036
No	 12.21880518	 32.58348048	 28.51054542
No	 12.21880518	 34.61994801	 30.54701295
No	 14.25527271	 32.58348048	 30.54701295
No	 14.25527271	 34.61994801	 28.51054542
No	 12.21880518	 32.58348048	 32.58348048
No	 12.21880518	 34.61994801	 34.61994801
No	 14.25527271	 32.58348048	 34.61994801
No	 14.25527271	 34.61994801	 32.58348048
No	 12.21880518	 32.58348048	 36.65641554
No	 12.21880518	 34.61994801	 38.69288307
No	 14.25527271	 32.58348048	 38.69288307
No	 14.25527271	 34.61994801	 36.65641554
Co	 12.21880518	 36.65641554	 -40.72935060
No	 12.21880518	 38.69288307	 -38.69288307
No	 14.25527271	 36.65641554	 -38.69288307
Co	 14.25527271	 38.69288307	 -40.72935060
No	 12.21880518	 36.65641554	 -36.65641554
No	 12.21880518	 38.69288307	 -34.61994801
No	 14.25527271	 36.65641554	 -34.61994801
No	 14.25527271	 38.69288307	 -36.65641554
No	 12.21880518	 36.65641554	 -32.58348048
No	 12.21880518	 38.69288307	 -30.54701295
No	 14.25527271	 36.65641554	 -30.54701295
No	 14.25527271	 38.69288307	 -32.58348048
No	 12.21880518	 36.65641554	 -28.51054542
No	 12.21880518	 38.69288307	 -26.47407789
No	 14.25527271	 36.65641554	 -26.47407789
No	 14.25527271	 38.69288307	 -28.51054542
No	 12.21880518	 36.65641554	 -24.43761036
No	 14.25527271	 36.65641554	 -22.40114283
No	 14.25527271	 38.69288307	 -24.43761036
No	 14.25527271	 36.65641554	 22.40114283
No	 12.21880518	 36.65641554	 24.43761036
No	 12.21880518	 38.69288307	 26.47407789
No	 14.25527271	 36.65641554	 26.47407789
No	 14.25527271	 38.69288307	 24.43761036
No	 12.21880518	 36.65641554	 28.51054542
No	 12.21880518	 38.69288307	 30.54701295
No	 14.25527271	 36.65641554	 30.54701295
No	 14.25527271	 38.69288307	 28.51054542
No	 12.21880518	 36.65641554	 32.58348048
No	 12.21880518	 38.69288307	 34.61994801
No	 14.25527271	 36.65641554	 34.61994801
No	 14.25527271	 38.69288307	 32.58348048
No	 12.21880518	 36.65641554	 36.65641554
No	 12.21880518	 38.69288307	 38.69288307
No	 14.25527271	 36.65641554	 38.69288307
No	 14.25527271	 38.69288307	 36.65641554
Co	 16.29174024	 -40.72935060	 -40.72935060
No	 16.29174024	 -38.69288307	 -38.69288307
Co	 18.32820777	 -40.72935060	 -38.69288307
Co	 18.32820777	 -38.69288307	 -40.72935060
Co	 16.29174024	 -40.72935060	 -36.65641554
No	 16.29174024	 -38.69288307	 -34.61994801
Co	 18.32820777	 -40.72935060	 -34.61994801
No	 18.32820777	 -38.69288307	 -36.65641554
Co	 16.29174024	 -40.72935060	 -32.58348048
No	 16.29174024	 -38.69288307	 -30.54701295
Co	 18.32820777	 -40.72935060	 -30.54701295
No	 18.32820777	 -38.69288307	 -32.58348048
Co	 16.29174024	 -40.72935060	 -28.51054542
No	 16.29174024	 -38.69288307	 -26.47407789
Co	 18.32820777	 -40.72935060	 -26.47407789
No	 18.32820777	 -38.69288307	 -28.51054542
Co	 16.29174024	 -40.72935060	 -24.43761036
No	 16.29174024	 -38.69288307	 -22.40114283
Co	 18.32820777	 -40.72935060	 -22.40114283
No	 18.32820777	 -38.69288307	 -24.43761036
Co	 16.29174024	 -40.72935060	 -20.36467530
Co	 18.32820777	 -40.72935060	 -18.32820777
No	 18.32820777	 -38.69288307	 -20.36467530
Co	 18.32820777	 -40.72935060	 18.32820777
Co	 16.29174024	 -40.72935060	 20.36467530
No	 16.29174024	 -38.69288307	 22.40114283
Co	 18.32820777	 -40.72935060	 22.40114283
No	 18.32820777	 -38.69288307	 20.36467530
Co	 16.29174024	 -40.72935060	 24.43761036
No	 16.29174024	 -38.69288307	 26.47407789
Co	 18.32820777	 -40.72935060	 26.47407789
No	 18.32820777	 -38.69288307	 24.43761036
Co	 16.29174024	 -40.72935060	 28.51054542
No	 16.29174024	 -38.69288307	 30.54701295
Co	 18.32820777	 -40.72935060	 30.54701295
No	 18.32820777	 -38.69288307	 28.51054542
Co	 16.29174024	 -40.72935060	 32.58348048
No	 16.29174024	 -38.69288307	 34.61994801
Co	 18.32820777	 -40.72935060	 34.61994801
No	 18.32820777	 -38.69288307	 32.58348048
Co	 16.29174024	 -40.72935060	 36.65641554
No	 16.29174024	 -38.69288307	 38.69288307
Co	 18.32820777	 -40.72935060	 38.69288307
No	 18.32820777	 -38.69288307	 36.65641554
Co	 16.29174024	 -36.65641554	 -40.72935060
No	 16.29174024	 -34.61994801	 -38.69288307
No	 18.32820777	 -36.65641554	 -38.69288307
Co	 18.32820777	 -34.61994801	 -40.72935060
No	 16.29174024	 -36.65641554	 -36.65641554
No	 16.29174024	 -34.61994801	 -34.61994801
No	 18.32820777	 -36.65641554	 -34.61994801
No	 18.32820777	 -34.61994801	 -36.65641554
No	 16.29174024	 -36.65641554	 -32.58348048
No	 16.29174024	 -34.61994801	 -30.54701295
No	 18.32820777	 -36.65641554	 -30.54701295
No	 18.32820777	 -34.61994801	 -32.58348048
No	 16.29174024	 -36.65641554	 -28.51054542
No	 16.29174024	 -34.61994801	 -26.47407789
No	 18.32820777	 -36.65641554	 -26.47407789
No	 18.32820777	 -34.61994801	 -28.51054542
No	 16.29174024	 -36.65641554	 -24.43761036
No	 16.29174024	 -34.61994801	 -22.40114283
No	 18.32820777	 -36.65641554	 -22.40114283
No	 18.32820777	 -34.61994801	 -24.43761036
No	 16.29174024	 -36.65641554	 -20.36467530
No	 16.29174024	 -34.61994801	 -18.32820777
No	 18.32820777	 -36.65641554	 -18.32820777
No	 18.32820777	 -34.61994801	 -20.36467530
No	 18.32820777	 -34.61994801	 -16.29174024
No	 16.29174024	 -34.61994801	 18.32820777
No	 18.32820777	 -36.65641554	 18.32820777
No	 18.32820777	 -34.61994801	 16.29174024
No	 16.29174024	 -36.65641554	 20.36467530
No	 16.29174024	 -34.61994801	 22.40114283
No	 18.32820777	 -36.65641554	 22.40114283
No	 18.32820777	 -34.61994801	 20.36467530
No	 16.29174024	 -36.65641554	 24.43761036
No	 16.29174024	 -34.61994801	 26.47407789
No	 18.32820777	 -36.65641554	 26.47407789
No	 18.32820777	 -34.61994801	 24.43761036
No	 16.29174024	 -36.65641554	 28.51054542
No	 16.29174024	 -34.61994801	 30.54701295
No	 18.32820777	 -36.65641554	 30.54701295
No	 18.32820777	 -34.61994801	 28.51054542
No	 16.29174024	 -36.65641554	 32.58348048
No	 16.29174024	 -34.61994801	 34.61994801
No	 18.32820777	 -36.65641554	 34.61994801
No	 18.32820777	 -34.61994801	 32.58348048
No	 16.29174024	 -36.65641554	 36.65641554
No	 16.29174024	 -34.61994801	 38.69288307
No	 18.32820777	 -36.65641554	 38.69288307
No	 18.32820777	 -34.61994801	 36.65641554
Co	 16.29174024	 -32.58348048	 -40.72935060
No	 16.29174024	 -30.54701295	 -38.69288307
No	 18.32820777	 -32.58348048	 -38.69288307
Co	 18.32820777	 -30.54701295	 -40.72935060
No	 16.29174024	 -32.58348048	 -36.65641554
No	 16.29174024	 -30.54701295	 -34.61994801
No	 18.32820777	 -32.58348048	 -34.61994801
No	 18.32820777	 -30.54701295	 -36.65641554
No	 16.29174024	 -32.58348048	 -32.58348048
No	 16.29174024	 -30.54701295	 -30.54701295
No	 18.32820777	 -32.58348048	 -30.54701295
No	 18.32820777	 -30.54701295	 -32.58348048
No	 16.29174024	 -32.58348048	 -28.51054542
No	 16.29174024	 -30.54701295	 -26.47407789
No	 18.32820777	 -32.58348048	 -26.47407789
No	 18.32820777	 -30.54701295	 -28.51054542
No	 16.29174024	 -32.58348048	 -24.43761036
No	 16.29174024	 -30.54701295	 -22.40114283
No	 18.32820777	 -32.58348048	 -22.40114283
No	 18.32820777	 -30.54701295	 -24.43761036
No	 16.29174024	 -32.58348048	 -20.36467530
No	 16.29174024	 -30.54701295	 -18.32820777
No	 18.32820777	 -32.58348048	 -18.32820777
No	 18.32820777	 -30.54701295	 -20.36467530
No	 16.29174024	 -32.58348048	 -16.29174024
No	 16.29174024	 -30.54701295	 -14.25527271
No	 18.32820777	 -32.58348048	 -14.25527271
No	 18.32820777	 -30.54701295	 -16.29174024
No	 18.32820777	 -30.54701295	 -12.21880518
No	 16.29174024	 -30.54701295	 14.25527271
No	 18.32820777	 -32.58348048	 14.25527271
No	 18.32820777	 -30.54701295	 12.21880518
No	 16.29174024	 -32.58348048	 16.29174024
No	 16.29174024	 -30.54701295	 18.32820777
No	 18.32820777	 -32.58348048	 18.32820777
No	 18.32820777	 -30.54701295	 16.29174024
No	 16.29174024	 -32.58348048	 20.36467530
No	 16.29174024	 -30.54701295	 22.40114283
No	 18.32820777	 -32.58348048	 22.40114283
No	 18.32820777	 -30.54701295	 20.36467530
No	 16.29174024	 -32.58348048	 24.43761036
No	 16.29174024	 -30.54701295	 26.47407789
No	 18.32820777	 -32.58348048	 26.47407789
No	 18.32820777	 -30.54701295	 24.43761036
No	 16.29174024	 -32.58348048	 28.51054542
No	 16.29174024	 -30.54701295	 30.54701295
No	 18.32820777	 -32.58348048	 30.54701295
No	 18.32820777	 -30.54701295	 28.51054542
No	 16.29174024	 -32.58348048	 32.58348048
No	 16.29174024	 -30.54701295	 34.61994801
No	 18.32820777	 -32.58348048	 34.61994801
No	 18.32820777	 -30.54701295	 32.58348048
No	 16.29174024	 -32.58348048	 36.65641554
No	 16.29174024	 -30.54701295	 38.69288307
No	 18.32820777	 -32.58348048	 38.69288307
No	 18.32820777	 -30.54701295	 36.65641554
Co	 16.29174024	 -28.51054542	 -40.72935060
No	 16.29174024	 -26.47407789	 -38.69288307
No	 18.32820777	 -28.51054542	 -38.69288307
Co	 18.32820777	 -26.47407789	 -40.72935060
No	 16.29174024	 -28.51054542	 -36.65641554
No	 16.29174024	 -26.47407789	 -34.61994801
No	 18.32820777	 -28.51054542	 -34.61994801
No	 18.32820777	 -26.47407789	 -36.65641554
No	 16.29174024	 -28.51054542	 -32.58348048
No	 16.29174024	 -26.47407789	 -30.54701295
No	 18.32820777	 -28.51054542	 -30.54701295
No	 18.32820777	 -26.47407789	 -32.58348048
No	 16.29174024	 -28.51054542	 -28.51054542
No	 16.29174024	 -26.47407789	 -26.47407789
No	 18.32820777	 -28.51054542	 -26.47407789
No	 18.32820777	 -26.47407789	 -28.51054542
No	 16.29174024	 -28.51054542	 -24.43761036
No	 16.29174024	 -26.47407789	 -22.40114283
No	 18.32820777	 -28.51054542	 -22.40114283
No	 18.32820777	 -26.47407789	 -24.43761036
No	 16.29174024	 -28.51054542	 -20.36467530
No	 16.29174024	 -26.47407789	 -18.32820777
No	 18.32820777	 -28.51054542	 -18.32820777
No	 18.32820777	 -26.47407789	 -20.36467530
No	 16.29174024	 -28.51054542	 -16.29174024
No	 16.29174024	 -26.47407789	 -14.25527271
No	 18.32820777	 -28.51054542	 -14.25527271
No	 18.32820777	 -26.47407789	 -16.29174024
No	 16.29174024	 -28.51054542	 -12.21880518
No	 16.29174024	 -26.47407789	 -10.18233765
No	 18.32820777	 -28.51054542	 -10.18233765
No	 18.32820777	 -26.47407789	 -12.21880518
No	 18.32820777	 -26.47407789	 -8.14587012
No	 16.29174024	 -26.47407789	 10.18233765
No	 18.32820777	 -28.51054542	 10.18233765
No	 18.32820777	 -26.47407789	 8.14587012
No	 16.29174024	 -28.51054542	 12.21880518
No	 16.29174024	 -26.47407789	 14.25527271
No	 18.32820777	 -28.51054542	 14.25527271
No	 18.32820777	 -26.47407789	 12.21880518
No	 16.29174024	 -28.51054542	 16.29174024
No	 16.29174024	 -26.47407789	 18.32820777
No	 18.32820777	 -28.51054542	 18.32820777
No	 18.32820777	 -26.47407789	 16.29174024
No	 16.29174024	 -28.51054542	 20.36467530
No	 16.29174024	 -26.47407789	 22.40114283
No	 18.32820777	 -28.51054542	 22.40114283
No	 18.32820777	 -26.47407789	 20.36467530
No	 16.29174024	 -28.51054542	 24.43761036
No	 16.29174024	 -26.47407789	 26.47407789
No	 18.32820777	 -28.51054542	 26.47407789
No	 18.32820777	 -26.47407789	 24.43761036
No	 16.29174024	 -28.51054542	 28.51054542
No	 16.29174024	 -26.47407789	 30.54701295
No	 18.32820777	 -28.51054542	 30.54701295
No	 18.32820777	 -26.47407789	 28.51054542
No	 16.29174024	 -28.51054542	 32.58348048
No	 16.29174024	 -26.47407789	 34.61994801
No	 18.32820777	 -28.51054542	 34.61994801
No	 18.32820777	 -26.47407789	 32.58348048
No	 16.29174024	 -28.51054542	 36.65641554
No	 16.29174024	 -26.47407789	 38.69288307
No	 18.32820777	 -28.51054542	 38.69288307
No	 18.32820777	 -26.47407789	 36.65641554
Co	 16.29174024	 -24.43761036	 -40.72935060
No	 16.29174024	 -22.40114283	 -38.69288307
No	 18.32820777	 -24.43761036	 -38.69288307
Co	 18.32820777	 -22.40114283	 -40.72935060
No	 16.29174024	 -24.43761036	 -36.65641554
No	 16.29174024	 -22.40114283	 -34.61994801
No	 18.32820777	 -24.43761036	 -34.61994801
No	 18.32820777	 -22.40114283	 -36.65641554
No	 16.29174024	 -24.43761036	 -32.58348048
No	 16.29174024	 -22.40114283	 -30.54701295
No	 18.32820777	 -24.43761036	 -30.54701295
No	 18.32820777	 -22.40114283	 -32.58348048
No	 16.29174024	 -24.43761036	 -28.51054542
No	 16.29174024	 -22.40114283	 -26.47407789
No	 18.32820777	 -24.43761036	 -26.47407789
No	 18.32820777	 -22.40114283	 -28.51054542
No	 16.29174024	 -24.43761036	 -24.43761036
No	 16.29174024	 -22.40114283	 -22.40114283
No	 18.32820777	 -24.43761036	 -22.40114283
No	 18.32820777	 -22.40114283	 -24.43761036
No	 16.29174024	 -24.43761036	 -20.36467530
No	 16.29174024	 -22.40114283	 -18.32820777
No	 18.32820777	 -24.43761036	 -18.32820777
No	 18.32820777	 -22.40114283	 -20.36467530
No	 16.29174024	 -24.43761036	 -16.29174024
No	 16.29174024	 -22.40114283	 -14.25527271
No	 18.32820777	 -24.43761036	 -14.25527271
No	 18.32820777	 -22.40114283	 -16.29174024
No	 16.29174024	 -24.43761036	 -12.21880518
No	 16.29174024	 -22.40114283	 -10.18233765
No	 18.32820777	 -24.43761036	 -10.18233765
No	 18.32820777	 -22.40114283	 -12.21880518
No	 16.29174024	 -24.43761036	 -8.14587012
No	 16.29174024	 -22.40114283	 -6.10940259
No	 18.32820777	 -24.43761036	 -6.10940259
No	 18.32820777	 -22.40114283	 -8.14587012
No	 18.32820777	 -22.40114283	 -4.07293506
No	 16.29174024	 -22.40114283	 6.10940259
No	 18.32820777	 -24.43761036	 6.10940259
No	 18.32820777	 -22.40114283	 4.07293506
No	 16.29174024	 -24.43761036	 8.14587012
No	 16.29174024	 -22.40114283	 10.18233765
No	 18.32820777	 -24.43761036	 10.18233765
No	 18.32820777	 -22.40114283	 8.14587012
No	 16.29174024	 -24.43761036	 12.21880518
No	 16.29174024	 -22.40114283	 14.25527271
No	 18.32820777	 -24.43761036	 14.25527271
No	 18.32820777	 -22.40114283	 12.21880518
No	 16.29174024	 -24.43761036	 16.29174024
No	 16.29174024	 -22.40114283	 18.32820777
No	 18.32820777	 -24.43761036	 18.32820777
No	 18.32820777	 -22.40114283	 16.29174024
No	 16.29174024	 -24.43761036	 20.36467530
No	 16.29174024	 -22.40114283	 22.40114283
No	 18.32820777	 -24.43761036	 22.40114283
No	 18.32820777	 -22.40114283	 20.36467530
No	 16.29174024	 -24.43761036	 24.43761036
No	 16.29174024	 -22.40114283	 26.47407789
No	 18.32820777	 -24.43761036	 26.47407789
No	 18.32820777	 -22.40114283	 24.43761036
No	 16.29174024	 -24.43761036	 28.51054542
No	 16.29174024	 -22.40114283	 30.54701295
No	 18.32820777	 -24.43761036	 30.54701295
No	 18.32820777	 -22.40114283	 28.51054542
No	 16.29174024	 -24.43761036	 32.58348048
No	 16.29174024	 -22.40114283	 34.61994801
No	 18.32820777	 -24.43761036	 34.61994801
No	 18.32820777	 -22.40114283	 32.58348048
No	 16.29174024	 -24.43761036	 36.65641554
No	 16.29174024	 -22.40114283	 38.69288307
No	 18.32820777	 -24.43761036	 38.69288307
No	 18.32820777	 -22.40114283	 36.65641554
Co	 16.29174024	 -20.36467530	 -40.72935060
No	 18.32820777	 -20.36467530	 -38.69288307
Co	 18.32820777	 -18.32820777	 -40.72935060
No	 16.29174024	 -20.36467530	 -36.65641554
No	 16.29174024	 -18.32820777	 -34.61994801
No	 18.32820777	 -20.36467530	 -34.61994801
No	 18.32820777	 -18.32820777	 -36.65641554
No	 16.29174024	 -20.36467530	 -32.58348048
No	 16.29174024	 -18.32820777	 -30.54701295
No	 18.32820777	 -20.36467530	 -30.54701295
No	 18.32820777	 -18.32820777	 -32.58348048
No	 16.29174024	 -20.36467530	 -28.51054542
No	 16.29174024	 -18.32820777	 -26.47407789
No	 18.32820777	 -20.36467530	 -26.47407789
No	 18.32820777	 -18.32820777	 -28.51054542
No	 16.29174024	 -20.36467530	 -24.43761036
No	 16.29174024	 -18.32820777	 -22.40114283
No	 18.32820777	 -20.36467530	 -22.40114283
No	 18.32820777	 -18.32820777	 -24.43761036
No	 16.29174024	 -20.36467530	 -20.36467530
No	 16.29174024	 -18.32820777	 -18.32820777
No	 18.32820777	 -20.36467530	 -18.32820777
No	 18.32820777	 -18.32820777	 -20.36467530
No	 16.29174024	 -20.36467530	 -16.29174024
No	 16.29174024	 -18.32820777	 -14.25527271
No	 18.32820777	 -20.36467530	 -14.25527271
No	 18.32820777	 -18.32820777	 -16.29174024
No	 16.29174024	 -20.36467530	 -12.21880518
No	 16.29174024	 -18.32820777	 -10.18233765
No	 18.32820777	 -20.36467530	 -10.18233765
No	 18.32820777	 -18.32820777	 -12.21880518
No	 16.29174024	 -20.36467530	 -8.14587012
No	 16.29174024	 -18.32820777	 -6.10940259
No	 18.32820777	 -20.36467530	 -6.10940259
No	 18.32820777	 -18.32820777	 -8.14587012
No	 16.29174024	 -20.36467530	 -4.07293506
No	 16.29174024	 -18.32820777	 -2.03646753
No	 18.32820777	 -20.36467530	 -2.03646753
No	 18.32820777	 -18.32820777	 -4.07293506
No	 16.29174024	 -18.32820777	 2.03646753
No	 18.32820777	 -20.36467530	 2.03646753
No	 18.32820777	 -18.32820777	 -0.00000000
No	 16.29174024	 -20.36467530	 4.07293506
No	 16.29174024	 -18.32820777	 6.10940259
No	 18.32820777	 -20.36467530	 6.10940259
No	 18.32820777	 -18.32820777	 4.07293506
No	 16.29174024	 -20.36467530	 8.14587012
No	 16.29174024	 -18.32820777	 10.18233765
No	 18.32820777	 -20.36467530	 10.18233765
No	 18.32820777	 -18.32820777	 8.14587012
No	 16.29174024	 -20.36467530	 12.21880518
No	 16.29174024	 -18.32820777	 14.25527271
No	 18.32820777	 -20.36467530	 14.25527271
No	 18.32820777	 -18.32820777	 12.21880518
No	 16.29174024	 -20.36467530	 16.29174024
No	 16.29174024	 -18.32820777	 18.32820777
No	 18.32820777	 -20.36467530	 18.32820777
No	 18.32820777	 -18.32820777	 16.29174024
No	 16.29174024	 -20.36467530	 20.36467530
No	 16.29174024	 -18.32820777	 22.40114283
No	 18.32820777	 -20.36467530	 22.40114283
No	 18.32820777	 -18.32820777	 20.36467530
No	 16.29174024	 -20.36467530	 24.43761036
No	 16.29174024	 -18.32820777	 26.47407789
No	 18.32820777	 -20.36467530	 26.47407789
No	 18.32820777	 -18.32820777	 24.43761036
No	 16.29174024	 -20.36467530	 28.51054542
No	 16.29174024	 -18.32820777	 30.54701295
No	 18.32820777	 -20.36467530	 30.54701295
No	 18.32820777	 -18.32820777	 28.51054542
No	 16.29174024	 -20.36467530	 32.58348048
No	 16.29174024	 -18.32820777	 34.61994801
No	 18.32820777	 -20.36467530	 34.61994801
No	 18.32820777	 -18.32820777	 32.58348048
No	 16.29174024	 -20.36467530	 36.65641554
No	 18.32820777	 -20.36467530	 38.69288307
No	 18.32820777	 -18.32820777	 36.65641554
No	 18.32820777	 -16.29174024	 -34.61994801
No	 16.29174024	 -16.29174024	 -32.58348048
No	 16.29174024	 -14.25527271	 -30.54701295
No	 18.32820777	 -16.29174024	 -30.54701295
No	 18.32820777	 -14.25527271	 -32.58348048
No	 16.29174024	 -16.29174024	 -28.51054542
No	 16.29174024	 -14.25527271	 -26.47407789
No	 18.32820777	 -16.29174024	 -26.47407789
No	 18.32820777	 -14.25527271	 -28.51054542
No	 16.29174024	 -16.29174024	 -24.43761036
No	 16.29174024	 -14.25527271	 -22.40114283
No	 18.32820777	 -16.29174024	 -22.40114283
No	 18.32820777	 -14.25527271	 -24.43761036
No	 16.29174024	 -16.29174024	 -20.36467530
No	 16.29174024	 -14.25527271	 -18.32820777
No	 18.32820777	 -16.29174024	 -18.32820777
No	 18.32820777	 -14.25527271	 -20.36467530
No	 16.29174024	 -16.29174024	 -16.29174024
No	 16.29174024	 -14.25527271	 -14.25527271
No	 18.32820777	 -16.29174024	 -14.25527271
No	 18.32820777	 -14.25527271	 -16.29174024
No	 16.29174024	 -16.29174024	 -12.21880518
No	 16.29174024	 -14.25527271	 -10.18233765
No	 18.32820777	 -16.29174024	 -10.18233765
No	 18.32820777	 -14.25527271	 -12.21880518
No	 16.29174024	 -16.29174024	 -8.14587012
No	 16.29174024	 -14.25527271	 -6.10940259
No	 18.32820777	 -16.29174024	 -6.10940259
No	 18.32820777	 -14.25527271	 -8.14587012
No	 16.29174024	 -16.29174024	 -4.07293506
No	 16.29174024	 -14.25527271	 -2.03646753
No	 18.32820777	 -16.29174024	 -2.03646753
No	 18.32820777	 -14.25527271	 -4.07293506
No	 16.29174024	 -16.29174024	 -0.00000000
No	 16.29174024	 -14.25527271	 2.03646753
No	 18.32820777	 -16.29174024	 2.03646753
No	 16.29174024	 -16.29174024	 4.07293506
No	 16.29174024	 -14.25527271	 6.10940259
No	 18.32820777	 -16.29174024	 6.10940259
No	 18.32820777	 -14.25527271	 4.07293506
No	 16.29174024	 -16.29174024	 8.14587012
No	 16.29174024	 -14.25527271	 10.18233765
No	 18.32820777	 -16.29174024	 10.18233765
No	 18.32820777	 -14.25527271	 8.14587012
No	 16.29174024	 -16.29174024	 12.21880518
No	 16.29174024	 -14.25527271	 14.25527271
No	 18.32820777	 -16.29174024	 14.25527271
No	 18.32820777	 -14.25527271	 12.21880518
No	 16.29174024	 -16.29174024	 16.29174024
No	 16.29174024	 -14.25527271	 18.32820777
No	 18.32820777	 -16.29174024	 18.32820777
No	 18.32820777	 -14.25527271	 16.29174024
No	 16.29174024	 -16.29174024	 20.36467530
No	 16.29174024	 -14.25527271	 22.40114283
No	 18.32820777	 -16.29174024	 22.40114283
No	 18.32820777	 -14.25527271	 20.36467530
No	 16.29174024	 -16.29174024	 24.43761036
No	 16.29174024	 -14.25527271	 26.47407789
No	 18.32820777	 -16.29174024	 26.47407789
No	 18.32820777	 -14.25527271	 24.43761036
No	 16.29174024	 -16.29174024	 28.51054542
No	 16.29174024	 -14.25527271	 30.54701295
No	 18.32820777	 -16.29174024	 30.54701295
No	 18.32820777	 -14.25527271	 28.51054542
No	 16.29174024	 -16.29174024	 32.58348048
No	 18.32820777	 -16.29174024	 34.61994801
No	 18.32820777	 -14.25527271	 32.58348048
No	 18.32820777	 -12.21880518	 -30.54701295
No	 16.29174024	 -12.21880518	 -28.51054542
No	 16.29174024	 -10.18233765	 -26.47407789
No	 18.32820777	 -12.21880518	 -26.47407789
No	 18.32820777	 -10.18233765	 -28.51054542
No	 16.29174024	 -12.21880518	 -24.43761036
No	 16.29174024	 -10.18233765	 -22.40114283
No	 18.32820777	 -12.21880518	 -22.40114283
No	 18.32820777	 -10.18233765	 -24.43761036
No	 16.29174024	 -12.21880518	 -20.36467530
No	 16.29174024	 -10.18233765	 -18.32820777
No	 18.32820777	 -12.21880518	 -18.32820777
No	 18.32820777	 -10.18233765	 -20.36467530
No	 16.29174024	 -12.21880518	 -16.29174024
No	 16.29174024	 -10.18233765	 -14.25527271
No	 18.32820777	 -12.21880518	 -14.25527271
No	 18.32820777	 -10.18233765	 -16.29174024
No	 16.29174024	 -12.21880518	 -12.21880518
No	 16.29174024	 -10.18233765	 -10.18233765
No	 18.32820777	 -12.21880518	 -10.18233765
No	 18.32820777	 -10.18233765	 -12.21880518
No	 16.29174024	 -12.21880518	 -8.14587012
No	 16.29174024	 -10.18233765	 -6.10940259
No	 18.32820777	 -12.21880518	 -6.10940259
No	 18.32820777	 -10.18233765	 -8.14587012
No	 16.29174024	 -12.21880518	 -4.07293506
No	 16.29174024	 -12.21880518	 4.07293506
No	 16.29174024	 -10.18233765	 6.10940259
No	 18.32820777	 -12.21880518	 6.10940259
No	 16.29174024	 -12.21880518	 8.14587012
No	 16.29174024	 -10.18233765	 10.18233765
No	 18.32820777	 -12.21880518	 10.18233765
No	 18.32820777	 -10.18233765	 8.14587012
No	 16.29174024	 -12.21880518	 12.21880518
No	 16.29174024	 -10.18233765	 14.25527271
No	 18.32820777	 -12.21880518	 14.25527271
No	 18.32820777	 -10.18233765	 12.21880518
No	 16.29174024	 -12.21880518	 16.29174024
No	 16.29174024	 -10.18233765	 18.32820777
No	 18.32820777	 -12.21880518	 18.32820777
No	 18.32820777	 -10.18233765	 16.29174024
No	 16.29174024	 -12.21880518	 20.36467530
No	 16.29174024	 -10.18233765	 22.40114283
No	 18.32820777	 -12.21880518	 22.40114283
No	 18.32820777	 -10.18233765	 20.36467530
No	 16.29174024	 -12.21880518	 24.43761036
No	 16.29174024	 -10.18233765	 26.47407789
No	 18.32820777	 -12.21880518	 26.47407789
No	 18.32820777	 -10.18233765	 24.43761036
No	 16.29174024	 -12.21880518	 28.51054542
No	 18.32820777	 -12.21880518	 30.54701295
No	 18.32820777	 -10.18233765	 28.51054542
No	 18.32820777	 -8.14587012	 -26.47407789
No	 16.29174024	 -8.14587012	 -24.43761036
No	 16.29174024	 -6.10940259	 -22.40114283
No	 18.32820777	 -8.14587012	 -22.40114283
No	 18.32820777	 -6.10940259	 -24.43761036
No	 16.29174024	 -8.14587012	 -20.36467530
No	 16.29174024	 -6.10940259	 -18.32820777
No	 18.32820777	 -8.14587012	 -18.32820777
No	 18.32820777	 -6.10940259	 -20.36467530
No	 16.29174024	 -8.14587012	 -16.29174024
No	 16.29174024	 -6.10940259	 -14.25527271
No	 18.32820777	 -8.14587012	 -14.25527271
No	 18.32820777	 -6.10940259	 -16.29174024
No	 16.29174024	 -8.14587012	 -12.21880518
No	 16.29174024	 -6.10940259	 -10.18233765
No	 18.32820777	 -8.14587012	 -10.18233765
No	 18.32820777	 -6.10940259	 -12.21880518
No	 16.29174024	 -8.14587012	 -8.14587012
No	 16.29174024	 -8.14587012	 8.14587012
No	 16.29174024	 -6.10940259	 10.18233765
No	 18.32820777	 -8.14587012	 10.18233765
No	 16.29174024	 -8.14587012	 12.21880518
No	 16.29174024	 -6.10940259	 14.25527271
No	 18.32820777	 -8.14587012	 14.25527271
No	 18.32820777	 -6.10940259	 12.21880518
No	 16.29174024	 -8.14587012	 16.29174024
No	 16.29174024	 -6.10940259	 18.32820777
No	 18.32820777	 -8.14587012	 18.32820777
No	 18.32820777	 -6.10940259	 16.29174024
No	 16.29174024	 -8.14587012	 20.36467530
No	 16.29174024	 -6.10940259	 22.40114283
No	 18.32820777	 -8.14587012	 22.40114283
No	 18.32820777	 -6.10940259	 20.36467530
No	 16.29174024	 -8.14587012	 24.43761036
No	 18.32820777	 -8.14587012	 26.47407789
No	 18.32820777	 -6.10940259	 24.43761036
No	 18.32820777	 -4.07293506	 -22.40114283
No	 16.29174024	 -4.07293506	 -20.36467530
No	 16.29174024	 -2.03646753	 -18.32820777
No	 18.32820777	 -4.07293506	 -18.32820777
No	 18.32820777	 -2.03646753	 -20.36467530
No	 16.29174024	 -4.07293506	 -16.29174024
No	 16.29174024	 -2.03646753	 -14.25527271
No	 18.32820777	 -4.07293506	 -14.25527271
No	 18.32820777	 -2.03646753	 -16.29174024
No	 16.29174024	 -4.07293506	 -12.21880518
No	 16.29174024	 -4.07293506	 12.21880518
No	 16.29174024	 -2.03646753	 14.25527271
No	 18.32820777	 -4.07293506	 14.25527271
No	 16.29174024	 -4.07293506	 16.29174024
No	 16.29174024	 -2.03646753	 18.32820777
No	 18.32820777	 -4.07293506	 18.32820777
No	 18.32820777	 -2.03646753	 16.29174024
No	 16.29174024	 -4.07293506	 20.36467530
No	 18.32820777	 -4.07293506	 22.40114283
No	 18.32820777	 -2.03646753	 20.36467530
No	 16.29174024	 2.03646753	 -18.32820777
No	 18.32820777	 -0.00000000	 -18.32820777
No	 18.32820777	 2.03646753	 -20.36467530
No	 16.29174024	 -0.00000000	 -16.29174024
No	 16.29174024	 2.03646753	 -14.25527271
No	 18.32820777	 2.03646753	 -16.29174024
No	 16.29174024	 2.03646753	 14.25527271
No	 16.29174024	 -0.00000000	 16.29174024
No	 16.29174024	 2.03646753	 18.32820777
No	 18.32820777	 -0.00000000	 18.32820777
No	 18.32820777	 2.03646753	 16.29174024
No	 18.32820777	 2.03646753	 20.36467530
No	 16.29174024	 6.10940259	 -22.40114283
No	 18.32820777	 4.07293506	 -22.40114283
No	 18.32820777	 6.10940259	 -24.43761036
No	 16.29174024	 4.07293506	 -20.36467530
No	 16.29174024	 6.10940259	 -18.32820777
No	 18.32820777	 4.07293506	 -18.32820777
No	 18.32820777	 6.10940259	 -20.36467530
No	 16.29174024	 4.07293506	 -16.29174024
No	 16.29174024	 6.10940259	 -14.25527271
No	 18.32820777	 4.07293506	 -14.25527271
No	 18.32820777	 6.10940259	 -16.29174024
No	 16.29174024	 4.07293506	 -12.21880518
No	 16.29174024	 6.10940259	 -10.18233765
No	 18.32820777	 6.10940259	 -12.21880518
No	 16.29174024	 6.10940259	 10.18233765
No	 16.29174024	 4.07293506	 12.21880518
No	 16.29174024	 6.10940259	 14.25527271
No	 18.32820777	 4.07293506	 14.25527271
No	 18.32820777	 6.10940259	 12.21880518
No	 16.29174024	 4.07293506	 16.29174024
No	 16.29174024	 6.10940259	 18.32820777
No	 18.32820777	 4.07293506	 18.32820777
No	 18.32820777	 6.10940259	 16.29174024
No	 16.29174024	 4.07293506	 20.36467530
No	 16.29174024	 6.10940259	 22.40114283
No	 18.32820777	 4.07293506	 22.40114283
No	 18.32820777	 6.10940259	 20.36467530
No	 18.32820777	 6.10940259	 24.43761036
No	 16.29174024	 10.18233765	 -26.47407789
No	 18.32820777	 8.14587012	 -26.47407789
No	 18.32820777	 10.18233765	 -28.51054542
No	 16.29174024	 8.14587012	 -24.43761036
No	 16.29174024	 10.18233765	 -22.40114283
No	 18.32820777	 8.14587012	 -22.40114283
No	 18.32820777	 10.18233765	 -24.43761036
No	 16.29174024	 8.14587012	 -20.36467530
No	 16.29174024	 10.18233765	 -18.32820777
No	 18.32820777	 8.14587012	 -18.32820777
No	 18.32820777	 10.18233765	 -20.36467530
No	 16.29174024	 8.14587012	 -16.29174024
No	 16.29174024	 10.18233765	 -14.25527271
No	 18.32820777	 8.14587012	 -14.25527271
No	 18.32820777	 10.18233765	 -16.29174024
No	 16.29174024	 8.14587012	 -12.21880518
No	 16.29174024	 10.18233765	 -10.18233765
No	 18.32820777	 8.14587012	 -10.18233765
No	 18.32820777	 10.18233765	 -12.21880518
No	 16.29174024	 8.14587012	 -8.14587012
No	 16.29174024	 10.18233765	 -6.10940259
No	 18.32820777	 10.18233765	 -8.14587012
No	 16.29174024	 10.18233765	 6.10940259
No	 16.29174024	 8.14587012	 8.14587012
No	 16.29174024	 10.18233765	 10.18233765
No	 18.32820777	 8.14587012	 10.18233765
No	 18.32820777	 10.18233765	 8.14587012
No	 16.29174024	 8.14587012	 12.21880518
No	 16.29174024	 10.18233765	 14.25527271
No	 18.32820777	 8.14587012	 14.25527271
No	 18.32820777	 10.18233765	 12.21880518
No	 16.29174024	 8.14587012	 16.29174024
No	 16.29174024	 10.18233765	 18.32820777
No	 18.32820777	 8.14587012	 18.32820777
No	 18.32820777	 10.18233765	 16.29174024
No	 16.29174024	 8.14587012	 20.36467530
No	 16.29174024	 10.18233765	 22.40114283
No	 18.32820777	 8.14587012	 22.40114283
No	 18.32820777	 10.18233765	 20.36467530
No	 16.29174024	 8.14587012	 24.43761036
No	 16.29174024	 10.18233765	 26.47407789
No	 18.32820777	 8.14587012	 26.47407789
No	 18.32820777	 10.18233765	 24.43761036
No	 18.32820777	 10.18233765	 28.51054542
No	 16.29174024	 14.25527271	 -30.54701295
No	 18.32820777	 12.21880518	 -30.54701295
No	 18.32820777	 14.25527271	 -32.58348048
No	 16.29174024	 12.21880518	 -28.51054542
No	 16.29174024	 14.25527271	 -26.47407789
No	 18.32820777	 12.21880518	 -26.47407789
No	 18.32820777	 14.25527271	 -28.51054542
No	 16.29174024	 12.21880518	 -24.43761036
No	 16.29174024	 14.25527271	 -22.40114283
No	 18.32820777	 12.21880518	 -22.40114283
No	 18.32820777	 14.25527271	 -24.43761036
No	 16.29174024	 12.21880518	 -20.36467530
No	 16.29174024	 14.25527271	 -18.32820777
No	 18.32820777	 12.21880518	 -18.32820777
No	 18.32820777	 14.25527271	 -20.36467530
No	 16.29174024	 12.21880518	 -16.29174024
No	 16.29174024	 14.25527271	 -14.25527271
No	 18.32820777	 12.21880518	 -14.25527271
No	 18.32820777	 14.25527271	 -16.29174024
No	 16.29174024	 12.21880518	 -12.21880518
No	 16.29174024	 14.25527271	 -10.18233765
No	 18.32820777	 12.21880518	 -10.18233765
No	 18.32820777	 14.25527271	 -12.21880518
No	 16.29174024	 12.21880518	 -8.14587012
No	 16.29174024	 14.25527271	 -6.10940259
No	 18.32820777	 12.21880518	 -6.10940259
No	 18.32820777	 14.25527271	 -8.14587012
No	 16.29174024	 12.21880518	 -4.07293506
No	 16.29174024	 14.25527271	 -2.03646753
No	 18.32820777	 14.25527271	 -4.07293506
No	 16.29174024	 14.25527271	 2.03646753
No	 16.29174024	 12.21880518	 4.07293506
No	 16.29174024	 14.25527271	 6.10940259
No	 18.32820777	 12.21880518	 6.10940259
No	 18.32820777	 14.25527271	 4.07293506
No	 16.29174024	 12.21880518	 8.14587012
No	 16.29174024	 14.25527271	 10.18233765
No	 18.32820777	 12.21880518	 10.18233765
No	 18.32820777	 14.25527271	 8.14587012
No	 16.29174024	 12.21880518	 12.21880518
No	 16.29174024	 14.25527271	 14.25527271
No	 18.32820777	 12.21880518	 14.25527271
No	 18.32820777	 14.25527271	 12.21880518
No	 16.29174024	 12.21880518	 16.29174024
No	 16.29174024	 14.25527271	 18.32820777
No	 18.32820777	 12.21880518	 18.32820777
No	 18.32820777	 14.25527271	 16.29174024
No	 16.29174024	 12.21880518	 20.36467530
No	 16.29174024	 14.25527271	 22.40114283
No	 18.32820777	 12.21880518	 22.40114283
No	 18.32820777	 14.25527271	 20.36467530
No	 16.29174024	 12.21880518	 24.43761036
No	 16.29174024	 14.25527271	 26.47407789
No	 18.32820777	 12.21880518	 26.47407789
No	 18.32820777	 14.25527271	 24.43761036
No	 16.29174024	 12.21880518	 28.51054542
No	 16.29174024	 14.25527271	 30.54701295
No	 18.32820777	 12.21880518	 30.54701295
No	 18.32820777	 14.25527271	 28.51054542
No	 18.32820777	 14.25527271	 32.58348048
Co	 18.32820777	 18.32820777	 -40.72935060
No	 16.29174024	 18.32820777	 -34.61994801
No	 18.32820777	 16.29174024	 -34.61994801
No	 18.32820777	 18.32820777	 -36.65641554
No	 16.29174024	 16.29174024	 -32.58348048
No	 16.29174024	 18.32820777	 -30.54701295
No	 18.32820777	 16.29174024	 -30.54701295
No	 18.32820777	 18.32820777	 -32.58348048
No	 16.29174024	 16.29174024	 -28.51054542
No	 16.29174024	 18.32820777	 -26.47407789
No	 18.32820777	 16.29174024	 -26.47407789
No	 18.32820777	 18.32820777	 -28.51054542
No	 16.29174024	 16.29174024	 -24.43761036
No	 16.29174024	 18.32820777	 -22.40114283
No	 18.32820777	 16.29174024	 -22.40114283
No	 18.32820777	 18.32820777	 -24.43761036
No	 16.29174024	 16.29174024	 -20.36467530
No	 16.29174024	 18.32820777	 -18.32820777
No	 18.32820777	 16.29174024	 -18.32820777
No	 18.32820777	 18.32820777	 -20.36467530
No	 16.29174024	 16.29174024	 -16.29174024
No	 16.29174024	 18.32820777	 -14.25527271
No	 18.32820777	 16.29174024	 -14.25527271
No	 18.32820777	 18.32820777	 -16.29174024
No	 16.29174024	 16.29174024	 -12.21880518
No	 16.29174024	 18.32820777	 -10.18233765
No	 18.32820777	 16.29174024	 -10.18233765
No	 18.32820777	 18.32820777	 -12.21880518
No	 16.29174024	 16.29174024	 -8.14587012
No	 16.29174024	 18.32820777	 -6.10940259
No	 18.32820777	 16.29174024	 -6.10940259
No	 18.32820777	 18.32820777	 -8.14587012
No	 16.29174024	 16.29174024	 -4.07293506
No	 16.29174024	 18.32820777	 -2.03646753
No	 18.32820777	 16.29174024	 -2.03646753
No	 18.32820777	 18.32820777	 -4.07293506
No	 16.29174024	 16.29174024	 -0.00000000
No	 16.29174024	 18.32820777	 2.03646753
No	 18.32820777	 16.29174024	 2.03646753
No	 18.32820777	 18.32820777	 -0.00000000
No	 16.29174024	 16.29174024	 4.07293506
No	 16.29174024	 18.32820777	 6.10940259
No	 18.32820777	 16.29174024	 6.10940259
No	 18.32820777	 18.32820777	 4.07293506
No	 16.29174024	 16.29174024	 8.14587012
No	 16.29174024	 18.32820777	 10.18233765
No	 18.32820777	 16.29174024	 10.18233765
No	 18.32820777	 18.32820777	 8.14587012
No	 16.29174024	 16.29174024	 12.21880518
No	 16.29174024	 18.32820777	 14.25527271
No	 18.32820777	 16.29174024	 14.25527271
No	 18.32820777	 18.32820777	 12.21880518
No	 16.29174024	 16.29174024	 16.29174024
No	 16.29174024	 18.32820777	 18.32820777
No	 18.32820777	 16.29174024	 18.32820777
No	 18.32820777	 18.32820777	 16.29174024
No	 16.29174024	 16.29174024	 20.36467530
No	 16.29174024	 18.32820777	 22.40114283
No	 18.32820777	 16.29174024	 22.40114283
No	 18.32820777	 18.32820777	 20.36467530
No	 16.29174024	 16.29174024	 24.43761036
No	 16.29174024	 18.32820777	 26.47407789
No	 18.32820777	 16.29174024	 26.47407789
No	 18.32820777	 18.32820777	 24.43761036
No	 16.29174024	 16.29174024	 28.51054542
No	 16.29174024	 18.32820777	 30.54701295
No	 18.32820777	 16.29174024	 30.54701295
No	 18.32820777	 18.32820777	 28.51054542
No	 16.29174024	 16.29174024	 32.58348048
No	 16.29174024	 18.32820777	 34.61994801
No	 18.32820777	 16.29174024	 34.61994801
No	 18.32820777	 18.32820777	 32.58348048
No	 18.32820777	 18.32820777	 36.65641554
Co	 16.29174024	 20.36467530	 -40.72935060
No	 16.29174024	 22.40114283	 -38.69288307
No	 18.32820777	 20.36467530	 -38.69288307
Co	 18.32820777	 22.40114283	 -40.72935060
No	 16.29174024	 20.36467530	 -36.65641554
No	 16.29174024	 22.40114283	 -34.61994801
No	 18.32820777	 20.36467530	 -34.61994801
No	 18.32820777	 22.40114283	 -36.65641554
No	 16.29174024	 20.36467530	 -32.58348048
No	 16.29174024	 22.40114283	 -30.54701295
No	 18.32820777	 20.36467530	 -30.54701295
No	 18.32820777	 22.40114283	 -32.58348048
No	 16.29174024	 20.36467530	 -28.51054542
No	 16.29174024	 22.40114283	 -26.47407789
No	 18.32820777	 20.36467530	 -26.47407789
No	 18.32820777	 22.40114283	 -28.51054542
No	 16.29174024	 20.36467530	 -24.43761036
No	 16.29174024	 22.40114283	 -22.40114283
No	 18.32820777	 20.36467530	 -22.40114283
No	 18.32820777	 22.40114283	 -24.43761036
No	 16.29174024	 20.36467530	 -20.36467530
No	 16.29174024	 22.40114283	 -18.32820777
No	 18.32820777	 20.36467530	 -18.32820777
No	 18.32820777	 22.40114283	 -20.36467530
No	 16.29174024	 20.36467530	 -16.29174024
No	 16.29174024	 22.40114283	 -14.25527271
No	 18.32820777	 20.36467530	 -14.25527271
No	 18.32820777	 22.40114283	 -16.29174024
No	 16.29174024	 20.36467530	 -12.21880518
No	 16.29174024	 22.40114283	 -10.18233765
No	 18.32820777	 20.36467530	 -10.18233765
No	 18.32820777	 22.40114283	 -12.21880518
No	 16.29174024	 20.36467530	 -8.14587012
No	 16.29174024	 22.40114283	 -6.10940259
No	 18.32820777	 20.36467530	 -6.10940259
No	 18.32820777	 22.40114283	 -8.14587012
No	 16.29174024	 20.36467530	 -4.07293506
No	 18.32820777	 20.36467530	 -2.03646753
No	 18.32820777	 22.40114283	 -4.07293506
No	 18.32820777	 20.36467530	 2.03646753
No	 16.29174024	 20.36467530	 4.07293506
No	 16.29174024	 22.40114283	 6.10940259
No	 18.32820777	 20.36467530	 6.10940259
No	 18.32820777	 22.40114283	 4.07293506
No	 16.29174024	 20.36467530	 8.14587012
No	 16.29174024	 22.40114283	 10.18233765
No	 18.32820777	 20.36467530	 10.18233765
No	 18.32820777	 22.40114283	 8.14587012
No	 16.29174024	 20.36467530	 12.21880518
No	 16.29174024	 22.40114283	 14.25527271
No	 18.32820777	 20.36467530	 14.25527271
No	 18.32820777	 22.40114283	 12.21880518
No	 16.29174024	 20.36467530	 16.29174024
No	 16.29174024	 22.40114283	 18.32820777
No	 18.32820777	 20.36467530	 18.32820777
No	 18.32820777	 22.40114283	 16.29174024
No	 16.29174024	 20.36467530	 20.36467530
No	 16.29174024	 22.40114283	 22.40114283
No	 18.32820777	 20.36467530	 22.40114283
No	 18.32820777	 22.40114283	 20.36467530
No	 16.29174024	 20.36467530	 24.43761036
No	 16.29174024	 22.40114283	 26.47407789
No	 18.32820777	 20.36467530	 26.47407789
No	 18.32820777	 22.40114283	 24.43761036
No	 16.29174024	 20.36467530	 28.51054542
No	 16.29174024	 22.40114283	 30.54701295
No	 18.32820777	 20.36467530	 30.54701295
No	 18.32820777	 22.40114283	 28.51054542
No	 16.29174024	 20.36467530	 32.58348048
No	 16.29174024	 22.40114283	 34.61994801
No	 18.32820777	 20.36467530	 34.61994801
No	 18.32820777	 22.40114283	 32.58348048
No	 16.29174024	 20.36467530	 36.65641554
No	 16.29174024	 22.40114283	 38.69288307
No	 18.32820777	 20.36467530	 38.69288307
No	 18.32820777	 22.40114283	 36.65641554
Co	 16.29174024	 24.43761036	 -40.72935060
No	 16.29174024	 26.47407789	 -38.69288307
No	 18.32820777	 24.43761036	 -38.69288307
Co	 18.32820777	 26.47407789	 -40.72935060
No	 16.29174024	 24.43761036	 -36.65641554
No	 16.29174024	 26.47407789	 -34.61994801
No	 18.32820777	 24.43761036	 -34.61994801
No	 18.32820777	 26.47407789	 -36.65641554
No	 16.29174024	 24.43761036	 -32.58348048
No	 16.29174024	 26.47407789	 -30.54701295
No	 18.32820777	 24.43761036	 -30.54701295
No	 18.32820777	 26.47407789	 -32.58348048
No	 16.29174024	 24.43761036	 -28.51054542
No	 16.29174024	 26.47407789	 -26.47407789
No	 18.32820777	 24.43761036	 -26.47407789
No	 18.32820777	 26.47407789	 -28.51054542
No	 16.29174024	 24.43761036	 -24.43761036
No	 16.29174024	 26.47407789	 -22.40114283
No	 18.32820777	 24.43761036	 -22.40114283
No	 18.32820777	 26.47407789	 -24.43761036
No	 16.29174024	 24.43761036	 -20.36467530
No	 16.29174024	 26.47407789	 -18.32820777
No	 18.32820777	 24.43761036	 -18.32820777
No	 18.32820777	 26.47407789	 -20.36467530
No	 16.29174024	 24.43761036	 -16.29174024
No	 16.29174024	 26.47407789	 -14.25527271
No	 18.32820777	 24.43761036	 -14.25527271
No	 18.32820777	 26.47407789	 -16.29174024
No	 16.29174024	 24.43761036	 -12.21880518
No	 16.29174024	 26.47407789	 -10.18233765
No	 18.32820777	 24.43761036	 -10.18233765
No	 18.32820777	 26.47407789	 -12.21880518
No	 16.29174024	 24.43761036	 -8.14587012
No	 18.32820777	 24.43761036	 -6.10940259
No	 18.32820777	 26.47407789	 -8.14587012
No	 18.32820777	 24.43761036	 6.10940259
No	 16.29174024	 24.43761036	 8.14587012
No	 16.29174024	 26.47407789	 10.18233765
No	 18.32820777	 24.43761036	 10.18233765
No	 18.32820777	 26.47407789	 8.14587012
No	 16.29174024	 24.43761036	 12.21880518
No	 16.29174024	 26.47407789	 14.25527271
No	 18.32820777	 24.43761036	 14.25527271
No	 18.32820777	 26.47407789	 12.21880518
No	 16.29174024	 24.43761036	 16.29174024
No	 16.29174024	 26.47407789	 18.32820777
No	 18.32820777	 24.43761036	 18.32820777
No	 18.32820777	 26.47407789	 16.29174024
No	 16.29174024	 24.43761036	 20.36467530
No	 16.29174024	 26.47407789	 22.40114283
No	 18.32820777	 24.43761036	 22.40114283
No	 18.32820777	 26.47407789	 20.36467530
No	 16.29174024	 24.43761036	 24.43761036
No	 16.29174024	 26.47407789	 26.47407789
No	 18.32820777	 24.43761036	 26.47407789
No	 18.32820777	 26.47407789	 24.43761036
No	 16.29174024	 24.43761036	 28.51054542
No	 16.29174024	 26.47407789	 30.54701295
No	 18.32820777	 24.43761036	 30.54701295
No	 18.32820777	 26.47407789	 28.51054542
No	 16.29174024	 24.43761036	 32.58348048
No	 16.29174024	 26.47407789	 34.61994801
No	 18.32820777	 24.43761036	 34.61994801
No	 18.32820777	 26.47407789	 32.58348048
No	 16.29174024	 24.43761036	 36.65641554
No	 16.29174024	 26.47407789	 38.69288307
No	 18.32820777	 24.43761036	 38.69288307
No	 18.32820777	 26.47407789	 36.65641554
Co	 16.29174024	 28.51054542	 -40.72935060
No	 16.29174024	 30.54701295	 -38.69288307
No	 18.32820777	 28.51054542	 -38.69288307
Co	 18.32820777	 30.54701295	 -40.72935060
No	 16.29174024	 28.51054542	 -36.65641554
No	 16.29174024	 30.54701295	 -34.61994801
No	 18.32820777	 28.51054542	 -34.61994801
No	 18.32820777	 30.54701295	 -36.65641554
No	 16.29174024	 28.51054542	 -32.58348048
No	 16.29174024	 30.54701295	 -30.54701295
No	 18.32820777	 28.51054542	 -30.54701295
No	 18.32820777	 30.54701295	 -32.58348048
No	 16.29174024	 28.51054542	 -28.51054542
No	 16.29174024	 30.54701295	 -26.47407789
No	 18.32820777	 28.51054542	 -26.47407789
No	 18.32820777	 30.54701295	 -28.51054542
No	 16.29174024	 28.51054542	 -24.43761036
No	 16.29174024	 30.54701295	 -22.40114283
No	 18.32820777	 28.51054542	 -22.40114283
No	 18.32820777	 30.54701295	 -24.43761036
No	 16.29174024	 28.51054542	 -20.36467530
No	 16.29174024	 30.54701295	 -18.32820777
No	 18.32820777	 28.51054542	 -18.32820777
No	 18.32820777	 30.54701295	 -20.36467530
No	 16.29174024	 28.51054542	 -16.29174024
No	 16.29174024	 30.54701295	 -14.25527271
No	 18.32820777	 28.51054542	 -14.25527271
No	 18.32820777	 30.54701295	 -16.29174024
No	 16.29174024	 28.51054542	 -12.21880518
No	 18.32820777	 28.51054542	 -10.18233765
No	 18.32820777	 30.54701295	 -12.21880518
No	 18.32820777	 28.51054542	 10.18233765
No	 16.29174024	 28.51054542	 12.21880518
No	 16.29174024	 30.54701295	 14.25527271
No	 18.32820777	 28.51054542	 14.25527271
No	 18.32820777	 30.54701295	 12.21880518
No	 16.29174024	 28.51054542	 16.29174024
No	 16.29174024	 30.54701295	 18.32820777
No	 18.32820777	 28.51054542	 18.32820777
No	 18.32820777	 30.54701295	 16.29174024
No	 16.29174024	 28.51054542	 20.36467530
No	 16.29174024	 30.54701295	 22.40114283
No	 18.32820777	 28.51054542	 22.40114283
No	 18.32820777	 30.54701295	 20.36467530
No	 16.29174024	 28.51054542	 24.43761036
No	 16.29174024	 30.54701295	 26.47407789
No	 18.32820777	 28.51054542	 26.47407789
No	 18.32820777	 30.54701295	 24.43761036
No	 16.29174024	 28.51054542	 28.51054542
No	 16.29174024	 30.54701295	 30.54701295
No	 18.32820777	 28.51054542	 30.54701295
No	 18.32820777	 30.54701295	 28.51054542
No	 16.29174024	 28.51054542	 32.58348048
No	 16.29174024	 30.54701295	 34.61994801
No	 18.32820777	 28.51054542	 34.61994801
No	 18.32820777	 30.54701295	 32.58348048
No	 16.29174024	 28.51054542	 36.65641554
No	 16.29174024	 30.54701295	 38.69288307
No	 18.32820777	 28.51054542	 38.69288307
No	 18.32820777	 30.54701295	 36.65641554
Co	 16.29174024	 32.58348048	 -40.72935060
No	 16.29174024	 34.61994801	 -38.69288307
No	 18.32820777	 32.58348048	 -38.69288307
Co	 18.32820777	 34.61994801	 -40.72935060
No	 16.29174024	 32.58348048	 -36.65641554
No	 16.29174024	 34.61994801	 -34.61994801
No	 18.32820777	 32.58348048	 -34.61994801
No	 18.32820777	 34.61994801	 -36.65641554
No	 16.29174024	 32.58348048	 -32.58348048
No	 16.29174024	 34.61994801	 -30.54701295
No	 18.32820777	 32.58348048	 -30.54701295
No	 18.32820777	 34.61994801	 -32.58348048
No	 16.29174024	 32.58348048	 -28.51054542
No	 16.29174024	 34.61994801	 -26.47407789
No	 18.32820777	 32.58348048	 -26.47407789
No	 18.32820777	 34.61994801	 -28.51054542
No	 16.29174024	 32.58348048	 -24.43761036
No	 16.29174024	 34.61994801	 -22.40114283
No	 18.32820777	 32.58348048	 -22.40114283
No	 18.32820777	 34.61994801	 -24.43761036
No	 16.29174024	 32.58348048	 -20.36467530
No	 16.29174024	 34.61994801	 -18.32820777
No	 18.32820777	 32.58348048	 -18.32820777
No	 18.32820777	 34.61994801	 -20.36467530
No	 16.29174024	 32.58348048	 -16.29174024
No	 18.32820777	 32.58348048	 -14.25527271
No	 18.32820777	 34.61994801	 -16.29174024
No	 18.32820777	 32.58348048	 14.25527271
No	 16.29174024	 32.58348048	 16.29174024
No	 16.29174024	 34.61994801	 18.32820777
No	 18.32820777	 32.58348048	 18.32820777
No	 18.32820777	 34.61994801	 16.29174024
No	 16.29174024	 32.58348048	 20.36467530
No	 16.29174024	 34.61994801	 22.40114283
No	 18.32820777	 32.58348048	 22.40114283
No	 18.32820777	 34.61994801	 20.36467530
No	 16.29174024	 32.58348048	 24.43761036
No	 16.29174024	 34.61994801	 26.47407789
No	 18.32820777	 32.58348048	 26.47407789
No	 18.32820777	 34.61994801	 24.43761036
No	 16.29174024	 32.58348048	 28.51054542
No	 16.29174024	 34.61994801	 30.54701295
No	 18.32820777	 32.58348048	 30.54701295
No	 18.32820777	 34.61994801	 28.51054542
No	 16.29174024	 32.58348048	 32.58348048
No	 16.29174024	 34.61994801	 34.61994801
No	 18.32820777	 32.58348048	 34.61994801
No	 18.32820777	 34.61994801	 32.58348048
No	 16.29174024	 32.58348048	 36.65641554
No	 16.29174024	 34.61994801	 38.69288307
No	 18.32820777	 32.58348048	 38.69288307
No	 18.32820777	 34.61994801	 36.65641554
Co	 16.29174024	 36.65641554	 -40.72935060
No	 16.29174024	 38.69288307	 -38.69288307
No	 18.32820777	 36.65641554	 -38.69288307
Co	 18.32820777	 38.69288307	 -40.72935060
No	 16.29174024	 36.65641554	 -36.65641554
No	 16.29174024	 38.69288307	 -34.61994801
No	 18.32820777	 36.65641554	 -34.61994801
No	 18.32820777	 38.69288307	 -36.65641554
No	 16.29174024	 36.65641554	 -32.58348048
No	 16.29174024	 38.69288307	 -30.54701295
No	 18.32820777	 36.65641554	 -30.54701295
No	 18.32820777	 38.69288307	 -32.58348048
No	 16.29174024	 36.65641554	 -28.51054542
No	 16.29174024	 38.69288307	 -26.47407789
No	 18.32820777	 36.65641554	 -26.47407789
No	 18.32820777	 38.69288307	 -28.51054542
No	 16.29174024	 36.65641554	 -24.43761036
No	 16.29174024	 38.69288307	 -22.40114283
No	 18.32820777	 36.65641554	 -22.40114283
No	 18.32820777	 38.69288307	 -24.43761036
No	 16.29174024	 36.65641554	 -20.36467530
No	 18.32820777	 36.65641554	 -18.32820777
No	 18.32820777	 38.69288307	 -20.36467530
No	 18.32820777	 36.65641554	 18.32820777
No	 16.29174024	 36.65641554	 20.36467530
No	 16.29174024	 38.69288307	 22.40114283
No	 18.32820777	 36.65641554	 22.40114283
No	 18.32820777	 38.69288307	 20.36467530
No	 16.29174024	 36.65641554	 24.43761036
No	 16.29174024	 38.69288307	 26.47407789
No	 18.32820777	 36.65641554	 26.47407789
No	 18.32820777	 38.69288307	 24.43761036
No	 16.29174024	 36.65641554	 28.51054542
No	 16.29174024	 38.69288307	 30.54701295
No	 18.32820777	 36.65641554	 30.54701295
No	 18.32820777	 38.69288307	 28.51054542
No	 16.29174024	 36.65641554	 32.58348048
No	 16.29174024	 38.69288307	 34.61994801
No	 18.32820777	 36.65641554	 34.61994801
No	 18.32820777	 38.69288307	 32.58348048
No	 16.29174024	 36.65641554	 36.65641554
No	 16.29174024	 38.69288307	 38.69288307
No	 18.32820777	 36.65641554	 38.69288307
No	 18.32820777	 38.69288307	 36.65641554
Co	 20.36467530	 -40.72935060	 -40.72935060
No	 20.36467530	 -38.69288307	 -38.69288307
Co	 22.40114283	 -40.72935060	 -38.69288307
Co	 22.40114283	 -38.69288307	 -40.72935060
Co	 20.36467530	 -40.72935060	 -36.65641554
No	 20.36467530	 -38.69288307	 -34.61994801
Co	 22.40114283	 -40.72935060	 -34.61994801
No	 22.40114283	 -38.69288307	 -36.65641554
Co	 20.36467530	 -40.72935060	 -32.58348048
No	 20.36467530	 -38.69288307	 -30.54701295
Co	 22.40114283	 -40.72935060	 -30.54701295
No	 22.40114283	 -38.69288307	 -32.58348048
Co	 20.36467530	 -40.72935060	 -28.51054542
No	 20.36467530	 -38.69288307	 -26.47407789
Co	 22.40114283	 -40.72935060	 -26.47407789
No	 22.40114283	 -38.69288307	 -28.51054542
Co	 20.36467530	 -40.72935060	 -24.43761036
No	 20.36467530	 -38.69288307	 -22.40114283
Co	 22.40114283	 -40.72935060	 -22.40114283
No	 22.40114283	 -38.69288307	 -24.43761036
Co	 20.36467530	 -40.72935060	 -20.36467530
No	 20.36467530	 -38.69288307	 -18.32820777
Co	 22.40114283	 -40.72935060	 -18.32820777
No	 22.40114283	 -38.69288307	 -20.36467530
Co	 20.36467530	 -40.72935060	 -16.29174024
Co	 22.40114283	 -40.72935060	 -14.25527271
No	 22.40114283	 -38.69288307	 -16.29174024
Co	 22.40114283	 -40.72935060	 14.25527271
Co	 20.36467530	 -40.72935060	 16.29174024
No	 20.36467530	 -38.69288307	 18.32820777
Co	 22.40114283	 -40.72935060	 18.32820777
No	 22.40114283	 -38.69288307	 16.29174024
Co	 20.36467530	 -40.72935060	 20.36467530
No	 20.36467530	 -38.69288307	 22.40114283
Co	 22.40114283	 -40.72935060	 22.40114283
No	 22.40114283	 -38.69288307	 20.36467530
Co	 20.36467530	 -40.72935060	 24.43761036
No	 20.36467530	 -38.69288307	 26.47407789
Co	 22.40114283	 -40.72935060	 26.47407789
No	 22.40114283	 -38.69288307	 24.43761036
Co	 20.36467530	 -40.72935060	 28.51054542
No	 20.36467530	 -38.69288307	 30.54701295
Co	 22.40114283	 -40.72935060	 30.54701295
No	 22.40114283	 -38.69288307	 28.51054542
Co	 20.36467530	 -40.72935060	 32.58348048
No	 20.36467530	 -38.69288307	 34.61994801
Co	 22.40114283	 -40.72935060	 34.61994801
No	 22.40114283	 -38.69288307	 32.58348048
Co	 20.36467530	 -40.72935060	 36.65641554
No	 20.36467530	 -38.69288307	 38.69288307
Co	 22.40114283	 -40.72935060	 38.69288307
No	 22.40114283	 -38.69288307	 36.65641554
Co	 20.36467530	 -36.65641554	 -40.72935060
No	 20.36467530	 -34.61994801	 -38.69288307
No	 22.40114283	 -36.65641554	 -38.69288307
Co	 22.40114283	 -34.61994801	 -40.72935060
No	 20.36467530	 -36.65641554	 -36.65641554
No	 20.36467530	 -34.61994801	 -34.61994801
No	 22.40114283	 -36.65641554	 -34.61994801
No	 22.40114283	 -34.61994801	 -36.65641554
No	 20.36467530	 -36.65641554	 -32.58348048
No	 20.36467530	 -34.61994801	 -30.54701295
No	 22.40114283	 -36.65641554	 -30.54701295
No	 22.40114283	 -34.61994801	 -32.58348048
No	 20.36467530	 -36.65641554	 -28.51054542
No	 20.36467530	 -34.61994801	 -26.47407789
No	 22.40114283	 -36.65641554	 -26.47407789
No	 22.40114283	 -34.61994801	 -28.51054542
No	 20.36467530	 -36.65641554	 -24.43761036
No	 20.36467530	 -34.61994801	 -22.40114283
No	 22.40114283	 -36.65641554	 -22.40114283
No	 22.40114283	 -34.61994801	 -24.43761036
No	 20.36467530	 -36.65641554	 -20.36467530
No	 20.36467530	 -34.61994801	 -18.32820777
No	 22.40114283	 -36.65641554	 -18.32820777
No	 22.40114283	 -34.61994801	 -20.36467530
No	 20.36467530	 -36.65641554	 -16.29174024
No	 20.36467530	 -34.61994801	 -14.25527271
No	 22.40114283	 -36.65641554	 -14.25527271
No	 22.40114283	 -34.61994801	 -16.29174024
No	 22.40114283	 -34.61994801	 -12.21880518
No	 20.36467530	 -34.61994801	 14.25527271
No	 22.40114283	 -36.65641554	 14.25527271
No	 22.40114283	 -34.61994801	 12.21880518
No	 20.36467530	 -36.65641554	 16.29174024
No	 20.36467530	 -34.61994801	 18.32820777
No	 22.40114283	 -36.65641554	 18.32820777
No	 22.40114283	 -34.61994801	 16.29174024
No	 20.36467530	 -36.65641554	 20.36467530
No	 20.36467530	 -34.61994801	 22.40114283
No	 22.40114283	 -36.65641554	 22.40114283
No	 22.40114283	 -34.61994801	 20.36467530
No	 20.36467530	 -36.65641554	 24.43761036
No	 20.36467530	 -34.61994801	 26.47407789
No	 22.40114283	 -36.65641554	 26.47407789
No	 22.40114283	 -34.61994801	 24.43761036
No	 20.36467530	 -36.65641554	 28.51054542
No	 20.36467530	 -34.61994801	 30.54701295
No	 22.40114283	 -36.65641554	 30.54701295
No	 22.40114283	 -34.61994801	 28.51054542
No	 20.36467530	 -36.65641554	 32.58348048
No	 20.36467530	 -34.61994801	 34.61994801
No	 22.40114283	 -36.65641554	 34.61994801
No	 22.40114283	 -34.61994801	 32.58348048
No	 20.36467530	 -36.65641554	 36.65641554
No	 20.36467530	 -34.61994801	 38.69288307
No	 22.40114283	 -36.65641554	 38.69288307
No	 22.40114283	 -34.61994801	 36.65641554
Co	 20.36467530	 -32.58348048	 -40.72935060
No	 20.36467530	 -30.54701295	 -38.69288307
No	 22.40114283	 -32.58348048	 -38.69288307
Co	 22.40114283	 -30.54701295	 -40.72935060
No	 20.36467530	 -32.58348048	 -36.65641554
No	 20.36467530	 -30.54701295	 -34.61994801
No	 22.40114283	 -32.58348048	 -34.61994801
No	 22.40114283	 -30.54701295	 -36.65641554
No	 20.36467530	 -32.58348048	 -32.58348048
No	 20.36467530	 -30.54701295	 -30.54701295
No	 22.40114283	 -32.58348048	 -30.54701295
No	 22.40114283	 -30.54701295	 -32.58348048
No	 20.36467530	 -32.58348048	 -28.51054542
No	 20.36467530	 -30.54701295	 -26.47407789
No	 22.40114283	 -32.58348048	 -26.47407789
No	 22.40114283	 -30.54701295	 -28.51054542
No	 20.36467530	 -32.58348048	 -24.43761036
No	 20.36467530	 -30.54701295	 -22.40114283
No	 22.40114283	 -32.58348048	 -22.40114283
No	 22.40114283	 -30.54701295	 -24.43761036
No	 20.36467530	 -32.58348048	 -20.36467530
No	 20.36467530	 -30.54701295	 -18.32820777
No	 22.40114283	 -32.58348048	 -18.32820777
No	 22.40114283	 -30.54701295	 -20.36467530
No	 20.36467530	 -32.58348048	 -16.29174024
No	 20.36467530	 -30.54701295	 -14.25527271
No	 22.40114283	 -32.58348048	 -14.25527271
No	 22.40114283	 -30.54701295	 -16.29174024
No	 20.36467530	 -32.58348048	 -12.21880518
No	 20.36467530	 -30.54701295	 -10.18233765
No	 22.40114283	 -32.58348048	 -10.18233765
No	 22.40114283	 -30.54701295	 -12.21880518
No	 22.40114283	 -30.54701295	 -8.14587012
No	 20.36467530	 -30.54701295	 10.18233765
No	 22.40114283	 -32.58348048	 10.18233765
No	 22.40114283	 -30.54701295	 8.14587012
No	 20.36467530	 -32.58348048	 12.21880518
No	 20.36467530	 -30.54701295	 14.25527271
No	 22.40114283	 -32.58348048	 14.25527271
No	 22.40114283	 -30.54701295	 12.21880518
No	 20.36467530	 -32.58348048	 16.29174024
No	 20.36467530	 -30.54701295	 18.32820777
No	 22.40114283	 -32.58348048	 18.32820777
No	 22.40114283	 -30.54701295	 16.29174024
No	 20.36467530	 -32.58348048	 20.36467530
No	 20.36467530	 -30.54701295	 22.40114283
No	 22.40114283	 -32.58348048	 22.40114283
No	 22.40114283	 -30.54701295	 20.36467530
No	 20.36467530	 -32.58348048	 24.43761036
No	 20.36467530	 -30.54701295	 26.47407789
No	 22.40114283	 -32.58348048	 26.47407789
No	 22.40114283	 -30.54701295	 24.43761036
No	 20.36467530	 -32.58348048	 28.51054542
No	 20.36467530	 -30.54701295	 30.54701295
No	 22.40114283	 -32.58348048	 30.54701295
No	 22.40114283	 -30.54701295	 28.51054542
No	 20.36467530	 -32.58348048	 32.58348048
No	 20.36467530	 -30.54701295	 34.61994801
No	 22.40114283	 -32.58348048	 34.61994801
No	 22.40114283	 -30.54701295	 32.58348048
No	 20.36467530	 -32.58348048	 36.65641554
No	 20.36467530	 -30.54701295	 38.69288307
No	 22.40114283	 -32.58348048	 38.69288307
No	 22.40114283	 -30.54701295	 36.65641554
Co	 20.36467530	 -28.51054542	 -40.72935060
No	 20.36467530	 -26.47407789	 -38.69288307
No	 22.40114283	 -28.51054542	 -38.69288307
Co	 22.40114283	 -26.47407789	 -40.72935060
No	 20.36467530	 -28.51054542	 -36.65641554
No	 20.36467530	 -26.47407789	 -34.61994801
No	 22.40114283	 -28.51054542	 -34.61994801
No	 22.40114283	 -26.47407789	 -36.65641554
No	 20.36467530	 -28.51054542	 -32.58348048
No	 20.36467530	 -26.47407789	 -30.54701295
No	 22.40114283	 -28.51054542	 -30.54701295
No	 22.40114283	 -26.47407789	 -32.58348048
No	 20.36467530	 -28.51054542	 -28.51054542
No	 20.36467530	 -26.47407789	 -26.47407789
No	 22.40114283	 -28.51054542	 -26.47407789
No	 22.40114283	 -26.47407789	 -28.51054542
No	 20.36467530	 -28.51054542	 -24.43761036
No	 20.36467530	 -26.47407789	 -22.40114283
No	 22.40114283	 -28.51054542	 -22.40114283
No	 22.40114283	 -26.47407789	 -24.43761036
No	 20.36467530	 -28.51054542	 -20.36467530
No	 20.36467530	 -26.47407789	 -18.32820777
No	 22.40114283	 -28.51054542	 -18.32820777
No	 22.40114283	 -26.47407789	 -20.36467530
No	 20.36467530	 -28.51054542	 -16.29174024
No	 20.36467530	 -26.47407789	 -14.25527271
No	 22.40114283	 -28.51054542	 -14.25527271
No	 22.40114283	 -26.47407789	 -16.29174024
No	 20.36467530	 -28.51054542	 -12.21880518
No	 20.36467530	 -26.47407789	 -10.18233765
No	 22.40114283	 -28.51054542	 -10.18233765
No	 22.40114283	 -26.47407789	 -12.21880518
No	 20.36467530	 -28.51054542	 -8.14587012
No	 20.36467530	 -26.47407789	 -6.10940259
No	 22.40114283	 -28.51054542	 -6.10940259
No	 22.40114283	 -26.47407789	 -8.14587012
No	 22.40114283	 -26.47407789	 -4.07293506
No	 20.36467530	 -26.47407789	 6.10940259
No	 22.40114283	 -28.51054542	 6.10940259
No	 22.40114283	 -26.47407789	 4.07293506
No	 20.36467530	 -28.51054542	 8.14587012
No	 20.36467530	 -26.47407789	 10.18233765
No	 22.40114283	 -28.51054542	 10.18233765
No	 22.40114283	 -26.47407789	 8.14587012
No	 20.36467530	 -28.51054542	 12.21880518
No	 20.36467530	 -26.47407789	 14.25527271
No	 22.40114283	 -28.51054542	 14.25527271
No	 22.40114283	 -26.47407789	 12.21880518
No	 20.36467530	 -28.51054542	 16.29174024
No	 20.36467530	 -26.47407789	 18.32820777
No	 22.40114283	 -28.51054542	 18.32820777
No	 22.40114283	 -26.47407789	 16.29174024
No	 20.36467530	 -28.51054542	 20.36467530
No	 20.36467530	 -26.47407789	 22.40114283
No	 22.40114283	 -28.51054542	 22.40114283
No	 22.40114283	 -26.47407789	 20.36467530
No	 20.36467530	 -28.51054542	 24.43761036
No	 20.36467530	 -26.47407789	 26.47407789
No	 22.40114283	 -28.51054542	 26.47407789
No	 22.40114283	 -26.47407789	 24.43761036
No	 20.36467530	 -28.51054542	 28.51054542
No	 20.36467530	 -26.47407789	 30.54701295
No	 22.40114283	 -28.51054542	 30.54701295
No	 22.40114283	 -26.47407789	 28.51054542
No	 20.36467530	 -28.51054542	 32.58348048
No	 20.36467530	 -26.47407789	 34.61994801
No	 22.40114283	 -28.51054542	 34.61994801
No	 22.40114283	 -26.47407789	 32.58348048
No	 20.36467530	 -28.51054542	 36.65641554
No	 20.36467530	 -26.47407789	 38.69288307
No	 22.40114283	 -28.51054542	 38.69288307
No	 22.40114283	 -26.47407789	 36.65641554
Co	 20.36467530	 -24.43761036	 -40.72935060
No	 20.36467530	 -22.40114283	 -38.69288307
No	 22.40114283	 -24.43761036	 -38.69288307
Co	 22.40114283	 -22.40114283	 -40.72935060
No	 20.36467530	 -24.43761036	 -36.65641554
No	 20.36467530	 -22.40114283	 -34.61994801
No	 22.40114283	 -24.43761036	 -34.61994801
No	 22.40114283	 -22.40114283	 -36.65641554
No	 20.36467530	 -24.43761036	 -32.58348048
No	 20.36467530	 -22.40114283	 -30.54701295
No	 22.40114283	 -24.43761036	 -30.54701295
No	 22.40114283	 -22.40114283	 -32.58348048
No	 20.36467530	 -24.43761036	 -28.51054542
No	 20.36467530	 -22.40114283	 -26.47407789
No	 22.40114283	 -24.43761036	 -26.47407789
No	 22.40114283	 -22.40114283	 -28.51054542
No	 20.36467530	 -24.43761036	 -24.43761036
No	 20.36467530	 -22.40114283	 -22.40114283
No	 22.40114283	 -24.43761036	 -22.40114283
No	 22.40114283	 -22.40114283	 -24.43761036
No	 20.36467530	 -24.43761036	 -20.36467530
No	 20.36467530	 -22.40114283	 -18.32820777
No	 22.40114283	 -24.43761036	 -18.32820777
No	 22.40114283	 -22.40114283	 -20.36467530
No	 20.36467530	 -24.43761036	 -16.29174024
No	 20.36467530	 -22.40114283	 -14.25527271
No	 22.40114283	 -24.43761036	 -14.25527271
No	 22.40114283	 -22.40114283	 -16.29174024
No	 20.36467530	 -24.43761036	 -12.21880518
No	 20.36467530	 -22.40114283	 -10.18233765
No	 22.40114283	 -24.43761036	 -10.18233765
No	 22.40114283	 -22.40114283	 -12.21880518
No	 20.36467530	 -24.43761036	 -8.14587012
No	 20.36467530	 -22.40114283	 -6.10940259
No	 22.40114283	 -24.43761036	 -6.10940259
No	 22.40114283	 -22.40114283	 -8.14587012
No	 20.36467530	 -24.43761036	 -4.07293506
No	 20.36467530	 -22.40114283	 -2.03646753
No	 22.40114283	 -24.43761036	 -2.03646753
No	 22.40114283	 -22.40114283	 -4.07293506
No	 20.36467530	 -22.40114283	 2.03646753
No	 22.40114283	 -24.43761036	 2.03646753
No	 22.40114283	 -22.40114283	 -0.00000000
No	 20.36467530	 -24.43761036	 4.07293506
No	 20.36467530	 -22.40114283	 6.10940259
No	 22.40114283	 -24.43761036	 6.10940259
No	 22.40114283	 -22.40114283	 4.07293506
No	 20.36467530	 -24.43761036	 8.14587012
No	 20.36467530	 -22.40114283	 10.18233765
No	 22.40114283	 -24.43761036	 10.18233765
No	 22.40114283	 -22.40114283	 8.14587012
No	 20.36467530	 -24.43761036	 12.21880518
No	 20.36467530	 -22.40114283	 14.25527271
No	 22.40114283	 -24.43761036	 14.25527271
No	 22.40114283	 -22.40114283	 12.21880518
No	 20.36467530	 -24.43761036	 16.29174024
No	 20.36467530	 -22.40114283	 18.32820777
No	 22.40114283	 -24.43761036	 18.32820777
No	 22.40114283	 -22.40114283	 16.29174024
No	 20.36467530	 -24.43761036	 20.36467530
No	 20.36467530	 -22.40114283	 22.40114283
No	 22.40114283	 -24.43761036	 22.40114283
No	 22.40114283	 -22.40114283	 20.36467530
No	 20.36467530	 -24.43761036	 24.43761036
No	 20.36467530	 -22.40114283	 26.47407789
No	 22.40114283	 -24.43761036	 26.47407789
No	 22.40114283	 -22.40114283	 24.43761036
No	 20.36467530	 -24.43761036	 28.51054542
No	 20.36467530	 -22.40114283	 30.54701295
No	 22.40114283	 -24.43761036	 30.54701295
No	 22.40114283	 -22.40114283	 28.51054542
No	 20.36467530	 -24.43761036	 32.58348048
No	 20.36467530	 -22.40114283	 34.61994801
No	 22.40114283	 -24.43761036	 34.61994801
No	 22.40114283	 -22.40114283	 32.58348048
No	 20.36467530	 -24.43761036	 36.65641554
No	 20.36467530	 -22.40114283	 38.69288307
No	 22.40114283	 -24.43761036	 38.69288307
No	 22.40114283	 -22.40114283	 36.65641554
Co	 20.36467530	 -20.36467530	 -40.72935060
No	 20.36467530	 -18.32820777	 -38.69288307
No	 22.40114283	 -20.36467530	 -38.69288307
Co	 22.40114283	 -18.32820777	 -40.72935060
No	 20.36467530	 -20.36467530	 -36.65641554
No	 20.36467530	 -18.32820777	 -34.61994801
No	 22.40114283	 -20.36467530	 -34.61994801
No	 22.40114283	 -18.32820777	 -36.65641554
No	 20.36467530	 -20.36467530	 -32.58348048
No	 20.36467530	 -18.32820777	 -30.54701295
No	 22.40114283	 -20.36467530	 -30.54701295
No	 22.40114283	 -18.32820777	 -32.58348048
No	 20.36467530	 -20.36467530	 -28.51054542
No	 20.36467530	 -18.32820777	 -26.47407789
No	 22.40114283	 -20.36467530	 -26.47407789
No	 22.40114283	 -18.32820777	 -28.51054542
No	 20.36467530	 -20.36467530	 -24.43761036
No	 20.36467530	 -18.32820777	 -22.40114283
No	 22.40114283	 -20.36467530	 -22.40114283
No	 22.40114283	 -18.32820777	 -24.43761036
No	 20.36467530	 -20.36467530	 -20.36467530
No	 20.36467530	 -18.32820777	 -18.32820777
No	 22.40114283	 -20.36467530	 -18.32820777
No	 22.40114283	 -18.32820777	 -20.36467530
No	 20.36467530	 -20.36467530	 -16.29174024
No	 20.36467530	 -18.32820777	 -14.25527271
No	 22.40114283	 -20.36467530	 -14.25527271
No	 22.40114283	 -18.32820777	 -16.29174024
No	 20.36467530	 -20.36467530	 -12.21880518
No	 20.36467530	 -18.32820777	 -10.18233765
No	 22.40114283	 -20.36467530	 -10.18233765
No	 22.40114283	 -18.32820777	 -12.21880518
No	 20.36467530	 -20.36467530	 -8.14587012
No	 20.36467530	 -18.32820777	 -6.10940259
No	 22.40114283	 -20.36467530	 -6.10940259
No	 22.40114283	 -18.32820777	 -8.14587012
No	 20.36467530	 -20.36467530	 -4.07293506
No	 20.36467530	 -18.32820777	 -2.03646753
No	 22.40114283	 -20.36467530	 -2.03646753
No	 22.40114283	 -18.32820777	 -4.07293506
No	 20.36467530	 -20.36467530	 -0.00000000
No	 20.36467530	 -18.32820777	 2.03646753
No	 22.40114283	 -20.36467530	 2.03646753
No	 20.36467530	 -20.36467530	 4.07293506
No	 20.36467530	 -18.32820777	 6.10940259
No	 22.40114283	 -20.36467530	 6.10940259
No	 22.40114283	 -18.32820777	 4.07293506
No	 20.36467530	 -20.36467530	 8.14587012
No	 20.36467530	 -18.32820777	 10.18233765
No	 22.40114283	 -20.36467530	 10.18233765
No	 22.40114283	 -18.32820777	 8.14587012
No	 20.36467530	 -20.36467530	 12.21880518
No	 20.36467530	 -18.32820777	 14.25527271
No	 22.40114283	 -20.36467530	 14.25527271
No	 22.40114283	 -18.32820777	 12.21880518
No	 20.36467530	 -20.36467530	 16.29174024
No	 20.36467530	 -18.32820777	 18.32820777
No	 22.40114283	 -20.36467530	 18.32820777
No	 22.40114283	 -18.32820777	 16.29174024
No	 20.36467530	 -20.36467530	 20.36467530
No	 20.36467530	 -18.32820777	 22.40114283
No	 22.40114283	 -20.36467530	 22.40114283
No	 22.40114283	 -18.32820777	 20.36467530
No	 20.36467530	 -20.36467530	 24.43761036
No	 20.36467530	 -18.32820777	 26.47407789
No	 22.40114283	 -20.36467530	 26.47407789
No	 22.40114283	 -18.32820777	 24.43761036
No	 20.36467530	 -20.36467530	 28.51054542
No	 20.36467530	 -18.32820777	 30.54701295
No	 22.40114283	 -20.36467530	 30.54701295
No	 22.40114283	 -18.32820777	 28.51054542
No	 20.36467530	 -20.36467530	 32.58348048
No	 20.36467530	 -18.32820777	 34.61994801
No	 22.40114283	 -20.36467530	 34.61994801
No	 22.40114283	 -18.32820777	 32.58348048
No	 20.36467530	 -20.36467530	 36.65641554
No	 20.36467530	 -18.32820777	 38.69288307
No	 22.40114283	 -20.36467530	 38.69288307
No	 22.40114283	 -18.32820777	 36.65641554
Co	 20.36467530	 -16.29174024	 -40.72935060
No	 22.40114283	 -16.29174024	 -38.69288307
Co	 22.40114283	 -14.25527271	 -40.72935060
No	 20.36467530	 -16.29174024	 -36.65641554
No	 20.36467530	 -14.25527271	 -34.61994801
No	 22.40114283	 -16.29174024	 -34.61994801
No	 22.40114283	 -14.25527271	 -36.65641554
No	 20.36467530	 -16.29174024	 -32.58348048
No	 20.36467530	 -14.25527271	 -30.54701295
No	 22.40114283	 -16.29174024	 -30.54701295
No	 22.40114283	 -14.25527271	 -32.58348048
No	 20.36467530	 -16.29174024	 -28.51054542
No	 20.36467530	 -14.25527271	 -26.47407789
No	 22.40114283	 -16.29174024	 -26.47407789
No	 22.40114283	 -14.25527271	 -28.51054542
No	 20.36467530	 -16.29174024	 -24.43761036
No	 20.36467530	 -14.25527271	 -22.40114283
No	 22.40114283	 -16.29174024	 -22.40114283
No	 22.40114283	 -14.25527271	 -24.43761036
No	 20.36467530	 -16.29174024	 -20.36467530
No	 20.36467530	 -14.25527271	 -18.32820777
No	 22.40114283	 -16.29174024	 -18.32820777
No	 22.40114283	 -14.25527271	 -20.36467530
No	 20.36467530	 -16.29174024	 -16.29174024
No	 20.36467530	 -14.25527271	 -14.25527271
No	 22.40114283	 -16.29174024	 -14.25527271
No	 22.40114283	 -14.25527271	 -16.29174024
No	 20.36467530	 -16.29174024	 -12.21880518
No	 20.36467530	 -14.25527271	 -10.18233765
No	 22.40114283	 -16.29174024	 -10.18233765
No	 22.40114283	 -14.25527271	 -12.21880518
No	 20.36467530	 -16.29174024	 -8.14587012
No	 20.36467530	 -14.25527271	 -6.10940259
No	 22.40114283	 -16.29174024	 -6.10940259
No	 22.40114283	 -14.25527271	 -8.14587012
No	 20.36467530	 -16.29174024	 -4.07293506
No	 20.36467530	 -16.29174024	 4.07293506
No	 20.36467530	 -14.25527271	 6.10940259
No	 22.40114283	 -16.29174024	 6.10940259
No	 20.36467530	 -16.29174024	 8.14587012
No	 20.36467530	 -14.25527271	 10.18233765
No	 22.40114283	 -16.29174024	 10.18233765
No	 22.40114283	 -14.25527271	 8.14587012
No	 20.36467530	 -16.29174024	 12.21880518
No	 20.36467530	 -14.25527271	 14.25527271
No	 22.40114283	 -16.29174024	 14.25527271
No	 22.40114283	 -14.25527271	 12.21880518
No	 20.36467530	 -16.29174024	 16.29174024
No	 20.36467530	 -14.25527271	 18.32820777
No	 22.40114283	 -16.29174024	 18.32820777
No	 22.40114283	 -14.25527271	 16.29174024
No	 20.36467530	 -16.29174024	 20.36467530
No	 20.36467530	 -14.25527271	 22.40114283
No	 22.40114283	 -16.29174024	 22.40114283
No	 22.40114283	 -14.25527271	 20.36467530
No	 20.36467530	 -16.29174024	 24.43761036
No	 20.36467530	 -14.25527271	 26.47407789
No	 22.40114283	 -16.29174024	 26.47407789
No	 22.40114283	 -14.25527271	 24.43761036
No	 20.36467530	 -16.29174024	 28.51054542
No	 20.36467530	 -14.25527271	 30.54701295
No	 22.40114283	 -16.29174024	 30.54701295
No	 22.40114283	 -14.25527271	 28.51054542
No	 20.36467530	 -16.29174024	 32.58348048
No	 20.36467530	 -14.25527271	 34.61994801
No	 22.40114283	 -16.29174024	 34.61994801
No	 22.40114283	 -14.25527271	 32.58348048
No	 20.36467530	 -16.29174024	 36.65641554
No	 22.40114283	 -16.29174024	 38.69288307
No	 22.40114283	 -14.25527271	 36.65641554
No	 22.40114283	 -12.21880518	 -34.61994801
No	 20.36467530	 -12.21880518	 -32.58348048
No	 20.36467530	 -10.18233765	 -30.54701295
No	 22.40114283	 -12.21880518	 -30.54701295
No	 22.40114283	 -10.18233765	 -32.58348048
No	 20.36467530	 -12.21880518	 -28.51054542
No	 20.36467530	 -10.18233765	 -26.47407789
No	 22.40114283	 -12.21880518	 -26.47407789
No	 22.40114283	 -10.18233765	 -28.51054542
No	 20.36467530	 -12.21880518	 -24.43761036
No	 20.36467530	 -10.18233765	 -22.40114283
No	 22.40114283	 -12.21880518	 -22.40114283
No	 22.40114283	 -10.18233765	 -24.43761036
No	 20.36467530	 -12.21880518	 -20.36467530
No	 20.36467530	 -10.18233765	 -18.32820777
No	 22.40114283	 -12.21880518	 -18.32820777
No	 22.40114283	 -10.18233765	 -20.36467530
No	 20.36467530	 -12.21880518	 -16.29174024
No	 20.36467530	 -10.18233765	 -14.25527271
No	 22.40114283	 -12.21880518	 -14.25527271
No	 22.40114283	 -10.18233765	 -16.29174024
No	 20.36467530	 -12.21880518	 -12.21880518
No	 20.36467530	 -10.18233765	 -10.18233765
No	 22.40114283	 -12.21880518	 -10.18233765
No	 22.40114283	 -10.18233765	 -12.21880518
No	 20.36467530	 -12.21880518	 -8.14587012
No	 20.36467530	 -12.21880518	 8.14587012
No	 20.36467530	 -10.18233765	 10.18233765
No	 22.40114283	 -12.21880518	 10.18233765
No	 20.36467530	 -12.21880518	 12.21880518
No	 20.36467530	 -10.18233765	 14.25527271
No	 22.40114283	 -12.21880518	 14.25527271
No	 22.40114283	 -10.18233765	 12.21880518
No	 20.36467530	 -12.21880518	 16.29174024
No	 20.36467530	 -10.18233765	 18.32820777
No	 22.40114283	 -12.21880518	 18.32820777
No	 22.40114283	 -10.18233765	 16.29174024
No	 20.36467530	 -12.21880518	 20.36467530
No	 20.36467530	 -10.18233765	 22.40114283
No	 22.40114283	 -12.21880518	 22.40114283
No	 22.40114283	 -10.18233765	 20.36467530
No	 20.36467530	 -12.21880518	 24.43761036
No	 20.36467530	 -10.18233765	 26.47407789
No	 22.40114283	 -12.21880518	 26.47407789
No	 22.40114283	 -10.18233765	 24.43761036
No	 20.36467530	 -12.21880518	 28.51054542
No	 20.36467530	 -10.18233765	 30.54701295
No	 22.40114283	 -12.21880518	 30.54701295
No	 22.40114283	 -10.18233765	 28.51054542
No	 20.36467530	 -12.21880518	 32.58348048
No	 22.40114283	 -12.21880518	 34.61994801
No	 22.40114283	 -10.18233765	 32.58348048
No	 22.40114283	 -8.14587012	 -30.54701295
No	 20.36467530	 -8.14587012	 -28.51054542
No	 20.36467530	 -6.10940259	 -26.47407789
No	 22.40114283	 -8.14587012	 -26.47407789
No	 22.40114283	 -6.10940259	 -28.51054542
No	 20.36467530	 -8.14587012	 -24.43761036
No	 20.36467530	 -6.10940259	 -22.40114283
No	 22.40114283	 -8.14587012	 -22.40114283
No	 22.40114283	 -6.10940259	 -24.43761036
No	 20.36467530	 -8.14587012	 -20.36467530
No	 20.36467530	 -6.10940259	 -18.32820777
No	 22.40114283	 -8.14587012	 -18.32820777
No	 22.40114283	 -6.10940259	 -20.36467530
No	 20.36467530	 -8.14587012	 -16.29174024
No	 20.36467530	 -6.10940259	 -14.25527271
No	 22.40114283	 -8.14587012	 -14.25527271
No	 22.40114283	 -6.10940259	 -16.29174024
No	 20.36467530	 -8.14587012	 -12.21880518
No	 20.36467530	 -8.14587012	 12.21880518
No	 20.36467530	 -6.10940259	 14.25527271
No	 22.40114283	 -8.14587012	 14.25527271
No	 20.36467530	 -8.14587012	 16.29174024
No	 20.36467530	 -6.10940259	 18.32820777
No	 22.40114283	 -8.14587012	 18.32820777
No	 22.40114283	 -6.10940259	 16.29174024
No	 20.36467530	 -8.14587012	 20.36467530
No	 20.36467530	 -6.10940259	 22.40114283
No	 22.40114283	 -8.14587012	 22.40114283
No	 22.40114283	 -6.10940259	 20.36467530
No	 20.36467530	 -8.14587012	 24.43761036
No	 20.36467530	 -6.10940259	 26.47407789
No	 22.40114283	 -8.14587012	 26.47407789
No	 22.40114283	 -6.10940259	 24.43761036
No	 20.36467530	 -8.14587012	 28.51054542
No	 22.40114283	 -8.14587012	 30.54701295
No	 22.40114283	 -6.10940259	 28.51054542
No	 22.40114283	 -4.07293506	 -26.47407789
No	 20.36467530	 -4.07293506	 -24.43761036
No	 20.36467530	 -2.03646753	 -22.40114283
No	 22.40114283	 -4.07293506	 -22.40114283
No	 22.40114283	 -2.03646753	 -24.43761036
No	 20.36467530	 -4.07293506	 -20.36467530
No	 20.36467530	 -2.03646753	 -18.32820777
No	 22.40114283	 -4.07293506	 -18.32820777
No	 22.40114283	 -2.03646753	 -20.36467530
No	 20.36467530	 -4.07293506	 -16.29174024
No	 20.36467530	 -4.07293506	 16.29174024
No	 20.36467530	 -2.03646753	 18.32820777
No	 22.40114283	 -4.07293506	 18.32820777
No	 20.36467530	 -4.07293506	 20.36467530
No	 20.36467530	 -2.03646753	 22.40114283
No	 22.40114283	 -4.07293506	 22.40114283
No	 22.40114283	 -2.03646753	 20.36467530
No	 20.36467530	 -4.07293506	 24.43761036
No	 22.40114283	 -4.07293506	 26.47407789
No	 22.40114283	 -2.03646753	 24.43761036
No	 20.36467530	 2.03646753	 -22.40114283
No	 22.40114283	 -0.00000000	 -22.40114283
No	 22.40114283	 2.03646753	 -24.43761036
No	 20.36467530	 -0.00000000	 -20.36467530
No	 20.36467530	 2.03646753	 -18.32820777
No	 22.40114283	 2.03646753	 -20.36467530
No	 20.36467530	 2.03646753	 18.32820777
No	 20.36467530	 -0.00000000	 20.36467530
No	 20.36467530	 2.03646753	 22.40114283
No	 22.40114283	 -0.00000000	 22.40114283
No	 22.40114283	 2.03646753	 20.36467530
No	 22.40114283	 2.03646753	 24.43761036
No	 20.36467530	 6.10940259	 -26.47407789
No	 22.40114283	 4.07293506	 -26.47407789
No	 22.40114283	 6.10940259	 -28.51054542
No	 20.36467530	 4.07293506	 -24.43761036
No	 20.36467530	 6.10940259	 -22.40114283
No	 22.40114283	 4.07293506	 -22.40114283
No	 22.40114283	 6.10940259	 -24.43761036
No	 20.36467530	 4.07293506	 -20.36467530
No	 20.36467530	 6.10940259	 -18.32820777
No	 22.40114283	 4.07293506	 -18.32820777
No	 22.40114283	 6.10940259	 -20.36467530
No	 20.36467530	 4.07293506	 -16.29174024
No	 20.36467530	 6.10940259	 -14.25527271
No	 22.40114283	 6.10940259	 -16.29174024
No	 20.36467530	 6.10940259	 14.25527271
No	 20.36467530	 4.07293506	 16.29174024
No	 20.36467530	 6.10940259	 18.32820777
No	 22.40114283	 4.07293506	 18.32820777
No	 22.40114283	 6.10940259	 16.29174024
No	 20.36467530	 4.07293506	 20.36467530
No	 20.36467530	 6.10940259	 22.40114283
No	 22.40114283	 4.07293506	 22.40114283
No	 22.40114283	 6.10940259	 20.36467530
No	 20.36467530	 4.07293506	 24.43761036
No	 20.36467530	 6.10940259	 26.47407789
No	 22.40114283	 4.07293506	 26.47407789
No	 22.40114283	 6.10940259	 24.43761036
No	 22.40114283	 6.10940259	 28.51054542
No	 20.36467530	 10.18233765	 -30.54701295
No	 22.40114283	 8.14587012	 -30.54701295
No	 22.40114283	 10.18233765	 -32.58348048
No	 20.36467530	 8.14587012	 -28.51054542
No	 20.36467530	 10.18233765	 -26.47407789
No	 22.40114283	 8.14587012	 -26.47407789
No	 22.40114283	 10.18233765	 -28.51054542
No	 20.36467530	 8.14587012	 -24.43761036
No	 20.36467530	 10.18233765	 -22.40114283
No	 22.40114283	 8.14587012	 -22.40114283
No	 22.40114283	 10.18233765	 -24.43761036
No	 20.36467530	 8.14587012	 -20.36467530
No	 20.36467530	 10.18233765	 -18.32820777
No	 22.40114283	 8.14587012	 -18.32820777
No	 22.40114283	 10.18233765	 -20.36467530
No	 20.36467530	 8.14587012	 -16.29174024
No	 20.36467530	 10.18233765	 -14.25527271
No	 22.40114283	 8.14587012	 -14.25527271
No	 22.40114283	 10.18233765	 -16.29174024
No	 20.36467530	 8.14587012	 -12.21880518
No	 20.36467530	 10.18233765	 -10.18233765
No	 22.40114283	 10.18233765	 -12.21880518
No	 20.36467530	 10.18233765	 10.18233765
No	 20.36467530	 8.14587012	 12.21880518
No	 20.36467530	 10.18233765	 14.25527271
No	 22.40114283	 8.14587012	 14.25527271
No	 22.40114283	 10.18233765	 12.21880518
No	 20.36467530	 8.14587012	 16.29174024
No	 20.36467530	 10.18233765	 18.32820777
No	 22.40114283	 8.14587012	 18.32820777
No	 22.40114283	 10.18233765	 16.29174024
No	 20.36467530	 8.14587012	 20.36467530
No	 20.36467530	 10.18233765	 22.40114283
No	 22.40114283	 8.14587012	 22.40114283
No	 22.40114283	 10.18233765	 20.36467530
No	 20.36467530	 8.14587012	 24.43761036
No	 20.36467530	 10.18233765	 26.47407789
No	 22.40114283	 8.14587012	 26.47407789
No	 22.40114283	 10.18233765	 24.43761036
No	 20.36467530	 8.14587012	 28.51054542
No	 20.36467530	 10.18233765	 30.54701295
No	 22.40114283	 8.14587012	 30.54701295
No	 22.40114283	 10.18233765	 28.51054542
No	 22.40114283	 10.18233765	 32.58348048
Co	 22.40114283	 14.25527271	 -40.72935060
No	 20.36467530	 14.25527271	 -34.61994801
No	 22.40114283	 12.21880518	 -34.61994801
No	 22.40114283	 14.25527271	 -36.65641554
No	 20.36467530	 12.21880518	 -32.58348048
No	 20.36467530	 14.25527271	 -30.54701295
No	 22.40114283	 12.21880518	 -30.54701295
No	 22.40114283	 14.25527271	 -32.58348048
No	 20.36467530	 12.21880518	 -28.51054542
No	 20.36467530	 14.25527271	 -26.47407789
No	 22.40114283	 12.21880518	 -26.47407789
No	 22.40114283	 14.25527271	 -28.51054542
No	 20.36467530	 12.21880518	 -24.43761036
No	 20.36467530	 14.25527271	 -22.40114283
No	 22.40114283	 12.21880518	 -22.40114283
No	 22.40114283	 14.25527271	 -24.43761036
No	 20.36467530	 12.21880518	 -20.36467530
No	 20.36467530	 14.25527271	 -18.32820777
No	 22.40114283	 12.21880518	 -18.32820777
No	 22.40114283	 14.25527271	 -20.36467530
No	 20.36467530	 12.21880518	 -16.29174024
No	 20.36467530	 14.25527271	 -14.25527271
No	 22.40114283	 12.21880518	 -14.25527271
No	 22.40114283	 14.25527271	 -16.29174024
No	 20.36467530	 12.21880518	 -12.21880518
No	 20.36467530	 14.25527271	 -10.18233765
No	 22.40114283	 12.21880518	 -10.18233765
No	 22.40114283	 14.25527271	 -12.21880518
No	 20.36467530	 12.21880518	 -8.14587012
No	 20.36467530	 14.25527271	 -6.10940259
No	 22.40114283	 14.25527271	 -8.14587012
No	 20.36467530	 14.25527271	 6.10940259
No	 20.36467530	 12.21880518	 8.14587012
No	 20.36467530	 14.25527271	 10.18233765
No	 22.40114283	 12.21880518	 10.18233765
No	 22.40114283	 14.25527271	 8.14587012
No	 20.36467530	 12.21880518	 12.21880518
No	 20.36467530	 14.25527271	 14.25527271
No	 22.40114283	 12.21880518	 14.25527271
No	 22.40114283	 14.25527271	 12.21880518
No	 20.36467530	 12.21880518	 16.29174024
No	 20.36467530	 14.25527271	 18.32820777
No	 22.40114283	 12.21880518	 18.32820777
No	 22.40114283	 14.25527271	 16.29174024
No	 20.36467530	 12.21880518	 20.36467530
No	 20.36467530	 14.25527271	 22.40114283
No	 22.40114283	 12.21880518	 22.40114283
No	 22.40114283	 14.25527271	 20.36467530
No	 20.36467530	 12.21880518	 24.43761036
No	 20.36467530	 14.25527271	 26.47407789
No	 22.40114283	 12.21880518	 26.47407789
No	 22.40114283	 14.25527271	 24.43761036
No	 20.36467530	 12.21880518	 28.51054542
No	 20.36467530	 14.25527271	 30.54701295
No	 22.40114283	 12.21880518	 30.54701295
No	 22.40114283	 14.25527271	 28.51054542
No	 20.36467530	 12.21880518	 32.58348048
No	 20.36467530	 14.25527271	 34.61994801
No	 22.40114283	 12.21880518	 34.61994801
No	 22.40114283	 14.25527271	 32.58348048
No	 22.40114283	 14.25527271	 36.65641554
Co	 20.36467530	 16.29174024	 -40.72935060
No	 20.36467530	 18.32820777	 -38.69288307
No	 22.40114283	 16.29174024	 -38.69288307
Co	 22.40114283	 18.32820777	 -40.72935060
No	 20.36467530	 16.29174024	 -36.65641554
No	 20.36467530	 18.32820777	 -34.61994801
No	 22.40114283	 16.29174024	 -34.61994801
No	 22.40114283	 18.32820777	 -36.65641554
No	 20.36467530	 16.29174024	 -32.58348048
No	 20.36467530	 18.32820777	 -30.54701295
No	 22.40114283	 16.29174024	 -30.54701295
No	 22.40114283	 18.32820777	 -32.58348048
No	 20.36467530	 16.29174024	 -28.51054542
No	 20.36467530	 18.32820777	 -26.47407789
No	 22.40114283	 16.29174024	 -26.47407789
No	 22.40114283	 18.32820777	 -28.51054542
No	 20.36467530	 16.29174024	 -24.43761036
No	 20.36467530	 18.32820777	 -22.40114283
No	 22.40114283	 16.29174024	 -22.40114283
No	 22.40114283	 18.32820777	 -24.43761036
No	 20.36467530	 16.29174024	 -20.36467530
No	 20.36467530	 18.32820777	 -18.32820777
No	 22.40114283	 16.29174024	 -18.32820777
No	 22.40114283	 18.32820777	 -20.36467530
No	 20.36467530	 16.29174024	 -16.29174024
No	 20.36467530	 18.32820777	 -14.25527271
No	 22.40114283	 16.29174024	 -14.25527271
No	 22.40114283	 18.32820777	 -16.29174024
No	 20.36467530	 16.29174024	 -12.21880518
No	 20.36467530	 18.32820777	 -10.18233765
No	 22.40114283	 16.29174024	 -10.18233765
No	 22.40114283	 18.32820777	 -12.21880518
No	 20.36467530	 16.29174024	 -8.14587012
No	 20.36467530	 18.32820777	 -6.10940259
No	 22.40114283	 16.29174024	 -6.10940259
No	 22.40114283	 18.32820777	 -8.14587012
No	 20.36467530	 16.29174024	 -4.07293506
No	 20.36467530	 18.32820777	 -2.03646753
No	 22.40114283	 18.32820777	 -4.07293506
No	 20.36467530	 18.32820777	 2.03646753
No	 20.36467530	 16.29174024	 4.07293506
No	 20.36467530	 18.32820777	 6.10940259
No	 22.40114283	 16.29174024	 6.10940259
No	 22.40114283	 18.32820777	 4.07293506
No	 20.36467530	 16.29174024	 8.14587012
No	 20.36467530	 18.32820777	 10.18233765
No	 22.40114283	 16.29174024	 10.18233765
No	 22.40114283	 18.32820777	 8.14587012
No	 20.36467530	 16.29174024	 12.21880518
No	 20.36467530	 18.32820777	 14.25527271
No	 22.40114283	 16.29174024	 14.25527271
No	 22.40114283	 18.32820777	 12.21880518
No	 20.36467530	 16.29174024	 16.29174024
No	 20.36467530	 18.32820777	 18.32820777
No	 22.40114283	 16.29174024	 18.32820777
No	 22.40114283	 18.32820777	 16.29174024
No	 20.36467530	 16.29174024	 20.36467530
No	 20.36467530	 18.32820777	 22.40114283
No	 22.40114283	 16.29174024	 22.40114283
No	 22.40114283	 18.32820777	 20.36467530
No	 20.36467530	 16.29174024	 24.43761036
No	 20.36467530	 18.32820777	 26.47407789
No	 22.40114283	 16.29174024	 26.47407789
No	 22.40114283	 18.32820777	 24.43761036
No	 20.36467530	 16.29174024	 28.51054542
No	 20.36467530	 18.32820777	 30.54701295
No	 22.40114283	 16.29174024	 30.54701295
No	 22.40114283	 18.32820777	 28.51054542
No	 20.36467530	 16.29174024	 32.58348048
No	 20.36467530	 18.32820777	 34.61994801
No	 22.40114283	 16.29174024	 34.61994801
No	 22.40114283	 18.32820777	 32.58348048
No	 20.36467530	 16.29174024	 36.65641554
No	 20.36467530	 18.32820777	 38.69288307
No	 22.40114283	 16.29174024	 38.69288307
No	 22.40114283	 18.32820777	 36.65641554
Co	 20.36467530	 20.36467530	 -40.72935060
No	 20.36467530	 22.40114283	 -38.69288307
No	 22.40114283	 20.36467530	 -38.69288307
Co	 22.40114283	 22.40114283	 -40.72935060
No	 20.36467530	 20.36467530	 -36.65641554
No	 20.36467530	 22.40114283	 -34.61994801
No	 22.40114283	 20.36467530	 -34.61994801
No	 22.40114283	 22.40114283	 -36.65641554
No	 20.36467530	 20.36467530	 -32.58348048
No	 20.36467530	 22.40114283	 -30.54701295
No	 22.40114283	 20.36467530	 -30.54701295
No	 22.40114283	 22.40114283	 -32.58348048
No	 20.36467530	 20.36467530	 -28.51054542
No	 20.36467530	 22.40114283	 -26.47407789
No	 22.40114283	 20.36467530	 -26.47407789
No	 22.40114283	 22.40114283	 -28.51054542
No	 20.36467530	 20.36467530	 -24.43761036
No	 20.36467530	 22.40114283	 -22.40114283
No	 22.40114283	 20.36467530	 -22.40114283
No	 22.40114283	 22.40114283	 -24.43761036
No	 20.36467530	 20.36467530	 -20.36467530
No	 20.36467530	 22.40114283	 -18.32820777
No	 22.40114283	 20.36467530	 -18.32820777
No	 22.40114283	 22.40114283	 -20.36467530
No	 20.36467530	 20.36467530	 -16.29174024
No	 20.36467530	 22.40114283	 -14.25527271
No	 22.40114283	 20.36467530	 -14.25527271
No	 22.40114283	 22.40114283	 -16.29174024
No	 20.36467530	 20.36467530	 -12.21880518
No	 20.36467530	 22.40114283	 -10.18233765
No	 22.40114283	 20.36467530	 -10.18233765
No	 22.40114283	 22.40114283	 -12.21880518
No	 20.36467530	 20.36467530	 -8.14587012
No	 20.36467530	 22.40114283	 -6.10940259
No	 22.40114283	 20.36467530	 -6.10940259
No	 22.40114283	 22.40114283	 -8.14587012
No	 20.36467530	 20.36467530	 -4.07293506
No	 20.36467530	 22.40114283	 -2.03646753
No	 22.40114283	 20.36467530	 -2.03646753
No	 22.40114283	 22.40114283	 -4.07293506
No	 20.36467530	 20.36467530	 -0.00000000
No	 20.36467530	 22.40114283	 2.03646753
No	 22.40114283	 20.36467530	 2.03646753
No	 22.40114283	 22.40114283	 -0.00000000
No	 20.36467530	 20.36467530	 4.07293506
No	 20.36467530	 22.40114283	 6.10940259
No	 22.40114283	 20.36467530	 6.10940259
No	 22.40114283	 22.40114283	 4.07293506
No	 20.36467530	 20.36467530	 8.14587012
No	 20.36467530	 22.40114283	 10.18233765
No	 22.40114283	 20.36467530	 10.18233765
No	 22.40114283	 22.40114283	 8.14587012
No	 20.36467530	 20.36467530	 12.21880518
No	 20.36467530	 22.40114283	 14.25527271
No	 22.40114283	 20.36467530	 14.25527271
No	 22.40114283	 22.40114283	 12.21880518
No	 20.36467530	 20.36467530	 16.29174024
No	 20.36467530	 22.40114283	 18.32820777
No	 22.40114283	 20.36467530	 18.32820777
No	 22.40114283	 22.40114283	 16.29174024
No	 20.36467530	 20.36467530	 20.36467530
No	 20.36467530	 22.40114283	 22.40114283
No	 22.40114283	 20.36467530	 22.40114283
No	 22.40114283	 22.40114283	 20.36467530
No	 20.36467530	 20.36467530	 24.43761036
No	 20.36467530	 22.40114283	 26.47407789
No	 22.40114283	 20.36467530	 26.47407789
No	 22.40114283	 22.40114283	 24.43761036
No	 20.36467530	 20.36467530	 28.51054542
No	 20.36467530	 22.40114283	 30.54701295
No	 22.40114283	 20.36467530	 30.54701295
No	 22.40114283	 22.40114283	 28.51054542
No	 20.36467530	 20.36467530	 32.58348048
No	 20.36467530	 22.40114283	 34.61994801
No	 22.40114283	 20.36467530	 34.61994801
No	 22.40114283	 22.40114283	 32.58348048
No	 20.36467530	 20.36467530	 36.65641554
No	 20.36467530	 22.40114283	 38.69288307
No	 22.40114283	 20.36467530	 38.69288307
No	 22.40114283	 22.40114283	 36.65641554
Co	 20.36467530	 24.43761036	 -40.72935060
No	 20.36467530	 26.47407789	 -38.69288307
No	 22.40114283	 24.43761036	 -38.69288307
Co	 22.40114283	 26.47407789	 -40.72935060
No	 20.36467530	 24.43761036	 -36.65641554
No	 20.36467530	 26.47407789	 -34.61994801
No	 22.40114283	 24.43761036	 -34.61994801
No	 22.40114283	 26.47407789	 -36.65641554
No	 20.36467530	 24.43761036	 -32.58348048
No	 20.36467530	 26.47407789	 -30.54701295
No	 22.40114283	 24.43761036	 -30.54701295
No	 22.40114283	 26.47407789	 -32.58348048
No	 20.36467530	 24.43761036	 -28.51054542
No	 20.36467530	 26.47407789	 -26.47407789
No	 22.40114283	 24.43761036	 -26.47407789
No	 22.40114283	 26.47407789	 -28.51054542
No	 20.36467530	 24.43761036	 -24.43761036
No	 20.36467530	 26.47407789	 -22.40114283
No	 22.40114283	 24.43761036	 -22.40114283
No	 22.40114283	 26.47407789	 -24.43761036
No	 20.36467530	 24.43761036	 -20.36467530
No	 20.36467530	 26.47407789	 -18.32820777
No	 22.40114283	 24.43761036	 -18.32820777
No	 22.40114283	 26.47407789	 -20.36467530
No	 20.36467530	 24.43761036	 -16.29174024
No	 20.36467530	 26.47407789	 -14.25527271
No	 22.40114283	 24.43761036	 -14.25527271
No	 22.40114283	 26.47407789	 -16.29174024
No	 20.36467530	 24.43761036	 -12.21880518
No	 20.36467530	 26.47407789	 -10.18233765
No	 22.40114283	 24.43761036	 -10.18233765
No	 22.40114283	 26.47407789	 -12.21880518
No	 20.36467530	 24.43761036	 -8.14587012
No	 20.36467530	 26.47407789	 -6.10940259
No	 22.40114283	 24.43761036	 -6.10940259
No	 22.40114283	 26.47407789	 -8.14587012
No	 20.36467530	 24.43761036	 -4.07293506
No	 22.40114283	 24.43761036	 -2.03646753
No	 22.40114283	 26.47407789	 -4.07293506
No	 22.40114283	 24.43761036	 2.03646753
No	 20.36467530	 24.43761036	 4.07293506
No	 20.36467530	 26.47407789	 6.10940259
No	 22.40114283	 24.43761036	 6.10940259
No	 22.40114283	 26.47407789	 4.07293506
No	 20.36467530	 24.43761036	 8.14587012
No	 20.36467530	 26.47407789	 10.18233765
No	 22.40114283	 24.43761036	 10.18233765
No	 22.40114283	 26.47407789	 8.14587012
No	 20.36467530	 24.43761036	 12.21880518
No	 20.36467530	 26.47407789	 14.25527271
No	 22.40114283	 24.43761036	 14.25527271
No	 22.40114283	 26.47407789	 12.21880518
No	 20.36467530	 24.43761036	 16.29174024
No	 20.36467530	 26.47407789	 18.32820777
No	 22.40114283	 24.43761036	 18.32820777
No	 22.40114283	 26.47407789	 16.29174024
No	 20.36467530	 24.43761036	 20.36467530
No	 20.36467530	 26.47407789	 22.40114283
No	 22.40114283	 24.43761036	 22.40114283
No	 22.40114283	 26.47407789	 20.36467530
No	 20.36467530	 24.43761036	 24.43761036
No	 20.36467530	 26.47407789	 26.47407789
No	 22.40114283	 24.43761036	 26.47407789
No	 22.40114283	 26.47407789	 24.43761036
No	 20.36467530	 24.43761036	 28.51054542
No	 20.36467530	 26.47407789	 30.54701295
No	 22.40114283	 24.43761036	 30.54701295
No	 22.40114283	 26.47407789	 28.51054542
No	 20.36467530	 24.43761036	 32.58348048
No	 20.36467530	 26.47407789	 34.61994801
No	 22.40114283	 24.43761036	 34.61994801
No	 22.40114283	 26.47407789	 32.58348048
No	 20.36467530	 24.43761036	 36.65641554
No	 20.36467530	 26.47407789	 38.69288307
No	 22.40114283	 24.43761036	 38.69288307
No	 22.40114283	 26.47407789	 36.65641554
Co	 20.36467530	 28.51054542	 -40.72935060
No	 20.36467530	 30.54701295	 -38.69288307
No	 22.40114283	 28.51054542	 -38.69288307
Co	 22.40114283	 30.54701295	 -40.72935060
No	 20.36467530	 28.51054542	 -36.65641554
No	 20.36467530	 30.54701295	 -34.61994801
No	 22.40114283	 28.51054542	 -34.61994801
No	 22.40114283	 30.54701295	 -36.65641554
No	 20.36467530	 28.51054542	 -32.58348048
No	 20.36467530	 30.54701295	 -30.54701295
No	 22.40114283	 28.51054542	 -30.54701295
No	 22.40114283	 30.54701295	 -32.58348048
No	 20.36467530	 28.51054542	 -28.51054542
No	 20.36467530	 30.54701295	 -26.47407789
No	 22.40114283	 28.51054542	 -26.47407789
No	 22.40114283	 30.54701295	 -28.51054542
No	 20.36467530	 28.51054542	 -24.43761036
No	 20.36467530	 30.54701295	 -22.40114283
No	 22.40114283	 28.51054542	 -22.40114283
No	 22.40114283	 30.54701295	 -24.43761036
No	 20.36467530	 28.51054542	 -20.36467530
No	 20.36467530	 30.54701295	 -18.32820777
No	 22.40114283	 28.51054542	 -18.32820777
No	 22.40114283	 30.54701295	 -20.36467530
No	 20.36467530	 28.51054542	 -16.29174024
No	 20.36467530	 30.54701295	 -14.25527271
No	 22.40114283	 28.51054542	 -14.25527271
No	 22.40114283	 30.54701295	 -16.29174024
No	 20.36467530	 28.51054542	 -12.21880518
No	 20.36467530	 30.54701295	 -10.18233765
No	 22.40114283	 28.51054542	 -10.18233765
No	 22.40114283	 30.54701295	 -12.21880518
No	 20.36467530	 28.51054542	 -8.14587012
No	 22.40114283	 28.51054542	 -6.10940259
No	 22.40114283	 30.54701295	 -8.14587012
No	 22.40114283	 28.51054542	 6.10940259
No	 20.36467530	 28.51054542	 8.14587012
No	 20.36467530	 30.54701295	 10.18233765
No	 22.40114283	 28.51054542	 10.18233765
No	 22.40114283	 30.54701295	 8.14587012
No	 20.36467530	 28.51054542	 12.21880518
No	 20.36467530	 30.54701295	 14.25527271
No	 22.40114283	 28.51054542	 14.25527271
No	 22.40114283	 30.54701295	 12.21880518
No	 20.36467530	 28.51054542	 16.29174024
No	 20.36467530	 30.54701295	 18.32820777
No	 22.40114283	 28.51054542	 18.32820777
No	 22.40114283	 30.54701295	 16.29174024
No	 20.36467530	 28.51054542	 20.36467530
No	 20.36467530	 30.54701295	 22.40114283
No	 22.40114283	 28.51054542	 22.40114283
No	 22.40114283	 30.54701295	 20.36467530
No	 20.36467530	 28.51054542	 24.43761036
No	 20.36467530	 30.54701295	 26.47407789
No	 22.40114283	 28.51054542	 26.47407789
No	 22.40114283	 30.54701295	 24.43761036
No	 20.36467530	 28.51054542	 28.51054542
No	 20.36467530	 30.54701295	 30.54701295
No	 22.40114283	 28.51054542	 30.54701295
No	 22.40114283	 30.54701295	 28.51054542
No	 20.36467530	 28.51054542	 32.58348048
No	 20.36467530	 30.54701295	 34.61994801
No	 22.40114283	 28.51054542	 34.61994801
No	 22.40114283	 30.54701295	 32.58348048
No	 20.36467530	 28.51054542	 36.65641554
No	 20.36467530	 30.54701295	 38.69288307
No	 22.40114283	 28.51054542	 38.69288307
No	 22.40114283	 30.54701295	 36.65641554
Co	 20.36467530	 32.58348048	 -40.72935060
No	 20.36467530	 34.61994801	 -38.69288307
No	 22.40114283	 32.58348048	 -38.69288307
Co	 22.40114283	 34.61994801	 -40.72935060
No	 20.36467530	 32.58348048	 -36.65641554
No	 20.36467530	 34.61994801	 -34.61994801
No	 22.40114283	 32.58348048	 -34.61994801
No	 22.40114283	 34.61994801	 -36.65641554
No	 20.36467530	 32.58348048	 -32.58348048
No	 20.36467530	 34.61994801	 -30.54701295
No	 22.40114283	 32.58348048	 -30.54701295
No	 22.40114283	 34.61994801	 -32.58348048
No	 20.36467530	 32.58348048	 -28.51054542
No	 20.36467530	 34.61994801	 -26.47407789
No	 22.40114283	 32.58348048	 -26.47407789
No	 22.40114283	 34.61994801	 -28.51054542
No	 20.36467530	 32.58348048	 -24.43761036
No	 20.36467530	 34.61994801	 -22.40114283
No	 22.40114283	 32.58348048	 -22.40114283
No	 22.40114283	 34.61994801	 -24.43761036
No	 20.36467530	 32.58348048	 -20.36467530
No	 20.36467530	 34.61994801	 -18.32820777
No	 22.40114283	 32.58348048	 -18.32820777
No	 22.40114283	 34.61994801	 -20.36467530
No	 20.36467530	 32.58348048	 -16.29174024
No	 20.36467530	 34.61994801	 -14.25527271
No	 22.40114283	 32.58348048	 -14.25527271
No	 22.40114283	 34.61994801	 -16.29174024
No	 20.36467530	 32.58348048	 -12.21880518
No	 22.40114283	 32.58348048	 -10.18233765
No	 22.40114283	 34.61994801	 -12.21880518
No	 22.40114283	 32.58348048	 10.18233765
No	 20.36467530	 32.58348048	 12.21880518
No	 20.36467530	 34.61994801	 14.25527271
No	 22.40114283	 32.58348048	 14.25527271
No	 22.40114283	 34.61994801	 12.21880518
No	 20.36467530	 32.58348048	 16.29174024
No	 20.36467530	 34.61994801	 18.32820777
No	 22.40114283	 32.58348048	 18.32820777
No	 22.40114283	 34.61994801	 16.29174024
No	 20.36467530	 32.58348048	 20.36467530
No	 20.36467530	 34.61994801	 22.40114283
No	 22.40114283	 32.58348048	 22.40114283
No	 22.40114283	 34.61994801	 20.36467530
No	 20.36467530	 32.58348048	 24.43761036
No	 20.36467530	 34.61994801	 26.47407789
No	 22.40114283	 32.58348048	 26.47407789
No	 22.40114283	 34.61994801	 24.43761036
No	 20.36467530	 32.58348048	 28.51054542
No	 20.36467530	 34.61994801	 30.54701295
No	 22.40114283	 32.58348048	 30.54701295
No	 22.40114283	 34.61994801	 28.51054542
No	 20.36467530	 32.58348048	 32.58348048
No	 20.36467530	 34.61994801	 34.61994801
No	 22.40114283	 32.58348048	 34.61994801
No	 22.40114283	 34.61994801	 32.58348048
No	 20.36467530	 32.58348048	 36.65641554
No	 20.36467530	 34.61994801	 38.69288307
No	 22.40114283	 32.58348048	 38.69288307
No	 22.40114283	 34.61994801	 36.65641554
Co	 20.36467530	 36.65641554	 -40.72935060
No	 20.36467530	 38.69288307	 -38.69288307
No	 22.40114283	 36.65641554	 -38.69288307
Co	 22.40114283	 38.69288307	 -40.72935060
No	 20.36467530	 36.65641554	 -36.65641554
No	 20.36467530	 38.69288307	 -34.61994801
No	 22.40114283	 36.65641554	 -34.61994801
No	 22.40114283	 38.69288307	 -36.65641554
No	 20.36467530	 36.65641554	 -32.58348048
No	 20.36467530	 38.69288307	 -30.54701295
No	 22.40114283	 36.65641554	 -30.54701295
No	 22.40114283	 38.69288307	 -32.58348048
No	 20.36467530	 36.65641554	 -28.51054542
No	 20.36467530	 38.69288307	 -26.47407789
No	 22.40114283	 36.65641554	 -26.47407789
No	 22.40114283	 38.69288307	 -28.51054542
No	 20.36467530	 36.65641554	 -24.43761036
No	 20.36467530	 38.69288307	 -22.40114283
No	 22.40114283	 36.65641554	 -22.40114283
No	 22.40114283	 38.69288307	 -24.43761036
No	 20.36467530	 36.65641554	 -20.36467530
No	 20.36467530	 38.69288307	 -18.32820777
No	 22.40114283	 36.65641554	 -18.32820777
No	 22.40114283	 38.69288307	 -20.36467530
No	 20.36467530	 36.65641554	 -16.29174024
No	 22.40114283	 36.65641554	 -14.25527271
No	 22.40114283	 38.69288307	 -16.29174024
No	 22.40114283	 36.65641554	 14.25527271
No	 20.36467530	 36.65641554	 16.29174024
No	 20.36467530	 38.69288307	 18.32820777
No	 22.40114283	 36.65641554	 18.32820777
No	 22.40114283	 38.69288307	 16.29174024
No	 20.36467530	 36.65641554	 20.36467530
No	 20.36467530	 38.69288307	 22.40114283
No	 22.40114283	 36.65641554	 22.40114283
No	 22.40114283	 38.69288307	 20.36467530
No	 20.36467530	 36.65641554	 24.43761036
No	 20.36467530	 38.69288307	 26.47407789
No	 22.40114283	 36.65641554	 26.47407789
No	 22.40114283	 38.69288307	 24.43761036
No	 20.36467530	 36.65641554	 28.51054542
No	 20.36467530	 38.69288307	 30.54701295
No	 22.40114283	 36.65641554	 30.54701295
No	 22.40114283	 38.69288307	 28.51054542
No	 20.36467530	 36.65641554	 32.58348048
No	 20.36467530	 38.69288307	 34.61994801
No	 22.40114283	 36.65641554	 34.61994801
No	 22.40114283	 38.69288307	 32.58348048
No	 20.36467530	 36.65641554	 36.65641554
No	 20.36467530	 38.69288307	 38.69288307
No	 22.40114283	 36.65641554	 38.69288307
No	 22.40114283	 38.69288307	 36.65641554
Co	 24.43761036	 -40.72935060	 -40.72935060
No	 24.43761036	 -38.69288307	 -38.69288307
Co	 26.47407789	 -40.72935060	 -38.69288307
Co	 26.47407789	 -38.69288307	 -40.72935060
Co	 24.43761036	 -40.72935060	 -36.65641554
No	 24.43761036	 -38.69288307	 -34.61994801
Co	 26.47407789	 -40.72935060	 -34.61994801
No	 26.47407789	 -38.69288307	 -36.65641554
Co	 24.43761036	 -40.72935060	 -32.58348048
No	 24.43761036	 -38.69288307	 -30.54701295
Co	 26.47407789	 -40.72935060	 -30.54701295
No	 26.47407789	 -38.69288307	 -32.58348048
Co	 24.43761036	 -40.72935060	 -28.51054542
No	 24.43761036	 -38.69288307	 -26.47407789
Co	 26.47407789	 -40.72935060	 -26.47407789
No	 26.47407789	 -38.69288307	 -28.51054542
Co	 24.43761036	 -40.72935060	 -24.43761036
No	 24.43761036	 -38.69288307	 -22.40114283
Co	 26.47407789	 -40.72935060	 -22.40114283
No	 26.47407789	 -38.69288307	 -24.43761036
Co	 24.43761036	 -40.72935060	 -20.36467530
No	 24.43761036	 -38.69288307	 -18.32820777
Co	 26.47407789	 -40.72935060	 -18.32820777
No	 26.47407789	 -38.69288307	 -20.36467530
Co	 24.43761036	 -40.72935060	 -16.29174024
No	 24.43761036	 -38.69288307	 -14.25527271
Co	 26.47407789	 -40.72935060	 -14.25527271
No	 26.47407789	 -38.69288307	 -16.29174024
Co	 24.43761036	 -40.72935060	 -12.21880518
Co	 26.47407789	 -40.72935060	 -10.18233765
No	 26.47407789	 -38.69288307	 -12.21880518
Co	 26.47407789	 -40.72935060	 10.18233765
Co	 24.43761036	 -40.72935060	 12.21880518
No	 24.43761036	 -38.69288307	 14.25527271
Co	 26.47407789	 -40.72935060	 14.25527271
No	 26.47407789	 -38.69288307	 12.21880518
Co	 24.43761036	 -40.72935060	 16.29174024
No	 24.43761036	 -38.69288307	 18.32820777
Co	 26.47407789	 -40.72935060	 18.32820777
No	 26.47407789	 -38.69288307	 16.29174024
Co	 24.43761036	 -40.72935060	 20.36467530
No	 24.43761036	 -38.69288307	 22.40114283
Co	 26.47407789	 -40.72935060	 22.40114283
No	 26.47407789	 -38.69288307	 20.36467530
Co	 24.43761036	 -40.72935060	 24.43761036
No	 24.43761036	 -38.69288307	 26.47407789
Co	 26.47407789	 -40.72935060	 26.47407789
No	 26.47407789	 -38.69288307	 24.43761036
Co	 24.43761036	 -40.72935060	 28.51054542
No	 24.43761036	 -38.69288307	 30.54701295
Co	 26.47407789	 -40.72935060	 30.54701295
No	 26.47407789	 -38.69288307	 28.51054542
Co	 24.43761036	 -40.72935060	 32.58348048
No	 24.43761036	 -38.69288307	 34.61994801
Co	 26.47407789	 -40.72935060	 34.61994801
No	 26.47407789	 -38.69288307	 32.58348048
Co	 24.43761036	 -40.72935060	 36.65641554
No	 24.43761036	 -38.69288307	 38.69288307
Co	 26.47407789	 -40.72935060	 38.69288307
No	 26.47407789	 -38.69288307	 36.65641554
Co	 24.43761036	 -36.65641554	 -40.72935060
No	 24.43761036	 -34.61994801	 -38.69288307
No	 26.47407789	 -36.65641554	 -38.69288307
Co	 26.47407789	 -34.61994801	 -40.72935060
No	 24.43761036	 -36.65641554	 -36.65641554
No	 24.43761036	 -34.61994801	 -34.61994801
No	 26.47407789	 -36.65641554	 -34.61994801
No	 26.47407789	 -34.61994801	 -36.65641554
No	 24.43761036	 -36.65641554	 -32.58348048
No	 24.43761036	 -34.61994801	 -30.54701295
No	 26.47407789	 -36.65641554	 -30.54701295
No	 26.47407789	 -34.61994801	 -32.58348048
No	 24.43761036	 -36.65641554	 -28.51054542
No	 24.43761036	 -34.61994801	 -26.47407789
No	 26.47407789	 -36.65641554	 -26.47407789
No	 26.47407789	 -34.61994801	 -28.51054542
No	 24.43761036	 -36.65641554	 -24.43761036
No	 24.43761036	 -34.61994801	 -22.40114283
No	 26.47407789	 -36.65641554	 -22.40114283
No	 26.47407789	 -34.61994801	 -24.43761036
No	 24.43761036	 -36.65641554	 -20.36467530
No	 24.43761036	 -34.61994801	 -18.32820777
No	 26.47407789	 -36.65641554	 -18.32820777
No	 26.47407789	 -34.61994801	 -20.36467530
No	 24.43761036	 -36.65641554	 -16.29174024
No	 24.43761036	 -34.61994801	 -14.25527271
No	 26.47407789	 -36.65641554	 -14.25527271
No	 26.47407789	 -34.61994801	 -16.29174024
No	 24.43761036	 -36.65641554	 -12.21880518
No	 24.43761036	 -34.61994801	 -10.18233765
No	 26.47407789	 -36.65641554	 -10.18233765
No	 26.47407789	 -34.61994801	 -12.21880518
No	 26.47407789	 -34.61994801	 -8.14587012
No	 24.43761036	 -34.61994801	 10.18233765
No	 26.47407789	 -36.65641554	 10.18233765
No	 26.47407789	 -34.61994801	 8.14587012
No	 24.43761036	 -36.65641554	 12.21880518
No	 24.43761036	 -34.61994801	 14.25527271
No	 26.47407789	 -36.65641554	 14.25527271
No	 26.47407789	 -34.61994801	 12.21880518
No	 24.43761036	 -36.65641554	 16.29174024
No	 24.43761036	 -34.61994801	 18.32820777
No	 26.47407789	 -36.65641554	 18.32820777
No	 26.47407789	 -34.61994801	 16.29174024
No	 24.43761036	 -36.65641554	 20.36467530
No	 24.43761036	 -34.61994801	 22.40114283
No	 26.47407789	 -36.65641554	 22.40114283
No	 26.47407789	 -34.61994801	 20.36467530
No	 24.43761036	 -36.65641554	 24.43761036
No	 24.43761036	 -34.61994801	 26.47407789
No	 26.47407789	 -36.65641554	 26.47407789
No	 26.47407789	 -34.61994801	 24.43761036
No	 24.43761036	 -36.65641554	 28.51054542
No	 24.43761036	 -34.61994801	 30.54701295
No	 26.47407789	 -36.65641554	 30.54701295
No	 26.47407789	 -34.61994801	 28.51054542
No	 24.43761036	 -36.65641554	 32.58348048
No	 24.43761036	 -34.61994801	 34.61994801
No	 26.47407789	 -36.65641554	 34.61994801
No	 26.47407789	 -34.61994801	 32.58348048
No	 24.43761036	 -36.65641554	 36.65641554
No	 24.43761036	 -34.61994801	 38.69288307
No	 26.47407789	 -36.65641554	 38.69288307
No	 26.47407789	 -34.61994801	 36.65641554
Co	 24.43761036	 -32.58348048	 -40.72935060
No	 24.43761036	 -30.54701295	 -38.69288307
No	 26.47407789	 -32.58348048	 -38.69288307
Co	 26.47407789	 -30.54701295	 -40.72935060
No	 24.43761036	 -32.58348048	 -36.65641554
No	 24.43761036	 -30.54701295	 -34.61994801
No	 26.47407789	 -32.58348048	 -34.61994801
No	 26.47407789	 -30.54701295	 -36.65641554
No	 24.43761036	 -32.58348048	 -32.58348048
No	 24.43761036	 -30.54701295	 -30.54701295
No	 26.47407789	 -32.58348048	 -30.54701295
No	 26.47407789	 -30.54701295	 -32.58348048
No	 24.43761036	 -32.58348048	 -28.51054542
No	 24.43761036	 -30.54701295	 -26.47407789
No	 26.47407789	 -32.58348048	 -26.47407789
No	 26.47407789	 -30.54701295	 -28.51054542
No	 24.43761036	 -32.58348048	 -24.43761036
No	 24.43761036	 -30.54701295	 -22.40114283
No	 26.47407789	 -32.58348048	 -22.40114283
No	 26.47407789	 -30.54701295	 -24.43761036
No	 24.43761036	 -32.58348048	 -20.36467530
No	 24.43761036	 -30.54701295	 -18.32820777
No	 26.47407789	 -32.58348048	 -18.32820777
No	 26.47407789	 -30.54701295	 -20.36467530
No	 24.43761036	 -32.58348048	 -16.29174024
No	 24.43761036	 -30.54701295	 -14.25527271
No	 26.47407789	 -32.58348048	 -14.25527271
No	 26.47407789	 -30.54701295	 -16.29174024
No	 24.43761036	 -32.58348048	 -12.21880518
No	 24.43761036	 -30.54701295	 -10.18233765
No	 26.47407789	 -32.58348048	 -10.18233765
No	 26.47407789	 -30.54701295	 -12.21880518
No	 24.43761036	 -32.58348048	 -8.14587012
No	 24.43761036	 -30.54701295	 -6.10940259
No	 26.47407789	 -32.58348048	 -6.10940259
No	 26.47407789	 -30.54701295	 -8.14587012
No	 26.47407789	 -30.54701295	 -4.07293506
No	 24.43761036	 -30.54701295	 6.10940259
No	 26.47407789	 -32.58348048	 6.10940259
No	 26.47407789	 -30.54701295	 4.07293506
No	 24.43761036	 -32.58348048	 8.14587012
No	 24.43761036	 -30.54701295	 10.18233765
No	 26.47407789	 -32.58348048	 10.18233765
No	 26.47407789	 -30.54701295	 8.14587012
No	 24.43761036	 -32.58348048	 12.21880518
No	 24.43761036	 -30.54701295	 14.25527271
No	 26.47407789	 -32.58348048	 14.25527271
No	 26.47407789	 -30.54701295	 12.21880518
No	 24.43761036	 -32.58348048	 16.29174024
No	 24.43761036	 -30.54701295	 18.32820777
No	 26.47407789	 -32.58348048	 18.32820777
No	 26.47407789	 -30.54701295	 16.29174024
No	 24.43761036	 -32.58348048	 20.36467530
No	 24.43761036	 -30.54701295	 22.40114283
No	 26.47407789	 -32.58348048	 22.40114283
No	 26.47407789	 -30.54701295	 20.36467530
No	 24.43761036	 -32.58348048	 24.43761036
No	 24.43761036	 -30.54701295	 26.47407789
No	 26.47407789	 -32.58348048	 26.47407789
No	 26.47407789	 -30.54701295	 24.43761036
No	 24.43761036	 -32.58348048	 28.51054542
No	 24.43761036	 -30.54701295	 30.54701295
No	 26.47407789	 -32.58348048	 30.54701295
No	 26.47407789	 -30.54701295	 28.51054542
No	 24.43761036	 -32.58348048	 32.58348048
No	 24.43761036	 -30.54701295	 34.61994801
No	 26.47407789	 -32.58348048	 34.61994801
No	 26.47407789	 -30.54701295	 32.58348048
No	 24.43761036	 -32.58348048	 36.65641554
No	 24.43761036	 -30.54701295	 38.69288307
No	 26.47407789	 -32.58348048	 38.69288307
No	 26.47407789	 -30.54701295	 36.65641554
Co	 24.43761036	 -28.51054542	 -40.72935060
No	 24.43761036	 -26.47407789	 -38.69288307
No	 26.47407789	 -28.51054542	 -38.69288307
Co	 26.47407789	 -26.47407789	 -40.72935060
No	 24.43761036	 -28.51054542	 -36.65641554
No	 24.43761036	 -26.47407789	 -34.61994801
No	 26.47407789	 -28.51054542	 -34.61994801
No	 26.47407789	 -26.47407789	 -36.65641554
No	 24.43761036	 -28.51054542	 -32.58348048
No	 24.43761036	 -26.47407789	 -30.54701295
No	 26.47407789	 -28.51054542	 -30.54701295
No	 26.47407789	 -26.47407789	 -32.58348048
No	 24.43761036	 -28.51054542	 -28.51054542
No	 24.43761036	 -26.47407789	 -26.47407789
No	 26.47407789	 -28.51054542	 -26.47407789
No	 26.47407789	 -26.47407789	 -28.51054542
No	 24.43761036	 -28.51054542	 -24.43761036
No	 24.43761036	 -26.47407789	 -22.40114283
No	 26.47407789	 -28.51054542	 -22.40114283
No	 26.47407789	 -26.47407789	 -24.43761036
No	 24.43761036	 -28.51054542	 -20.36467530
No	 24.43761036	 -26.47407789	 -18.32820777
No	 26.47407789	 -28.51054542	 -18.32820777
No	 26.47407789	 -26.47407789	 -20.36467530
No	 24.43761036	 -28.51054542	 -16.29174024
No	 24.43761036	 -26.47407789	 -14.25527271
No	 26.47407789	 -28.51054542	 -14.25527271
No	 26.47407789	 -26.47407789	 -16.29174024
No	 24.43761036	 -28.51054542	 -12.21880518
No	 24.43761036	 -26.47407789	 -10.18233765
No	 26.47407789	 -28.51054542	 -10.18233765
No	 26.47407789	 -26.47407789	 -12.21880518
No	 24.43761036	 -28.51054542	 -8.14587012
No	 24.43761036	 -26.47407789	 -6.10940259
No	 26.47407789	 -28.51054542	 -6.10940259
No	 26.47407789	 -26.47407789	 -8.14587012
No	 24.43761036	 -28.51054542	 -4.07293506
No	 24.43761036	 -26.47407789	 -2.03646753
No	 26.47407789	 -28.51054542	 -2.03646753
No	 26.47407789	 -26.47407789	 -4.07293506
No	 24.43761036	 -26.47407789	 2.03646753
No	 26.47407789	 -28.51054542	 2.03646753
No	 26.47407789	 -26.47407789	 -0.00000000
No	 24.43761036	 -28.51054542	 4.07293506
No	 24.43761036	 -26.47407789	 6.10940259
No	 26.47407789	 -28.51054542	 6.10940259
No	 26.47407789	 -26.47407789	 4.07293506
No	 24.43761036	 -28.51054542	 8.14587012
No	 24.43761036	 -26.47407789	 10.18233765
No	 26.47407789	 -28.51054542	 10.18233765
No	 26.47407789	 -26.47407789	 8.14587012
No	 24.43761036	 -28.51054542	 12.21880518
No	 24.43761036	 -26.47407789	 14.25527271
No	 26.47407789	 -28.51054542	 14.25527271
No	 26.47407789	 -26.47407789	 12.21880518
No	 24.43761036	 -28.51054542	 16.29174024
No	 24.43761036	 -26.47407789	 18.32820777
No	 26.47407789	 -28.51054542	 18.32820777
No	 26.47407789	 -26.47407789	 16.29174024
No	 24.43761036	 -28.51054542	 20.36467530
No	 24.43761036	 -26.47407789	 22.40114283
No	 26.47407789	 -28.51054542	 22.40114283
No	 26.47407789	 -26.47407789	 20.36467530
No	 24.43761036	 -28.51054542	 24.43761036
No	 24.43761036	 -26.47407789	 26.47407789
No	 26.47407789	 -28.51054542	 26.47407789
No	 26.47407789	 -26.47407789	 24.43761036
No	 24.43761036	 -28.51054542	 28.51054542
No	 24.43761036	 -26.47407789	 30.54701295
No	 26.47407789	 -28.51054542	 30.54701295
No	 26.47407789	 -26.47407789	 28.51054542
No	 24.43761036	 -28.51054542	 32.58348048
No	 24.43761036	 -26.47407789	 34.61994801
No	 26.47407789	 -28.51054542	 34.61994801
No	 26.47407789	 -26.47407789	 32.58348048
No	 24.43761036	 -28.51054542	 36.65641554
No	 24.43761036	 -26.47407789	 38.69288307
No	 26.47407789	 -28.51054542	 38.69288307
No	 26.47407789	 -26.47407789	 36.65641554
Co	 24.43761036	 -24.43761036	 -40.72935060
No	 24.43761036	 -22.40114283	 -38.69288307
No	 26.47407789	 -24.43761036	 -38.69288307
Co	 26.47407789	 -22.40114283	 -40.72935060
No	 24.43761036	 -24.43761036	 -36.65641554
No	 24.43761036	 -22.40114283	 -34.61994801
No	 26.47407789	 -24.43761036	 -34.61994801
No	 26.47407789	 -22.40114283	 -36.65641554
No	 24.43761036	 -24.43761036	 -32.58348048
No	 24.43761036	 -22.40114283	 -30.54701295
No	 26.47407789	 -24.43761036	 -30.54701295
No	 26.47407789	 -22.40114283	 -32.58348048
No	 24.43761036	 -24.43761036	 -28.51054542
No	 24.43761036	 -22.40114283	 -26.47407789
No	 26.47407789	 -24.43761036	 -26.47407789
No	 26.47407789	 -22.40114283	 -28.51054542
No	 24.43761036	 -24.43761036	 -24.43761036
No	 24.43761036	 -22.40114283	 -22.40114283
No	 26.47407789	 -24.43761036	 -22.40114283
No	 26.47407789	 -22.40114283	 -24.43761036
No	 24.43761036	 -24.43761036	 -20.36467530
No	 24.43761036	 -22.40114283	 -18.32820777
No	 26.47407789	 -24.43761036	 -18.32820777
No	 26.47407789	 -22.40114283	 -20.36467530
No	 24.43761036	 -24.43761036	 -16.29174024
No	 24.43761036	 -22.40114283	 -14.25527271
No	 26.47407789	 -24.43761036	 -14.25527271
No	 26.47407789	 -22.40114283	 -16.29174024
No	 24.43761036	 -24.43761036	 -12.21880518
No	 24.43761036	 -22.40114283	 -10.18233765
No	 26.47407789	 -24.43761036	 -10.18233765
No	 26.47407789	 -22.40114283	 -12.21880518
No	 24.43761036	 -24.43761036	 -8.14587012
No	 24.43761036	 -22.40114283	 -6.10940259
No	 26.47407789	 -24.43761036	 -6.10940259
No	 26.47407789	 -22.40114283	 -8.14587012
No	 24.43761036	 -24.43761036	 -4.07293506
No	 24.43761036	 -22.40114283	 -2.03646753
No	 26.47407789	 -24.43761036	 -2.03646753
No	 26.47407789	 -22.40114283	 -4.07293506
No	 24.43761036	 -24.43761036	 -0.00000000
No	 24.43761036	 -22.40114283	 2.03646753
No	 26.47407789	 -24.43761036	 2.03646753
No	 24.43761036	 -24.43761036	 4.07293506
No	 24.43761036	 -22.40114283	 6.10940259
No	 26.47407789	 -24.43761036	 6.10940259
No	 26.47407789	 -22.40114283	 4.07293506
No	 24.43761036	 -24.43761036	 8.14587012
No	 24.43761036	 -22.40114283	 10.18233765
No	 26.47407789	 -24.43761036	 10.18233765
No	 26.47407789	 -22.40114283	 8.14587012
No	 24.43761036	 -24.43761036	 12.21880518
No	 24.43761036	 -22.40114283	 14.25527271
No	 26.47407789	 -24.43761036	 14.25527271
No	 26.47407789	 -22.40114283	 12.21880518
No	 24.43761036	 -24.43761036	 16.29174024
No	 24.43761036	 -22.40114283	 18.32820777
No	 26.47407789	 -24.43761036	 18.32820777
No	 26.47407789	 -22.40114283	 16.29174024
No	 24.43761036	 -24.43761036	 20.36467530
No	 24.43761036	 -22.40114283	 22.40114283
No	 26.47407789	 -24.43761036	 22.40114283
No	 26.47407789	 -22.40114283	 20.36467530
No	 24.43761036	 -24.43761036	 24.43761036
No	 24.43761036	 -22.40114283	 26.47407789
No	 26.47407789	 -24.43761036	 26.47407789
No	 26.47407789	 -22.40114283	 24.43761036
No	 24.43761036	 -24.43761036	 28.51054542
No	 24.43761036	 -22.40114283	 30.54701295
No	 26.47407789	 -24.43761036	 30.54701295
No	 26.47407789	 -22.40114283	 28.51054542
No	 24.43761036	 -24.43761036	 32.58348048
No	 24.43761036	 -22.40114283	 34.61994801
No	 26.47407789	 -24.43761036	 34.61994801
No	 26.47407789	 -22.40114283	 32.58348048
No	 24.43761036	 -24.43761036	 36.65641554
No	 24.43761036	 -22.40114283	 38.69288307
No	 26.47407789	 -24.43761036	 38.69288307
No	 26.47407789	 -22.40114283	 36.65641554
Co	 24.43761036	 -20.36467530	 -40.72935060
No	 24.43761036	 -18.32820777	 -38.69288307
No	 26.47407789	 -20.36467530	 -38.69288307
Co	 26.47407789	 -18.32820777	 -40.72935060
No	 24.43761036	 -20.36467530	 -36.65641554
No	 24.43761036	 -18.32820777	 -34.61994801
No	 26.47407789	 -20.36467530	 -34.61994801
No	 26.47407789	 -18.32820777	 -36.65641554
No	 24.43761036	 -20.36467530	 -32.58348048
No	 24.43761036	 -18.32820777	 -30.54701295
No	 26.47407789	 -20.36467530	 -30.54701295
No	 26.47407789	 -18.32820777	 -32.58348048
No	 24.43761036	 -20.36467530	 -28.51054542
No	 24.43761036	 -18.32820777	 -26.47407789
No	 26.47407789	 -20.36467530	 -26.47407789
No	 26.47407789	 -18.32820777	 -28.51054542
No	 24.43761036	 -20.36467530	 -24.43761036
No	 24.43761036	 -18.32820777	 -22.40114283
No	 26.47407789	 -20.36467530	 -22.40114283
No	 26.47407789	 -18.32820777	 -24.43761036
No	 24.43761036	 -20.36467530	 -20.36467530
No	 24.43761036	 -18.32820777	 -18.32820777
No	 26.47407789	 -20.36467530	 -18.32820777
No	 26.47407789	 -18.32820777	 -20.36467530
No	 24.43761036	 -20.36467530	 -16.29174024
No	 24.43761036	 -18.32820777	 -14.25527271
No	 26.47407789	 -20.36467530	 -14.25527271
No	 26.47407789	 -18.32820777	 -16.29174024
No	 24.43761036	 -20.36467530	 -12.21880518
No	 24.43761036	 -18.32820777	 -10.18233765
No	 26.47407789	 -20.36467530	 -10.18233765
No	 26.47407789	 -18.32820777	 -12.21880518
No	 24.43761036	 -20.36467530	 -8.14587012
No	 24.43761036	 -18.32820777	 -6.10940259
No	 26.47407789	 -20.36467530	 -6.10940259
No	 26.47407789	 -18.32820777	 -8.14587012
No	 24.43761036	 -20.36467530	 -4.07293506
No	 24.43761036	 -20.36467530	 4.07293506
No	 24.43761036	 -18.32820777	 6.10940259
No	 26.47407789	 -20.36467530	 6.10940259
No	 24.43761036	 -20.36467530	 8.14587012
No	 24.43761036	 -18.32820777	 10.18233765
No	 26.47407789	 -20.36467530	 10.18233765
No	 26.47407789	 -18.32820777	 8.14587012
No	 24.43761036	 -20.36467530	 12.21880518
No	 24.43761036	 -18.32820777	 14.25527271
No	 26.47407789	 -20.36467530	 14.25527271
No	 26.47407789	 -18.32820777	 12.21880518
No	 24.43761036	 -20.36467530	 16.29174024
No	 24.43761036	 -18.32820777	 18.32820777
No	 26.47407789	 -20.36467530	 18.32820777
No	 26.47407789	 -18.32820777	 16.29174024
No	 24.43761036	 -20.36467530	 20.36467530
No	 24.43761036	 -18.32820777	 22.40114283
No	 26.47407789	 -20.36467530	 22.40114283
No	 26.47407789	 -18.32820777	 20.36467530
No	 24.43761036	 -20.36467530	 24.43761036
No	 24.43761036	 -18.32820777	 26.47407789
No	 26.47407789	 -20.36467530	 26.47407789
No	 26.47407789	 -18.32820777	 24.43761036
No	 24.43761036	 -20.36467530	 28.51054542
No	 24.43761036	 -18.32820777	 30.54701295
No	 26.47407789	 -20.36467530	 30.54701295
No	 26.47407789	 -18.32820777	 28.51054542
No	 24.43761036	 -20.36467530	 32.58348048
No	 24.43761036	 -18.32820777	 34.61994801
No	 26.47407789	 -20.36467530	 34.61994801
No	 26.47407789	 -18.32820777	 32.58348048
No	 24.43761036	 -20.36467530	 36.65641554
No	 24.43761036	 -18.32820777	 38.69288307
No	 26.47407789	 -20.36467530	 38.69288307
No	 26.47407789	 -18.32820777	 36.65641554
Co	 24.43761036	 -16.29174024	 -40.72935060
No	 24.43761036	 -14.25527271	 -38.69288307
No	 26.47407789	 -16.29174024	 -38.69288307
Co	 26.47407789	 -14.25527271	 -40.72935060
No	 24.43761036	 -16.29174024	 -36.65641554
No	 24.43761036	 -14.25527271	 -34.61994801
No	 26.47407789	 -16.29174024	 -34.61994801
No	 26.47407789	 -14.25527271	 -36.65641554
No	 24.43761036	 -16.29174024	 -32.58348048
No	 24.43761036	 -14.25527271	 -30.54701295
No	 26.47407789	 -16.29174024	 -30.54701295
No	 26.47407789	 -14.25527271	 -32.58348048
No	 24.43761036	 -16.29174024	 -28.51054542
No	 24.43761036	 -14.25527271	 -26.47407789
No	 26.47407789	 -16.29174024	 -26.47407789
No	 26.47407789	 -14.25527271	 -28.51054542
No	 24.43761036	 -16.29174024	 -24.43761036
No	 24.43761036	 -14.25527271	 -22.40114283
No	 26.47407789	 -16.29174024	 -22.40114283
No	 26.47407789	 -14.25527271	 -24.43761036
No	 24.43761036	 -16.29174024	 -20.36467530
No	 24.43761036	 -14.25527271	 -18.32820777
No	 26.47407789	 -16.29174024	 -18.32820777
No	 26.47407789	 -14.25527271	 -20.36467530
No	 24.43761036	 -16.29174024	 -16.29174024
No	 24.43761036	 -14.25527271	 -14.25527271
No	 26.47407789	 -16.29174024	 -14.25527271
No	 26.47407789	 -14.25527271	 -16.29174024
No	 24.43761036	 -16.29174024	 -12.21880518
No	 24.43761036	 -14.25527271	 -10.18233765
No	 26.47407789	 -16.29174024	 -10.18233765
No	 26.47407789	 -14.25527271	 -12.21880518
No	 24.43761036	 -16.29174024	 -8.14587012
No	 24.43761036	 -16.29174024	 8.14587012
No	 24.43761036	 -14.25527271	 10.18233765
No	 26.47407789	 -16.29174024	 10.18233765
No	 24.43761036	 -16.29174024	 12.21880518
No	 24.43761036	 -14.25527271	 14.25527271
No	 26.47407789	 -16.29174024	 14.25527271
No	 26.47407789	 -14.25527271	 12.21880518
No	 24.43761036	 -16.29174024	 16.29174024
No	 24.43761036	 -14.25527271	 18.32820777
No	 26.47407789	 -16.29174024	 18.32820777
No	 26.47407789	 -14.25527271	 16.29174024
No	 24.43761036	 -16.29174024	 20.36467530
No	 24.43761036	 -14.25527271	 22.40114283
No	 26.47407789	 -16.29174024	 22.40114283
No	 26.47407789	 -14.25527271	 20.36467530
No	 24.43761036	 -16.29174024	 24.43761036
No	 24.43761036	 -14.25527271	 26.47407789
No	 26.47407789	 -16.29174024	 26.47407789
No	 26.47407789	 -14.25527271	 24.43761036
No	 24.43761036	 -16.29174024	 28.51054542
No	 24.43761036	 -14.25527271	 30.54701295
No	 26.47407789	 -16.29174024	 30.54701295
No	 26.47407789	 -14.25527271	 28.51054542
No	 24.43761036	 -16.29174024	 32.58348048
No	 24.43761036	 -14.25527271	 34.61994801
No	 26.47407789	 -16.29174024	 34.61994801
No	 26.47407789	 -14.25527271	 32.58348048
No	 24.43761036	 -16.29174024	 36.65641554
No	 24.43761036	 -14.25527271	 38.69288307
No	 26.47407789	 -16.29174024	 38.69288307
No	 26.47407789	 -14.25527271	 36.65641554
Co	 24.43761036	 -12.21880518	 -40.72935060
No	 26.47407789	 -12.21880518	 -38.69288307
Co	 26.47407789	 -10.18233765	 -40.72935060
No	 24.43761036	 -12.21880518	 -36.65641554
No	 24.43761036	 -10.18233765	 -34.61994801
No	 26.47407789	 -12.21880518	 -34.61994801
No	 26.47407789	 -10.18233765	 -36.65641554
No	 24.43761036	 -12.21880518	 -32.58348048
No	 24.43761036	 -10.18233765	 -30.54701295
No	 26.47407789	 -12.21880518	 -30.54701295
No	 26.47407789	 -10.18233765	 -32.58348048
No	 24.43761036	 -12.21880518	 -28.51054542
No	 24.43761036	 -10.18233765	 -26.47407789
No	 26.47407789	 -12.21880518	 -26.47407789
No	 26.47407789	 -10.18233765	 -28.51054542
No	 24.43761036	 -12.21880518	 -24.43761036
No	 24.43761036	 -10.18233765	 -22.40114283
No	 26.47407789	 -12.21880518	 -22.40114283
No	 26.47407789	 -10.18233765	 -24.43761036
No	 24.43761036	 -12.21880518	 -20.36467530
No	 24.43761036	 -10.18233765	 -18.32820777
No	 26.47407789	 -12.21880518	 -18.32820777
No	 26.47407789	 -10.18233765	 -20.36467530
No	 24.43761036	 -12.21880518	 -16.29174024
No	 24.43761036	 -10.18233765	 -14.25527271
No	 26.47407789	 -12.21880518	 -14.25527271
No	 26.47407789	 -10.18233765	 -16.29174024
No	 24.43761036	 -12.21880518	 -12.21880518
No	 24.43761036	 -12.21880518	 12.21880518
No	 24.43761036	 -10.18233765	 14.25527271
No	 26.47407789	 -12.21880518	 14.25527271
No	 24.43761036	 -12.21880518	 16.29174024
No	 24.43761036	 -10.18233765	 18.32820777
No	 26.47407789	 -12.21880518	 18.32820777
No	 26.47407789	 -10.18233765	 16.29174024
No	 24.43761036	 -12.21880518	 20.36467530
No	 24.43761036	 -10.18233765	 22.40114283
No	 26.47407789	 -12.21880518	 22.40114283
No	 26.47407789	 -10.18233765	 20.36467530
No	 24.43761036	 -12.21880518	 24.43761036
No	 24.43761036	 -10.18233765	 26.47407789
No	 26.47407789	 -12.21880518	 26.47407789
No	 26.47407789	 -10.18233765	 24.43761036
No	 24.43761036	 -12.21880518	 28.51054542
No	 24.43761036	 -10.18233765	 30.54701295
No	 26.47407789	 -12.21880518	 30.54701295
No	 26.47407789	 -10.18233765	 28.51054542
No	 24.43761036	 -12.21880518	 32.58348048
No	 24.43761036	 -10.18233765	 34.61994801
No	 26.47407789	 -12.21880518	 34.61994801
No	 26.47407789	 -10.18233765	 32.58348048
No	 24.43761036	 -12.21880518	 36.65641554
No	 26.47407789	 -12.21880518	 38.69288307
No	 26.47407789	 -10.18233765	 36.65641554
No	 26.47407789	 -8.14587012	 -34.61994801
No	 24.43761036	 -8.14587012	 -32.58348048
No	 24.43761036	 -6.10940259	 -30.54701295
No	 26.47407789	 -8.14587012	 -30.54701295
No	 26.47407789	 -6.10940259	 -32.58348048
No	 24.43761036	 -8.14587012	 -28.51054542
No	 24.43761036	 -6.10940259	 -26.47407789
No	 26.47407789	 -8.14587012	 -26.47407789
No	 26.47407789	 -6.10940259	 -28.51054542
No	 24.43761036	 -8.14587012	 -24.43761036
No	 24.43761036	 -6.10940259	 -22.40114283
No	 26.47407789	 -8.14587012	 -22.40114283
No	 26.47407789	 -6.10940259	 -24.43761036
No	 24.43761036	 -8.14587012	 -20.36467530
No	 24.43761036	 -6.10940259	 -18.32820777
No	 26.47407789	 -8.14587012	 -18.32820777
No	 26.47407789	 -6.10940259	 -20.36467530
No	 24.43761036	 -8.14587012	 -16.29174024
No	 24.43761036	 -8.14587012	 16.29174024
No	 24.43761036	 -6.10940259	 18.32820777
No	 26.47407789	 -8.14587012	 18.32820777
No	 24.43761036	 -8.14587012	 20.36467530
No	 24.43761036	 -6.10940259	 22.40114283
No	 26.47407789	 -8.14587012	 22.40114283
No	 26.47407789	 -6.10940259	 20.36467530
No	 24.43761036	 -8.14587012	 24.43761036
No	 24.43761036	 -6.10940259	 26.47407789
No	 26.47407789	 -8.14587012	 26.47407789
No	 26.47407789	 -6.10940259	 24.43761036
No	 24.43761036	 -8.14587012	 28.51054542
No	 24.43761036	 -6.10940259	 30.54701295
No	 26.47407789	 -8.14587012	 30.54701295
No	 26.47407789	 -6.10940259	 28.51054542
No	 24.43761036	 -8.14587012	 32.58348048
No	 26.47407789	 -8.14587012	 34.61994801
No	 26.47407789	 -6.10940259	 32.58348048
No	 26.47407789	 -4.07293506	 -30.54701295
No	 24.43761036	 -4.07293506	 -28.51054542
No	 24.43761036	 -2.03646753	 -26.47407789
No	 26.47407789	 -4.07293506	 -26.47407789
No	 26.47407789	 -2.03646753	 -28.51054542
No	 24.43761036	 -4.07293506	 -24.43761036
No	 24.43761036	 -2.03646753	 -22.40114283
No	 26.47407789	 -4.07293506	 -22.40114283
No	 26.47407789	 -2.03646753	 -24.43761036
No	 24.43761036	 -4.07293506	 -20.36467530
No	 24.43761036	 -4.07293506	 20.36467530
No	 24.43761036	 -2.03646753	 22.40114283
No	 26.47407789	 -4.07293506	 22.40114283
No	 24.43761036	 -4.07293506	 24.43761036
No	 24.43761036	 -2.03646753	 26.47407789
No	 26.47407789	 -4.07293506	 26.47407789
No	 26.47407789	 -2.03646753	 24.43761036
No	 24.43761036	 -4.07293506	 28.51054542
No	 26.47407789	 -4.07293506	 30.54701295
No	 26.47407789	 -2.03646753	 28.51054542
No	 24.43761036	 2.03646753	 -26.47407789
No	 26.47407789	 -0.00000000	 -26.47407789
No	 26.47407789	 2.03646753	 -28.51054542
No	 24.43761036	 -0.00000000	 -24.43761036
No	 24.43761036	 2.03646753	 -22.40114283
No	 26.47407789	 2.03646753	 -24.43761036
No	 24.43761036	 2.03646753	 22.40114283
No	 24.43761036	 -0.00000000	 24.43761036
No	 24.43761036	 2.03646753	 26.47407789
No	 26.47407789	 -0.00000000	 26.47407789
No	 26.47407789	 2.03646753	 24.43761036
No	 26.47407789	 2.03646753	 28.51054542
No	 24.43761036	 6.10940259	 -30.54701295
No	 26.47407789	 4.07293506	 -30.54701295
No	 26.47407789	 6.10940259	 -32.58348048
No	 24.43761036	 4.07293506	 -28.51054542
No	 24.43761036	 6.10940259	 -26.47407789
No	 26.47407789	 4.07293506	 -26.47407789
No	 26.47407789	 6.10940259	 -28.51054542
No	 24.43761036	 4.07293506	 -24.43761036
No	 24.43761036	 6.10940259	 -22.40114283
No	 26.47407789	 4.07293506	 -22.40114283
No	 26.47407789	 6.10940259	 -24.43761036
No	 24.43761036	 4.07293506	 -20.36467530
No	 24.43761036	 6.10940259	 -18.32820777
No	 26.47407789	 6.10940259	 -20.36467530
No	 24.43761036	 6.10940259	 18.32820777
No	 24.43761036	 4.07293506	 20.36467530
No	 24.43761036	 6.10940259	 22.40114283
No	 26.47407789	 4.07293506	 22.40114283
No	 26.47407789	 6.10940259	 20.36467530
No	 24.43761036	 4.07293506	 24.43761036
No	 24.43761036	 6.10940259	 26.47407789
No	 26.47407789	 4.07293506	 26.47407789
No	 26.47407789	 6.10940259	 24.43761036
No	 24.43761036	 4.07293506	 28.51054542
No	 24.43761036	 6.10940259	 30.54701295
No	 26.47407789	 4.07293506	 30.54701295
No	 26.47407789	 6.10940259	 28.51054542
No	 26.47407789	 6.10940259	 32.58348048
Co	 26.47407789	 10.18233765	 -40.72935060
No	 24.43761036	 10.18233765	 -34.61994801
No	 26.47407789	 8.14587012	 -34.61994801
No	 26.47407789	 10.18233765	 -36.65641554
No	 24.43761036	 8.14587012	 -32.58348048
No	 24.43761036	 10.18233765	 -30.54701295
No	 26.47407789	 8.14587012	 -30.54701295
No	 26.47407789	 10.18233765	 -32.58348048
No	 24.43761036	 8.14587012	 -28.51054542
No	 24.43761036	 10.18233765	 -26.47407789
No	 26.47407789	 8.14587012	 -26.47407789
No	 26.47407789	 10.18233765	 -28.51054542
No	 24.43761036	 8.14587012	 -24.43761036
No	 24.43761036	 10.18233765	 -22.40114283
No	 26.47407789	 8.14587012	 -22.40114283
No	 26.47407789	 10.18233765	 -24.43761036
No	 24.43761036	 8.14587012	 -20.36467530
No	 24.43761036	 10.18233765	 -18.32820777
No	 26.47407789	 8.14587012	 -18.32820777
No	 26.47407789	 10.18233765	 -20.36467530
No	 24.43761036	 8.14587012	 -16.29174024
No	 24.43761036	 10.18233765	 -14.25527271
No	 26.47407789	 10.18233765	 -16.29174024
No	 24.43761036	 10.18233765	 14.25527271
No	 24.43761036	 8.14587012	 16.29174024
No	 24.43761036	 10.18233765	 18.32820777
No	 26.47407789	 8.14587012	 18.32820777
No	 26.47407789	 10.18233765	 16.29174024
No	 24.43761036	 8.14587012	 20.36467530
No	 24.43761036	 10.18233765	 22.40114283
No	 26.47407789	 8.14587012	 22.40114283
No	 26.47407789	 10.18233765	 20.36467530
No	 24.43761036	 8.14587012	 24.43761036
No	 24.43761036	 10.18233765	 26.47407789
No	 26.47407789	 8.14587012	 26.47407789
No	 26.47407789	 10.18233765	 24.43761036
No	 24.43761036	 8.14587012	 28.51054542
No	 24.43761036	 10.18233765	 30.54701295
No	 26.47407789	 8.14587012	 30.54701295
No	 26.47407789	 10.18233765	 28.51054542
No	 24.43761036	 8.14587012	 32.58348048
No	 24.43761036	 10.18233765	 34.61994801
No	 26.47407789	 8.14587012	 34.61994801
No	 26.47407789	 10.18233765	 32.58348048
No	 26.47407789	 10.18233765	 36.65641554
Co	 24.43761036	 12.21880518	 -40.72935060
No	 24.43761036	 14.25527271	 -38.69288307
No	 26.47407789	 12.21880518	 -38.69288307
Co	 26.47407789	 14.25527271	 -40.72935060
No	 24.43761036	 12.21880518	 -36.65641554
No	 24.43761036	 14.25527271	 -34.61994801
No	 26.47407789	 12.21880518	 -34.61994801
No	 26.47407789	 14.25527271	 -36.65641554
No	 24.43761036	 12.21880518	 -32.58348048
No	 24.43761036	 14.25527271	 -30.54701295
No	 26.47407789	 12.21880518	 -30.54701295
No	 26.47407789	 14.25527271	 -32.58348048
No	 24.43761036	 12.21880518	 -28.51054542
No	 24.43761036	 14.25527271	 -26.47407789
No	 26.47407789	 12.21880518	 -26.47407789
No	 26.47407789	 14.25527271	 -28.51054542
No	 24.43761036	 12.21880518	 -24.43761036
No	 24.43761036	 14.25527271	 -22.40114283
No	 26.47407789	 12.21880518	 -22.40114283
No	 26.47407789	 14.25527271	 -24.43761036
No	 24.43761036	 12.21880518	 -20.36467530
No	 24.43761036	 14.25527271	 -18.32820777
No	 26.47407789	 12.21880518	 -18.32820777
No	 26.47407789	 14.25527271	 -20.36467530
No	 24.43761036	 12.21880518	 -16.29174024
No	 24.43761036	 14.25527271	 -14.25527271
No	 26.47407789	 12.21880518	 -14.25527271
No	 26.47407789	 14.25527271	 -16.29174024
No	 24.43761036	 12.21880518	 -12.21880518
No	 24.43761036	 14.25527271	 -10.18233765
No	 26.47407789	 14.25527271	 -12.21880518
No	 24.43761036	 14.25527271	 10.18233765
No	 24.43761036	 12.21880518	 12.21880518
No	 24.43761036	 14.25527271	 14.25527271
No	 26.47407789	 12.21880518	 14.25527271
No	 26.47407789	 14.25527271	 12.21880518
No	 24.43761036	 12.21880518	 16.29174024
No	 24.43761036	 14.25527271	 18.32820777
No	 26.47407789	 12.21880518	 18.32820777
No	 26.47407789	 14.25527271	 16.29174024
No	 24.43761036	 12.21880518	 20.36467530
No	 24.43761036	 14.25527271	 22.40114283
No	 26.47407789	 12.21880518	 22.40114283
No	 26.47407789	 14.25527271	 20.36467530
No	 24.43761036	 12.21880518	 24.43761036
No	 24.43761036	 14.25527271	 26.47407789
No	 26.47407789	 12.21880518	 26.47407789
No	 26.47407789	 14.25527271	 24.43761036
No	 24.43761036	 12.21880518	 28.51054542
No	 24.43761036	 14.25527271	 30.54701295
No	 26.47407789	 12.21880518	 30.54701295
No	 26.47407789	 14.25527271	 28.51054542
No	 24.43761036	 12.21880518	 32.58348048
No	 24.43761036	 14.25527271	 34.61994801
No	 26.47407789	 12.21880518	 34.61994801
No	 26.47407789	 14.25527271	 32.58348048
No	 24.43761036	 12.21880518	 36.65641554
No	 24.43761036	 14.25527271	 38.69288307
No	 26.47407789	 12.21880518	 38.69288307
No	 26.47407789	 14.25527271	 36.65641554
Co	 24.43761036	 16.29174024	 -40.72935060
No	 24.43761036	 18.32820777	 -38.69288307
No	 26.47407789	 16.29174024	 -38.69288307
Co	 26.47407789	 18.32820777	 -40.72935060
No	 24.43761036	 16.29174024	 -36.65641554
No	 24.43761036	 18.32820777	 -34.61994801
No	 26.47407789	 16.29174024	 -34.61994801
No	 26.47407789	 18.32820777	 -36.65641554
No	 24.43761036	 16.29174024	 -32.58348048
No	 24.43761036	 18.32820777	 -30.54701295
No	 26.47407789	 16.29174024	 -30.54701295
No	 26.47407789	 18.32820777	 -32.58348048
No	 24.43761036	 16.29174024	 -28.51054542
No	 24.43761036	 18.32820777	 -26.47407789
No	 26.47407789	 16.29174024	 -26.47407789
No	 26.47407789	 18.32820777	 -28.51054542
No	 24.43761036	 16.29174024	 -24.43761036
No	 24.43761036	 18.32820777	 -22.40114283
No	 26.47407789	 16.29174024	 -22.40114283
No	 26.47407789	 18.32820777	 -24.43761036
No	 24.43761036	 16.29174024	 -20.36467530
No	 24.43761036	 18.32820777	 -18.32820777
No	 26.47407789	 16.29174024	 -18.32820777
No	 26.47407789	 18.32820777	 -20.36467530
No	 24.43761036	 16.29174024	 -16.29174024
No	 24.43761036	 18.32820777	 -14.25527271
No	 26.47407789	 16.29174024	 -14.25527271
No	 26.47407789	 18.32820777	 -16.29174024
No	 24.43761036	 16.29174024	 -12.21880518
No	 24.43761036	 18.32820777	 -10.18233765
No	 26.47407789	 16.29174024	 -10.18233765
No	 26.47407789	 18.32820777	 -12.21880518
No	 24.43761036	 16.29174024	 -8.14587012
No	 24.43761036	 18.32820777	 -6.10940259
No	 26.47407789	 18.32820777	 -8.14587012
No	 24.43761036	 18.32820777	 6.10940259
No	 24.43761036	 16.29174024	 8.14587012
No	 24.43761036	 18.32820777	 10.18233765
No	 26.47407789	 16.29174024	 10.18233765
No	 26.47407789	 18.32820777	 8.14587012
No	 24.43761036	 16.29174024	 12.21880518
No	 24.43761036	 18.32820777	 14.25527271
No	 26.47407789	 16.29174024	 14.25527271
No	 26.47407789	 18.32820777	 12.21880518
No	 24.43761036	 16.29174024	 16.29174024
No	 24.43761036	 18.32820777	 18.32820777
No	 26.47407789	 16.29174024	 18.32820777
No	 26.47407789	 18.32820777	 16.29174024
No	 24.43761036	 16.29174024	 20.36467530
No	 24.43761036	 18.32820777	 22.40114283
No	 26.47407789	 16.29174024	 22.40114283
No	 26.47407789	 18.32820777	 20.36467530
No	 24.43761036	 16.29174024	 24.43761036
No	 24.43761036	 18.32820777	 26.47407789
No	 26.47407789	 16.29174024	 26.47407789
No	 26.47407789	 18.32820777	 24.43761036
No	 24.43761036	 16.29174024	 28.51054542
No	 24.43761036	 18.32820777	 30.54701295
No	 26.47407789	 16.29174024	 30.54701295
No	 26.47407789	 18.32820777	 28.51054542
No	 24.43761036	 16.29174024	 32.58348048
No	 24.43761036	 18.32820777	 34.61994801
No	 26.47407789	 16.29174024	 34.61994801
No	 26.47407789	 18.32820777	 32.58348048
No	 24.43761036	 16.29174024	 36.65641554
No	 24.43761036	 18.32820777	 38.69288307
No	 26.47407789	 16.29174024	 38.69288307
No	 26.47407789	 18.32820777	 36.65641554
Co	 24.43761036	 20.36467530	 -40.72935060
No	 24.43761036	 22.40114283	 -38.69288307
No	 26.47407789	 20.36467530	 -38.69288307
Co	 26.47407789	 22.40114283	 -40.72935060
No	 24.43761036	 20.36467530	 -36.65641554
No	 24.43761036	 22.40114283	 -34.61994801
No	 26.47407789	 20.36467530	 -34.61994801
No	 26.47407789	 22.40114283	 -36.65641554
No	 24.43761036	 20.36467530	 -32.58348048
No	 24.43761036	 22.40114283	 -30.54701295
No	 26.47407789	 20.36467530	 -30.54701295
No	 26.47407789	 22.40114283	 -32.58348048
No	 24.43761036	 20.36467530	 -28.51054542
No	 24.43761036	 22.40114283	 -26.47407789
No	 26.47407789	 20.36467530	 -26.47407789
No	 26.47407789	 22.40114283	 -28.51054542
No	 24.43761036	 20.36467530	 -24.43761036
No	 24.43761036	 22.40114283	 -22.40114283
No	 26.47407789	 20.36467530	 -22.40114283
No	 26.47407789	 22.40114283	 -24.43761036
No	 24.43761036	 20.36467530	 -20.36467530
No	 24.43761036	 22.40114283	 -18.32820777
No	 26.47407789	 20.36467530	 -18.32820777
No	 26.47407789	 22.40114283	 -20.36467530
No	 24.43761036	 20.36467530	 -16.29174024
No	 24.43761036	 22.40114283	 -14.25527271
No	 26.47407789	 20.36467530	 -14.25527271
No	 26.47407789	 22.40114283	 -16.29174024
No	 24.43761036	 20.36467530	 -12.21880518
No	 24.43761036	 22.40114283	 -10.18233765
No	 26.47407789	 20.36467530	 -10.18233765
No	 26.47407789	 22.40114283	 -12.21880518
No	 24.43761036	 20.36467530	 -8.14587012
No	 24.43761036	 22.40114283	 -6.10940259
No	 26.47407789	 20.36467530	 -6.10940259
No	 26.47407789	 22.40114283	 -8.14587012
No	 24.43761036	 20.36467530	 -4.07293506
No	 24.43761036	 22.40114283	 -2.03646753
No	 26.47407789	 22.40114283	 -4.07293506
No	 24.43761036	 22.40114283	 2.03646753
No	 24.43761036	 20.36467530	 4.07293506
No	 24.43761036	 22.40114283	 6.10940259
No	 26.47407789	 20.36467530	 6.10940259
No	 26.47407789	 22.40114283	 4.07293506
No	 24.43761036	 20.36467530	 8.14587012
No	 24.43761036	 22.40114283	 10.18233765
No	 26.47407789	 20.36467530	 10.18233765
No	 26.47407789	 22.40114283	 8.14587012
No	 24.43761036	 20.36467530	 12.21880518
No	 24.43761036	 22.40114283	 14.25527271
No	 26.47407789	 20.36467530	 14.25527271
No	 26.47407789	 22.40114283	 12.21880518
No	 24.43761036	 20.36467530	 16.29174024
No	 24.43761036	 22.40114283	 18.32820777
No	 26.47407789	 20.36467530	 18.32820777
No	 26.47407789	 22.40114283	 16.29174024
No	 24.43761036	 20.36467530	 20.36467530
No	 24.43761036	 22.40114283	 22.40114283
No	 26.47407789	 20.36467530	 22.40114283
No	 26.47407789	 22.40114283	 20.36467530
No	 24.43761036	 20.36467530	 24.43761036
No	 24.43761036	 22.40114283	 26.47407789
No	 26.47407789	 20.36467530	 26.47407789
No	 26.47407789	 22.40114283	 24.43761036
No	 24.43761036	 20.36467530	 28.51054542
No	 24.43761036	 22.40114283	 30.54701295
No	 26.47407789	 20.36467530	 30.54701295
No	 26.47407789	 22.40114283	 28.51054542
No	 24.43761036	 20.36467530	 32.58348048
No	 24.43761036	 22.40114283	 34.61994801
No	 26.47407789	 20.36467530	 34.61994801
No	 26.47407789	 22.40114283	 32.58348048
No	 24.43761036	 20.36467530	 36.65641554
No	 24.43761036	 22.40114283	 38.69288307
No	 26.47407789	 20.36467530	 38.69288307
No	 26.47407789	 22.40114283	 36.65641554
Co	 24.43761036	 24.43761036	 -40.72935060
No	 24.43761036	 26.47407789	 -38.69288307
No	 26.47407789	 24.43761036	 -38.69288307
Co	 26.47407789	 26.47407789	 -40.72935060
No	 24.43761036	 24.43761036	 -36.65641554
No	 24.43761036	 26.47407789	 -34.61994801
No	 26.47407789	 24.43761036	 -34.61994801
No	 26.47407789	 26.47407789	 -36.65641554
No	 24.43761036	 24.43761036	 -32.58348048
No	 24.43761036	 26.47407789	 -30.54701295
No	 26.47407789	 24.43761036	 -30.54701295
No	 26.47407789	 26.47407789	 -32.58348048
No	 24.43761036	 24.43761036	 -28.51054542
No	 24.43761036	 26.47407789	 -26.47407789
No	 26.47407789	 24.43761036	 -26.47407789
No	 26.47407789	 26.47407789	 -28.51054542
No	 24.43761036	 24.43761036	 -24.43761036
No	 24.43761036	 26.47407789	 -22.40114283
No	 26.47407789	 24.43761036	 -22.40114283
No	 26.47407789	 26.47407789	 -24.43761036
No	 24.43761036	 24.43761036	 -20.36467530
No	 24.43761036	 26.47407789	 -18.32820777
No	 26.47407789	 24.43761036	 -18.32820777
No	 26.47407789	 26.47407789	 -20.36467530
No	 24.43761036	 24.43761036	 -16.29174024
No	 24.43761036	 26.47407789	 -14.25527271
No	 26.47407789	 24.43761036	 -14.25527271
No	 26.47407789	 26.47407789	 -16.29174024
No	 24.43761036	 24.43761036	 -12.21880518
No	 24.43761036	 26.47407789	 -10.18233765
No	 26.47407789	 24.43761036	 -10.18233765
No	 26.47407789	 26.47407789	 -12.21880518
No	 24.43761036	 24.43761036	 -8.14587012
No	 24.43761036	 26.47407789	 -6.10940259
No	 26.47407789	 24.43761036	 -6.10940259
No	 26.47407789	 26.47407789	 -8.14587012
No	 24.43761036	 24.43761036	 -4.07293506
No	 24.43761036	 26.47407789	 -2.03646753
No	 26.47407789	 24.43761036	 -2.03646753
No	 26.47407789	 26.47407789	 -4.07293506
No	 24.43761036	 24.43761036	 -0.00000000
No	 24.43761036	 26.47407789	 2.03646753
No	 26.47407789	 24.43761036	 2.03646753
No	 26.47407789	 26.47407789	 -0.00000000
No	 24.43761036	 24.43761036	 4.07293506
No	 24.43761036	 26.47407789	 6.10940259
No	 26.47407789	 24.43761036	 6.10940259
No	 26.47407789	 26.47407789	 4.07293506
No	 24.43761036	 24.43761036	 8.14587012
No	 24.43761036	 26.47407789	 10.18233765
No	 26.47407789	 24.43761036	 10.18233765
No	 26.47407789	 26.47407789	 8.14587012
No	 24.43761036	 24.43761036	 12.21880518
No	 24.43761036	 26.47407789	 14.25527271
No	 26.47407789	 24.43761036	 14.25527271
No	 26.47407789	 26.47407789	 12.21880518
No	 24.43761036	 24.43761036	 16.29174024
No	 24.43761036	 26.47407789	 18.32820777
No	 26.47407789	 24.43761036	 18.32820777
No	 26.47407789	 26.47407789	 16.29174024
No	 24.43761036	 24.43761036	 20.36467530
No	 24.43761036	 26.47407789	 22.40114283
No	 26.47407789	 24.43761036	 22.40114283
No	 26.47407789	 26.47407789	 20.36467530
No	 24.43761036	 24.43761036	 24.43761036
No	 24.43761036	 26.47407789	 26.47407789
No	 26.47407789	 24.43761036	 26.47407789
No	 26.47407789	 26.47407789	 24.43761036
No	 24.43761036	 24.43761036	 28.51054542
No	 24.43761036	 26.47407789	 30.54701295
No	 26.47407789	 24.43761036	 30.54701295
No	 26.47407789	 26.47407789	 28.51054542
No	 24.43761036	 24.43761036	 32.58348048
No	 24.43761036	 26.47407789	 34.61994801
No	 26.47407789	 24.43761036	 34.61994801
No	 26.47407789	 26.47407789	 32.58348048
No	 24.43761036	 24.43761036	 36.65641554
No	 24.43761036	 26.47407789	 38.69288307
No	 26.47407789	 24.43761036	 38.69288307
No	 26.47407789	 26.47407789	 36.65641554
Co	 24.43761036	 28.51054542	 -40.72935060
No	 24.43761036	 30.54701295	 -38.69288307
No	 26.47407789	 28.51054542	 -38.69288307
Co	 26.47407789	 30.54701295	 -40.72935060
No	 24.43761036	 28.51054542	 -36.65641554
No	 24.43761036	 30.54701295	 -34.61994801
No	 26.47407789	 28.51054542	 -34.61994801
No	 26.47407789	 30.54701295	 -36.65641554
No	 24.43761036	 28.51054542	 -32.58348048
No	 24.43761036	 30.54701295	 -30.54701295
No	 26.47407789	 28.51054542	 -30.54701295
No	 26.47407789	 30.54701295	 -32.58348048
No	 24.43761036	 28.51054542	 -28.51054542
No	 24.43761036	 30.54701295	 -26.47407789
No	 26.47407789	 28.51054542	 -26.47407789
No	 26.47407789	 30.54701295	 -28.51054542
No	 24.43761036	 28.51054542	 -24.43761036
No	 24.43761036	 30.54701295	 -22.40114283
No	 26.47407789	 28.51054542	 -22.40114283
No	 26.47407789	 30.54701295	 -24.43761036
No	 24.43761036	 28.51054542	 -20.36467530
No	 24.43761036	 30.54701295	 -18.32820777
No	 26.47407789	 28.51054542	 -18.32820777
No	 26.47407789	 30.54701295	 -20.36467530
No	 24.43761036	 28.51054542	 -16.29174024
No	 24.43761036	 30.54701295	 -14.25527271
No	 26.47407789	 28.51054542	 -14.25527271
No	 26.47407789	 30.54701295	 -16.29174024
No	 24.43761036	 28.51054542	 -12.21880518
No	 24.43761036	 30.54701295	 -10.18233765
No	 26.47407789	 28.51054542	 -10.18233765
No	 26.47407789	 30.54701295	 -12.21880518
No	 24.43761036	 28.51054542	 -8.14587012
No	 24.43761036	 30.54701295	 -6.10940259
No	 26.47407789	 28.51054542	 -6.10940259
No	 26.47407789	 30.54701295	 -8.14587012
No	 24.43761036	 28.51054542	 -4.07293506
No	 26.47407789	 28.51054542	 -2.03646753
No	 26.47407789	 30.54701295	 -4.07293506
No	 26.47407789	 28.51054542	 2.03646753
No	 24.43761036	 28.51054542	 4.07293506
No	 24.43761036	 30.54701295	 6.10940259
No	 26.47407789	 28.51054542	 6.10940259
No	 26.47407789	 30.54701295	 4.07293506
No	 24.43761036	 28.51054542	 8.14587012
No	 24.43761036	 30.54701295	 10.18233765
No	 26.47407789	 28.51054542	 10.18233765
No	 26.47407789	 30.54701295	 8.14587012
No	 24.43761036	 28.51054542	 12.21880518
No	 24.43761036	 30.54701295	 14.25527271
No	 26.47407789	 28.51054542	 14.25527271
No	 26.47407789	 30.54701295	 12.21880518
No	 24.43761036	 28.51054542	 16.29174024
No	 24.43761036	 30.54701295	 18.32820777
No	 26.47407789	 28.51054542	 18.32820777
No	 26.47407789	 30.54701295	 16.29174024
No	 24.43761036	 28.51054542	 20.36467530
No	 24.43761036	 30.54701295	 22.40114283
No	 26.47407789	 28.51054542	 22.40114283
No	 26.47407789	 30.54701295	 20.36467530
No	 24.43761036	 28.51054542	 24.43761036
No	 24.43761036	 30.54701295	 26.47407789
No	 26.47407789	 28.51054542	 26.47407789
No	 26.47407789	 30.54701295	 24.43761036
No	 24.43761036	 28.51054542	 28.51054542
No	 24.43761036	 30.54701295	 30.54701295
No	 26.47407789	 28.51054542	 30.54701295
No	 26.47407789	 30.54701295	 28.51054542
No	 24.43761036	 28.51054542	 32.58348048
No	 24.43761036	 30.54701295	 34.61994801
No	 26.47407789	 28.51054542	 34.61994801
No	 26.47407789	 30.54701295	 32.58348048
No	 24.43761036	 28.51054542	 36.65641554
No	 24.43761036	 30.54701295	 38.69288307
No	 26.47407789	 28.51054542	 38.69288307
No	 26.47407789	 30.54701295	 36.65641554
Co	 24.43761036	 32.58348048	 -40.72935060
No	 24.43761036	 34.61994801	 -38.69288307
No	 26.47407789	 32.58348048	 -38.69288307
Co	 26.47407789	 34.61994801	 -40.72935060
No	 24.43761036	 32.58348048	 -36.65641554
No	 24.43761036	 34.61994801	 -34.61994801
No	 26.47407789	 32.58348048	 -34.61994801
No	 26.47407789	 34.61994801	 -36.65641554
No	 24.43761036	 32.58348048	 -32.58348048
No	 24.43761036	 34.61994801	 -30.54701295
No	 26.47407789	 32.58348048	 -30.54701295
No	 26.47407789	 34.61994801	 -32.58348048
No	 24.43761036	 32.58348048	 -28.51054542
No	 24.43761036	 34.61994801	 -26.47407789
No	 26.47407789	 32.58348048	 -26.47407789
No	 26.47407789	 34.61994801	 -28.51054542
No	 24.43761036	 32.58348048	 -24.43761036
No	 24.43761036	 34.61994801	 -22.40114283
No	 26.47407789	 32.58348048	 -22.40114283
No	 26.47407789	 34.61994801	 -24.43761036
No	 24.43761036	 32.58348048	 -20.36467530
No	 24.43761036	 34.61994801	 -18.32820777
No	 26.47407789	 32.58348048	 -18.32820777
No	 26.47407789	 34.61994801	 -20.36467530
No	 24.43761036	 32.58348048	 -16.29174024
No	 24.43761036	 34.61994801	 -14.25527271
No	 26.47407789	 32.58348048	 -14.25527271
No	 26.47407789	 34.61994801	 -16.29174024
No	 24.43761036	 32.58348048	 -12.21880518
No	 24.43761036	 34.61994801	 -10.18233765
No	 26.47407789	 32.58348048	 -10.18233765
No	 26.47407789	 34.61994801	 -12.21880518
No	 24.43761036	 32.58348048	 -8.14587012
No	 26.47407789	 32.58348048	 -6.10940259
No	 26.47407789	 34.61994801	 -8.14587012
No	 26.47407789	 32.58348048	 6.10940259
No	 24.43761036	 32.58348048	 8.14587012
No	 24.43761036	 34.61994801	 10.18233765
No	 26.47407789	 32.58348048	 10.18233765
No	 26.47407789	 34.61994801	 8.14587012
No	 24.43761036	 32.58348048	 12.21880518
No	 24.43761036	 34.61994801	 14.25527271
No	 26.47407789	 32.58348048	 14.25527271
No	 26.47407789	 34.61994801	 12.21880518
No	 24.43761036	 32.58348048	 16.29174024
No	 24.43761036	 34.61994801	 18.32820777
No	 26.47407789	 32.58348048	 18.32820777
No	 26.47407789	 34.61994801	 16.29174024
No	 24.43761036	 32.58348048	 20.36467530
No	 24.43761036	 34.61994801	 22.40114283
No	 26.47407789	 32.58348048	 22.40114283
No	 26.47407789	 34.61994801	 20.36467530
No	 24.43761036	 32.58348048	 24.43761036
No	 24.43761036	 34.61994801	 26.47407789
No	 26.47407789	 32.58348048	 26.47407789
No	 26.47407789	 34.61994801	 24.43761036
No	 24.43761036	 32.58348048	 28.51054542
No	 24.43761036	 34.61994801	 30.54701295
No	 26.47407789	 32.58348048	 30.54701295
No	 26.47407789	 34.61994801	 28.51054542
No	 24.43761036	 32.58348048	 32.58348048
No	 24.43761036	 34.61994801	 34.61994801
No	 26.47407789	 32.58348048	 34.61994801
No	 26.47407789	 34.61994801	 32.58348048
No	 24.43761036	 32.58348048	 36.65641554
No	 24.43761036	 34.61994801	 38.69288307
No	 26.47407789	 32.58348048	 38.69288307
No	 26.47407789	 34.61994801	 36.65641554
Co	 24.43761036	 36.65641554	 -40.72935060
No	 24.43761036	 38.69288307	 -38.69288307
No	 26.47407789	 36.65641554	 -38.69288307
Co	 26.47407789	 38.69288307	 -40.72935060
No	 24.43761036	 36.65641554	 -36.65641554
No	 24.43761036	 38.69288307	 -34.61994801
No	 26.47407789	 36.65641554	 -34.61994801
No	 26.47407789	 38.69288307	 -36.65641554
No	 24.43761036	 36.65641554	 -32.58348048
No	 24.43761036	 38.69288307	 -30.54701295
No	 26.47407789	 36.65641554	 -30.54701295
No	 26.47407789	 38.69288307	 -32.58348048
No	 24.43761036	 36.65641554	 -28.51054542
No	 24.43761036	 38.69288307	 -26.47407789
No	 26.47407789	 36.65641554	 -26.47407789
No	 26.47407789	 38.69288307	 -28.51054542
No	 24.43761036	 36.65641554	 -24.43761036
No	 24.43761036	 38.69288307	 -22.40114283
No	 26.47407789	 36.65641554	 -22.40114283
No	 26.47407789	 38.69288307	 -24.43761036
No	 24.43761036	 36.65641554	 -20.36467530
No	 24.43761036	 38.69288307	 -18.32820777
No	 26.47407789	 36.65641554	 -18.32820777
No	 26.47407789	 38.69288307	 -20.36467530
No	 24.43761036	 36.65641554	 -16.29174024
No	 24.43761036	 38.69288307	 -14.25527271
No	 26.47407789	 36.65641554	 -14.25527271
No	 26.47407789	 38.69288307	 -16.29174024
No	 24.43761036	 36.65641554	 -12.21880518
No	 26.47407789	 36.65641554	 -10.18233765
No	 26.47407789	 38.69288307	 -12.21880518
No	 26.47407789	 36.65641554	 10.18233765
No	 24.43761036	 36.65641554	 12.21880518
No	 24.43761036	 38.69288307	 14.25527271
No	 26.47407789	 36.65641554	 14.25527271
No	 26.47407789	 38.69288307	 12.21880518
No	 24.43761036	 36.65641554	 16.29174024
No	 24.43761036	 38.69288307	 18.32820777
No	 26.47407789	 36.65641554	 18.32820777
No	 26.47407789	 38.69288307	 16.29174024
No	 24.43761036	 36.65641554	 20.36467530
No	 24.43761036	 38.69288307	 22.40114283
No	 26.47407789	 36.65641554	 22.40114283
No	 26.47407789	 38.69288307	 20.36467530
No	 24.43761036	 36.65641554	 24.43761036
No	 24.43761036	 38.69288307	 26.47407789
No	 26.47407789	 36.65641554	 26.47407789
No	 26.47407789	 38.69288307	 24.43761036
No	 24.43761036	 36.65641554	 28.51054542
No	 24.43761036	 38.69288307	 30.54701295
No	 26.47407789	 36.65641554	 30.54701295
No	 26.47407789	 38.69288307	 28.51054542
No	 24.43761036	 36.65641554	 32.58348048
No	 24.43761036	 38.69288307	 34.61994801
No	 26.47407789	 36.65641554	 34.61994801
No	 26.47407789	 38.69288307	 32.58348048
No	 24.43761036	 36.65641554	 36.65641554
No	 24.43761036	 38.69288307	 38.69288307
No	 26.47407789	 36.65641554	 38.69288307
No	 26.47407789	 38.69288307	 36.65641554
Co	 28.51054542	 -40.72935060	 -40.72935060
No	 28.51054542	 -38.69288307	 -38.69288307
Co	 30.54701295	 -40.72935060	 -38.69288307
Co	 30.54701295	 -38.69288307	 -40.72935060
Co	 28.51054542	 -40.72935060	 -36.65641554
No	 28.51054542	 -38.69288307	 -34.61994801
Co	 30.54701295	 -40.72935060	 -34.61994801
No	 30.54701295	 -38.69288307	 -36.65641554
Co	 28.51054542	 -40.72935060	 -32.58348048
No	 28.51054542	 -38.69288307	 -30.54701295
Co	 30.54701295	 -40.72935060	 -30.54701295
No	 30.54701295	 -38.69288307	 -32.58348048
Co	 28.51054542	 -40.72935060	 -28.51054542
No	 28.51054542	 -38.69288307	 -26.47407789
Co	 30.54701295	 -40.72935060	 -26.47407789
No	 30.54701295	 -38.69288307	 -28.51054542
Co	 28.51054542	 -40.72935060	 -24.43761036
No	 28.51054542	 -38.69288307	 -22.40114283
Co	 30.54701295	 -40.72935060	 -22.40114283
No	 30.54701295	 -38.69288307	 -24.43761036
Co	 28.51054542	 -40.72935060	 -20.36467530
No	 28.51054542	 -38.69288307	 -18.32820777
Co	 30.54701295	 -40.72935060	 -18.32820777
No	 30.54701295	 -38.69288307	 -20.36467530
Co	 28.51054542	 -40.72935060	 -16.29174024
No	 28.51054542	 -38.69288307	 -14.25527271
Co	 30.54701295	 -40.72935060	 -14.25527271
No	 30.54701295	 -38.69288307	 -16.29174024
Co	 28.51054542	 -40.72935060	 -12.21880518
No	 28.51054542	 -38.69288307	 -10.18233765
Co	 30.54701295	 -40.72935060	 -10.18233765
No	 30.54701295	 -38.69288307	 -12.21880518
Co	 28.51054542	 -40.72935060	 -8.14587012
Co	 30.54701295	 -40.72935060	 -6.10940259
No	 30.54701295	 -38.69288307	 -8.14587012
Co	 30.54701295	 -40.72935060	 6.10940259
Co	 28.51054542	 -40.72935060	 8.14587012
No	 28.51054542	 -38.69288307	 10.18233765
Co	 30.54701295	 -40.72935060	 10.18233765
No	 30.54701295	 -38.69288307	 8.14587012
Co	 28.51054542	 -40.72935060	 12.21880518
No	 28.51054542	 -38.69288307	 14.25527271
Co	 30.54701295	 -40.72935060	 14.25527271
No	 30.54701295	 -38.69288307	 12.21880518
Co	 28.51054542	 -40.72935060	 16.29174024
No	 28.51054542	 -38.69288307	 18.32820777
Co	 30.54701295	 -40.72935060	 18.32820777
No	 30.54701295	 -38.69288307	 16.29174024
Co	 28.51054542	 -40.72935060	 20.36467530
No	 28.51054542	 -38.69288307	 22.40114283
Co	 30.54701295	 -40.72935060	 22.40114283
No	 30.54701295	 -38.69288307	 20.36467530
Co	 28.51054542	 -40.72935060	 24.43761036
No	 28.51054542	 -38.69288307	 26.47407789
Co	 30.54701295	 -40.72935060	 26.47407789
No	 30.54701295	 -38.69288307	 24.43761036
Co	 28.51054542	 -40.72935060	 28.51054542
No	 28.51054542	 -38.69288307	 30.54701295
Co	 30.54701295	 -40.72935060	 30.54701295
No	 30.54701295	 -38.69288307	 28.51054542
Co	 28.51054542	 -40.72935060	 32.58348048
No	 28.51054542	 -38.69288307	 34.61994801
Co	 30.54701295	 -40.72935060	 34.61994801
No	 30.54701295	 -38.69288307	 32.58348048
Co	 28.51054542	 -40.72935060	 36.65641554
No	 28.51054542	 -38.69288307	 38.69288307
Co	 30.54701295	 -40.72935060	 38.69288307
No	 30.54701295	 -38.69288307	 36.65641554
Co	 28.51054542	 -36.65641554	 -40.72935060
No	 28.51054542	 -34.61994801	 -38.69288307
No	 30.54701295	 -36.65641554	 -38.69288307
Co	 30.54701295	 -34.61994801	 -40.72935060
No	 28.51054542	 -36.65641554	 -36.65641554
No	 28.51054542	 -34.61994801	 -34.61994801
No	 30.54701295	 -36.65641554	 -34.61994801
No	 30.54701295	 -34.61994801	 -36.65641554
No	 28.51054542	 -36.65641554	 -32.58348048
No	 28.51054542	 -34.61994801	 -30.54701295
No	 30.54701295	 -36.65641554	 -30.54701295
No	 30.54701295	 -34.61994801	 -32.58348048
No	 28.51054542	 -36.65641554	 -28.51054542
No	 28.51054542	 -34.61994801	 -26.47407789
No	 30.54701295	 -36.65641554	 -26.47407789
No	 30.54701295	 -34.61994801	 -28.51054542
No	 28.51054542	 -36.65641554	 -24.43761036
No	 28.51054542	 -34.61994801	 -22.40114283
No	 30.54701295	 -36.65641554	 -22.40114283
No	 30.54701295	 -34.61994801	 -24.43761036
No	 28.51054542	 -36.65641554	 -20.36467530
No	 28.51054542	 -34.61994801	 -18.32820777
No	 30.54701295	 -36.65641554	 -18.32820777
No	 30.54701295	 -34.61994801	 -20.36467530
No	 28.51054542	 -36.65641554	 -16.29174024
No	 28.51054542	 -34.61994801	 -14.25527271
No	 30.54701295	 -36.65641554	 -14.25527271
No	 30.54701295	 -34.61994801	 -16.29174024
No	 28.51054542	 -36.65641554	 -12.21880518
No	 28.51054542	 -34.61994801	 -10.18233765
No	 30.54701295	 -36.65641554	 -10.18233765
No	 30.54701295	 -34.61994801	 -12.21880518
No	 28.51054542	 -36.65641554	 -8.14587012
No	 28.51054542	 -34.61994801	 -6.10940259
No	 30.54701295	 -36.65641554	 -6.10940259
No	 30.54701295	 -34.61994801	 -8.14587012
No	 30.54701295	 -34.61994801	 -4.07293506
No	 28.51054542	 -34.61994801	 6.10940259
No	 30.54701295	 -36.65641554	 6.10940259
No	 30.54701295	 -34.61994801	 4.07293506
No	 28.51054542	 -36.65641554	 8.14587012
No	 28.51054542	 -34.61994801	 10.18233765
No	 30.54701295	 -36.65641554	 10.18233765
No	 30.54701295	 -34.61994801	 8.14587012
No	 28.51054542	 -36.65641554	 12.21880518
No	 28.51054542	 -34.61994801	 14.25527271
No	 30.54701295	 -36.65641554	 14.25527271
No	 30.54701295	 -34.61994801	 12.21880518
No	 28.51054542	 -36.65641554	 16.29174024
No	 28.51054542	 -34.61994801	 18.32820777
No	 30.54701295	 -36.65641554	 18.32820777
No	 30.54701295	 -34.61994801	 16.29174024
No	 28.51054542	 -36.65641554	 20.36467530
No	 28.51054542	 -34.61994801	 22.40114283
No	 30.54701295	 -36.65641554	 22.40114283
No	 30.54701295	 -34.61994801	 20.36467530
No	 28.51054542	 -36.65641554	 24.43761036
No	 28.51054542	 -34.61994801	 26.47407789
No	 30.54701295	 -36.65641554	 26.47407789
No	 30.54701295	 -34.61994801	 24.43761036
No	 28.51054542	 -36.65641554	 28.51054542
No	 28.51054542	 -34.61994801	 30.54701295
No	 30.54701295	 -36.65641554	 30.54701295
No	 30.54701295	 -34.61994801	 28.51054542
No	 28.51054542	 -36.65641554	 32.58348048
No	 28.51054542	 -34.61994801	 34.61994801
No	 30.54701295	 -36.65641554	 34.61994801
No	 30.54701295	 -34.61994801	 32.58348048
No	 28.51054542	 -36.65641554	 36.65641554
No	 28.51054542	 -34.61994801	 38.69288307
No	 30.54701295	 -36.65641554	 38.69288307
No	 30.54701295	 -34.61994801	 36.65641554
Co	 28.51054542	 -32.58348048	 -40.72935060
No	 28.51054542	 -30.54701295	 -38.69288307
No	 30.54701295	 -32.58348048	 -38.69288307
Co	 30.54701295	 -30.54701295	 -40.72935060
No	 28.51054542	 -32.58348048	 -36.65641554
No	 28.51054542	 -30.54701295	 -34.61994801
No	 30.54701295	 -32.58348048	 -34.61994801
No	 30.54701295	 -30.54701295	 -36.65641554
No	 28.51054542	 -32.58348048	 -32.58348048
No	 28.51054542	 -30.54701295	 -30.54701295
No	 30.54701295	 -32.58348048	 -30.54701295
No	 30.54701295	 -30.54701295	 -32.58348048
No	 28.51054542	 -32.58348048	 -28.51054542
No	 28.51054542	 -30.54701295	 -26.47407789
No	 30.54701295	 -32.58348048	 -26.47407789
No	 30.54701295	 -30.54701295	 -28.51054542
No	 28.51054542	 -32.58348048	 -24.43761036
No	 28.51054542	 -30.54701295	 -22.40114283
No	 30.54701295	 -32.58348048	 -22.40114283
No	 30.54701295	 -30.54701295	 -24.43761036
No	 28.51054542	 -32.58348048	 -20.36467530
No	 28.51054542	 -30.54701295	 -18.32820777
No	 30.54701295	 -32.58348048	 -18.32820777
No	 30.54701295	 -30.54701295	 -20.36467530
No	 28.51054542	 -32.58348048	 -16.29174024
No	 28.51054542	 -30.54701295	 -14.25527271
No	 30.54701295	 -32.58348048	 -14.25527271
No	 30.54701295	 -30.54701295	 -16.29174024
No	 28.51054542	 -32.58348048	 -12.21880518
No	 28.51054542	 -30.54701295	 -10.18233765
No	 30.54701295	 -32.58348048	 -10.18233765
No	 30.54701295	 -30.54701295	 -12.21880518
No	 28.51054542	 -32.58348048	 -8.14587012
No	 28.51054542	 -30.54701295	 -6.10940259
No	 30.54701295	 -32.58348048	 -6.10940259
No	 30.54701295	 -30.54701295	 -8.14587012
No	 28.51054542	 -32.58348048	 -4.07293506
No	 28.51054542	 -30.54701295	 -2.03646753
No	 30.54701295	 -32.58348048	 -2.03646753
No	 30.54701295	 -30.54701295	 -4.07293506
No	 28.51054542	 -30.54701295	 2.03646753
No	 30.54701295	 -32.58348048	 2.03646753
No	 30.54701295	 -30.54701295	 -0.00000000
No	 28.51054542	 -32.58348048	 4.07293506
No	 28.51054542	 -30.54701295	 6.10940259
No	 30.54701295	 -32.58348048	 6.10940259
No	 30.54701295	 -30.54701295	 4.07293506
No	 28.51054542	 -32.58348048	 8.14587012
No	 28.51054542	 -30.54701295	 10.18233765
No	 30.54701295	 -32.58348048	 10.18233765
No	 30.54701295	 -30.54701295	 8.14587012
No	 28.51054542	 -32.58348048	 12.21880518
No	 28.51054542	 -30.54701295	 14.25527271
No	 30.54701295	 -32.58348048	 14.25527271
No	 30.54701295	 -30.54701295	 12.21880518
No	 28.51054542	 -32.58348048	 16.29174024
No	 28.51054542	 -30.54701295	 18.32820777
No	 30.54701295	 -32.58348048	 18.32820777
No	 30.54701295	 -30.54701295	 16.29174024
No	 28.51054542	 -32.58348048	 20.36467530
No	 28.51054542	 -30.54701295	 22.40114283
No	 30.54701295	 -32.58348048	 22.40114283
No	 30.54701295	 -30.54701295	 20.36467530
No	 28.51054542	 -32.58348048	 24.43761036
No	 28.51054542	 -30.54701295	 26.47407789
No	 30.54701295	 -32.58348048	 26.47407789
No	 30.54701295	 -30.54701295	 24.43761036
No	 28.51054542	 -32.58348048	 28.51054542
No	 28.51054542	 -30.54701295	 30.54701295
No	 30.54701295	 -32.58348048	 30.54701295
No	 30.54701295	 -30.54701295	 28.51054542
No	 28.51054542	 -32.58348048	 32.58348048
No	 28.51054542	 -30.54701295	 34.61994801
No	 30.54701295	 -32.58348048	 34.61994801
No	 30.54701295	 -30.54701295	 32.58348048
No	 28.51054542	 -32.58348048	 36.65641554
No	 28.51054542	 -30.54701295	 38.69288307
No	 30.54701295	 -32.58348048	 38.69288307
No	 30.54701295	 -30.54701295	 36.65641554
Co	 28.51054542	 -28.51054542	 -40.72935060
No	 28.51054542	 -26.47407789	 -38.69288307
No	 30.54701295	 -28.51054542	 -38.69288307
Co	 30.54701295	 -26.47407789	 -40.72935060
No	 28.51054542	 -28.51054542	 -36.65641554
No	 28.51054542	 -26.47407789	 -34.61994801
No	 30.54701295	 -28.51054542	 -34.61994801
No	 30.54701295	 -26.47407789	 -36.65641554
No	 28.51054542	 -28.51054542	 -32.58348048
No	 28.51054542	 -26.47407789	 -30.54701295
No	 30.54701295	 -28.51054542	 -30.54701295
No	 30.54701295	 -26.47407789	 -32.58348048
No	 28.51054542	 -28.51054542	 -28.51054542
No	 28.51054542	 -26.47407789	 -26.47407789
No	 30.54701295	 -28.51054542	 -26.47407789
No	 30.54701295	 -26.47407789	 -28.51054542
No	 28.51054542	 -28.51054542	 -24.43761036
No	 28.51054542	 -26.47407789	 -22.40114283
No	 30.54701295	 -28.51054542	 -22.40114283
No	 30.54701295	 -26.47407789	 -24.43761036
No	 28.51054542	 -28.51054542	 -20.36467530
No	 28.51054542	 -26.47407789	 -18.32820777
No	 30.54701295	 -28.51054542	 -18.32820777
No	 30.54701295	 -26.47407789	 -20.36467530
No	 28.51054542	 -28.51054542	 -16.29174024
No	 28.51054542	 -26.47407789	 -14.25527271
No	 30.54701295	 -28.51054542	 -14.25527271
No	 30.54701295	 -26.47407789	 -16.29174024
No	 28.51054542	 -28.51054542	 -12.21880518
No	 28.51054542	 -26.47407789	 -10.18233765
No	 30.54701295	 -28.51054542	 -10.18233765
No	 30.54701295	 -26.47407789	 -12.21880518
No	 28.51054542	 -28.51054542	 -8.14587012
No	 28.51054542	 -26.47407789	 -6.10940259
No	 30.54701295	 -28.51054542	 -6.10940259
No	 30.54701295	 -26.47407789	 -8.14587012
No	 28.51054542	 -28.51054542	 -4.07293506
No	 28.51054542	 -26.47407789	 -2.03646753
No	 30.54701295	 -28.51054542	 -2.03646753
No	 30.54701295	 -26.47407789	 -4.07293506
No	 28.51054542	 -28.51054542	 -0.00000000
No	 28.51054542	 -26.47407789	 2.03646753
No	 30.54701295	 -28.51054542	 2.03646753
No	 28.51054542	 -28.51054542	 4.07293506
No	 28.51054542	 -26.47407789	 6.10940259
No	 30.54701295	 -28.51054542	 6.10940259
No	 30.54701295	 -26.47407789	 4.07293506
No	 28.51054542	 -28.51054542	 8.14587012
No	 28.51054542	 -26.47407789	 10.18233765
No	 30.54701295	 -28.51054542	 10.18233765
No	 30.54701295	 -26.47407789	 8.14587012
No	 28.51054542	 -28.51054542	 12.21880518
No	 28.51054542	 -26.47407789	 14.25527271
No	 30.54701295	 -28.51054542	 14.25527271
No	 30.54701295	 -26.47407789	 12.21880518
No	 28.51054542	 -28.51054542	 16.29174024
No	 28.51054542	 -26.47407789	 18.32820777
No	 30.54701295	 -28.51054542	 18.32820777
No	 30.54701295	 -26.47407789	 16.29174024
No	 28.51054542	 -28.51054542	 20.36467530
No	 28.51054542	 -26.47407789	 22.40114283
No	 30.54701295	 -28.51054542	 22.40114283
No	 30.54701295	 -26.47407789	 20.36467530
No	 28.51054542	 -28.51054542	 24.43761036
No	 28.51054542	 -26.47407789	 26.47407789
No	 30.54701295	 -28.51054542	 26.47407789
No	 30.54701295	 -26.47407789	 24.43761036
No	 28.51054542	 -28.51054542	 28.51054542
No	 28.51054542	 -26.47407789	 30.54701295
No	 30.54701295	 -28.51054542	 30.54701295
No	 30.54701295	 -26.47407789	 28.51054542
No	 28.51054542	 -28.51054542	 32.58348048
No	 28.51054542	 -26.47407789	 34.61994801
No	 30.54701295	 -28.51054542	 34.61994801
No	 30.54701295	 -26.47407789	 32.58348048
No	 28.51054542	 -28.51054542	 36.65641554
No	 28.51054542	 -26.47407789	 38.69288307
No	 30.54701295	 -28.51054542	 38.69288307
No	 30.54701295	 -26.47407789	 36.65641554
Co	 28.51054542	 -24.43761036	 -40.72935060
No	 28.51054542	 -22.40114283	 -38.69288307
No	 30.54701295	 -24.43761036	 -38.69288307
Co	 30.54701295	 -22.40114283	 -40.72935060
No	 28.51054542	 -24.43761036	 -36.65641554
No	 28.51054542	 -22.40114283	 -34.61994801
No	 30.54701295	 -24.43761036	 -34.61994801
No	 30.54701295	 -22.40114283	 -36.65641554
No	 28.51054542	 -24.43761036	 -32.58348048
No	 28.51054542	 -22.40114283	 -30.54701295
No	 30.54701295	 -24.43761036	 -30.54701295
No	 30.54701295	 -22.40114283	 -32.58348048
No	 28.51054542	 -24.43761036	 -28.51054542
No	 28.51054542	 -22.40114283	 -26.47407789
No	 30.54701295	 -24.43761036	 -26.47407789
No	 30.54701295	 -22.40114283	 -28.51054542
No	 28.51054542	 -24.43761036	 -24.43761036
No	 28.51054542	 -22.40114283	 -22.40114283
No	 30.54701295	 -24.43761036	 -22.40114283
No	 30.54701295	 -22.40114283	 -24.43761036
No	 28.51054542	 -24.43761036	 -20.36467530
No	 28.51054542	 -22.40114283	 -18.32820777
No	 30.54701295	 -24.43761036	 -18.32820777
No	 30.54701295	 -22.40114283	 -20.36467530
No	 28.51054542	 -24.43761036	 -16.29174024
No	 28.51054542	 -22.40114283	 -14.25527271
No	 30.54701295	 -24.43761036	 -14.25527271
No	 30.54701295	 -22.40114283	 -16.29174024
No	 28.51054542	 -24.43761036	 -12.21880518
No	 28.51054542	 -22.40114283	 -10.18233765
No	 30.54701295	 -24.43761036	 -10.18233765
No	 30.54701295	 -22.40114283	 -12.21880518
No	 28.51054542	 -24.43761036	 -8.14587012
No	 28.51054542	 -22.40114283	 -6.10940259
No	 30.54701295	 -24.43761036	 -6.10940259
No	 30.54701295	 -22.40114283	 -8.14587012
No	 28.51054542	 -24.43761036	 -4.07293506
No	 28.51054542	 -24.43761036	 4.07293506
No	 28.51054542	 -22.40114283	 6.10940259
No	 30.54701295	 -24.43761036	 6.10940259
No	 28.51054542	 -24.43761036	 8.14587012
No	 28.51054542	 -22.40114283	 10.18233765
No	 30.54701295	 -24.43761036	 10.18233765
No	 30.54701295	 -22.40114283	 8.14587012
No	 28.51054542	 -24.43761036	 12.21880518
No	 28.51054542	 -22.40114283	 14.25527271
No	 30.54701295	 -24.43761036	 14.25527271
No	 30.54701295	 -22.40114283	 12.21880518
No	 28.51054542	 -24.43761036	 16.29174024
No	 28.51054542	 -22.40114283	 18.32820777
No	 30.54701295	 -24.43761036	 18.32820777
No	 30.54701295	 -22.40114283	 16.29174024
No	 28.51054542	 -24.43761036	 20.36467530
No	 28.51054542	 -22.40114283	 22.40114283
No	 30.54701295	 -24.43761036	 22.40114283
No	 30.54701295	 -22.40114283	 20.36467530
No	 28.51054542	 -24.43761036	 24.43761036
No	 28.51054542	 -22.40114283	 26.47407789
No	 30.54701295	 -24.43761036	 26.47407789
No	 30.54701295	 -22.40114283	 24.43761036
No	 28.51054542	 -24.43761036	 28.51054542
No	 28.51054542	 -22.40114283	 30.54701295
No	 30.54701295	 -24.43761036	 30.54701295
No	 30.54701295	 -22.40114283	 28.51054542
No	 28.51054542	 -24.43761036	 32.58348048
No	 28.51054542	 -22.40114283	 34.61994801
No	 30.54701295	 -24.43761036	 34.61994801
No	 30.54701295	 -22.40114283	 32.58348048
No	 28.51054542	 -24.43761036	 36.65641554
No	 28.51054542	 -22.40114283	 38.69288307
No	 30.54701295	 -24.43761036	 38.69288307
No	 30.54701295	 -22.40114283	 36.65641554
Co	 28.51054542	 -20.36467530	 -40.72935060
No	 28.51054542	 -18.32820777	 -38.69288307
No	 30.54701295	 -20.36467530	 -38.69288307
Co	 30.54701295	 -18.32820777	 -40.72935060
No	 28.51054542	 -20.36467530	 -36.65641554
No	 28.51054542	 -18.32820777	 -34.61994801
No	 30.54701295	 -20.36467530	 -34.61994801
No	 30.54701295	 -18.32820777	 -36.65641554
No	 28.51054542	 -20.36467530	 -32.58348048
No	 28.51054542	 -18.32820777	 -30.54701295
No	 30.54701295	 -20.36467530	 -30.54701295
No	 30.54701295	 -18.32820777	 -32.58348048
No	 28.51054542	 -20.36467530	 -28.51054542
No	 28.51054542	 -18.32820777	 -26.47407789
No	 30.54701295	 -20.36467530	 -26.47407789
No	 30.54701295	 -18.32820777	 -28.51054542
No	 28.51054542	 -20.36467530	 -24.43761036
No	 28.51054542	 -18.32820777	 -22.40114283
No	 30.54701295	 -20.36467530	 -22.40114283
No	 30.54701295	 -18.32820777	 -24.43761036
No	 28.51054542	 -20.36467530	 -20.36467530
No	 28.51054542	 -18.32820777	 -18.32820777
No	 30.54701295	 -20.36467530	 -18.32820777
No	 30.54701295	 -18.32820777	 -20.36467530
No	 28.51054542	 -20.36467530	 -16.29174024
No	 28.51054542	 -18.32820777	 -14.25527271
No	 30.54701295	 -20.36467530	 -14.25527271
No	 30.54701295	 -18.32820777	 -16.29174024
No	 28.51054542	 -20.36467530	 -12.21880518
No	 28.51054542	 -18.32820777	 -10.18233765
No	 30.54701295	 -20.36467530	 -10.18233765
No	 30.54701295	 -18.32820777	 -12.21880518
No	 28.51054542	 -20.36467530	 -8.14587012
No	 28.51054542	 -20.36467530	 8.14587012
No	 28.51054542	 -18.32820777	 10.18233765
No	 30.54701295	 -20.36467530	 10.18233765
No	 28.51054542	 -20.36467530	 12.21880518
No	 28.51054542	 -18.32820777	 14.25527271
No	 30.54701295	 -20.36467530	 14.25527271
No	 30.54701295	 -18.32820777	 12.21880518
No	 28.51054542	 -20.36467530	 16.29174024
No	 28.51054542	 -18.32820777	 18.32820777
No	 30.54701295	 -20.36467530	 18.32820777
No	 30.54701295	 -18.32820777	 16.29174024
No	 28.51054542	 -20.36467530	 20.36467530
No	 28.51054542	 -18.32820777	 22.40114283
No	 30.54701295	 -20.36467530	 22.40114283
No	 30.54701295	 -18.32820777	 20.36467530
No	 28.51054542	 -20.36467530	 24.43761036
No	 28.51054542	 -18.32820777	 26.47407789
No	 30.54701295	 -20.36467530	 26.47407789
No	 30.54701295	 -18.32820777	 24.43761036
No	 28.51054542	 -20.36467530	 28.51054542
No	 28.51054542	 -18.32820777	 30.54701295
No	 30.54701295	 -20.36467530	 30.54701295
No	 30.54701295	 -18.32820777	 28.51054542
No	 28.51054542	 -20.36467530	 32.58348048
No	 28.51054542	 -18.32820777	 34.61994801
No	 30.54701295	 -20.36467530	 34.61994801
No	 30.54701295	 -18.32820777	 32.58348048
No	 28.51054542	 -20.36467530	 36.65641554
No	 28.51054542	 -18.32820777	 38.69288307
No	 30.54701295	 -20.36467530	 38.69288307
No	 30.54701295	 -18.32820777	 36.65641554
Co	 28.51054542	 -16.29174024	 -40.72935060
No	 28.51054542	 -14.25527271	 -38.69288307
No	 30.54701295	 -16.29174024	 -38.69288307
Co	 30.54701295	 -14.25527271	 -40.72935060
No	 28.51054542	 -16.29174024	 -36.65641554
No	 28.51054542	 -14.25527271	 -34.61994801
No	 30.54701295	 -16.29174024	 -34.61994801
No	 30.54701295	 -14.25527271	 -36.65641554
No	 28.51054542	 -16.29174024	 -32.58348048
No	 28.51054542	 -14.25527271	 -30.54701295
No	 30.54701295	 -16.29174024	 -30.54701295
No	 30.54701295	 -14.25527271	 -32.58348048
No	 28.51054542	 -16.29174024	 -28.51054542
No	 28.51054542	 -14.25527271	 -26.47407789
No	 30.54701295	 -16.29174024	 -26.47407789
No	 30.54701295	 -14.25527271	 -28.51054542
No	 28.51054542	 -16.29174024	 -24.43761036
No	 28.51054542	 -14.25527271	 -22.40114283
No	 30.54701295	 -16.29174024	 -22.40114283
No	 30.54701295	 -14.25527271	 -24.43761036
No	 28.51054542	 -16.29174024	 -20.36467530
No	 28.51054542	 -14.25527271	 -18.32820777
No	 30.54701295	 -16.29174024	 -18.32820777
No	 30.54701295	 -14.25527271	 -20.36467530
No	 28.51054542	 -16.29174024	 -16.29174024
No	 28.51054542	 -14.25527271	 -14.25527271
No	 30.54701295	 -16.29174024	 -14.25527271
No	 30.54701295	 -14.25527271	 -16.29174024
No	 28.51054542	 -16.29174024	 -12.21880518
No	 28.51054542	 -16.29174024	 12.21880518
No	 28.51054542	 -14.25527271	 14.25527271
No	 30.54701295	 -16.29174024	 14.25527271
No	 28.51054542	 -16.29174024	 16.29174024
No	 28.51054542	 -14.25527271	 18.32820777
No	 30.54701295	 -16.29174024	 18.32820777
No	 30.54701295	 -14.25527271	 16.29174024
No	 28.51054542	 -16.29174024	 20.36467530
No	 28.51054542	 -14.25527271	 22.40114283
No	 30.54701295	 -16.29174024	 22.40114283
No	 30.54701295	 -14.25527271	 20.36467530
No	 28.51054542	 -16.29174024	 24.43761036
No	 28.51054542	 -14.25527271	 26.47407789
No	 30.54701295	 -16.29174024	 26.47407789
No	 30.54701295	 -14.25527271	 24.43761036
No	 28.51054542	 -16.29174024	 28.51054542
No	 28.51054542	 -14.25527271	 30.54701295
No	 30.54701295	 -16.29174024	 30.54701295
No	 30.54701295	 -14.25527271	 28.51054542
No	 28.51054542	 -16.29174024	 32.58348048
No	 28.51054542	 -14.25527271	 34.61994801
No	 30.54701295	 -16.29174024	 34.61994801
No	 30.54701295	 -14.25527271	 32.58348048
No	 28.51054542	 -16.29174024	 36.65641554
No	 28.51054542	 -14.25527271	 38.69288307
No	 30.54701295	 -16.29174024	 38.69288307
No	 30.54701295	 -14.25527271	 36.65641554
Co	 28.51054542	 -12.21880518	 -40.72935060
No	 28.51054542	 -10.18233765	 -38.69288307
No	 30.54701295	 -12.21880518	 -38.69288307
Co	 30.54701295	 -10.18233765	 -40.72935060
No	 28.51054542	 -12.21880518	 -36.65641554
No	 28.51054542	 -10.18233765	 -34.61994801
No	 30.54701295	 -12.21880518	 -34.61994801
No	 30.54701295	 -10.18233765	 -36.65641554
No	 28.51054542	 -12.21880518	 -32.58348048
No	 28.51054542	 -10.18233765	 -30.54701295
No	 30.54701295	 -12.21880518	 -30.54701295
No	 30.54701295	 -10.18233765	 -32.58348048
No	 28.51054542	 -12.21880518	 -28.51054542
No	 28.51054542	 -10.18233765	 -26.47407789
No	 30.54701295	 -12.21880518	 -26.47407789
No	 30.54701295	 -10.18233765	 -28.51054542
No	 28.51054542	 -12.21880518	 -24.43761036
No	 28.51054542	 -10.18233765	 -22.40114283
No	 30.54701295	 -12.21880518	 -22.40114283
No	 30.54701295	 -10.18233765	 -24.43761036
No	 28.51054542	 -12.21880518	 -20.36467530
No	 28.51054542	 -10.18233765	 -18.32820777
No	 30.54701295	 -12.21880518	 -18.32820777
No	 30.54701295	 -10.18233765	 -20.36467530
No	 28.51054542	 -12.21880518	 -16.29174024
No	 28.51054542	 -12.21880518	 16.29174024
No	 28.51054542	 -10.18233765	 18.32820777
No	 30.54701295	 -12.21880518	 18.32820777
No	 28.51054542	 -12.21880518	 20.36467530
No	 28.51054542	 -10.18233765	 22.40114283
No	 30.54701295	 -12.21880518	 22.40114283
No	 30.54701295	 -10.18233765	 20.36467530
No	 28.51054542	 -12.21880518	 24.43761036
No	 28.51054542	 -10.18233765	 26.47407789
No	 30.54701295	 -12.21880518	 26.47407789
No	 30.54701295	 -10.18233765	 24.43761036
No	 28.51054542	 -12.21880518	 28.51054542
No	 28.51054542	 -10.18233765	 30.54701295
No	 30.54701295	 -12.21880518	 30.54701295
No	 30.54701295	 -10.18233765	 28.51054542
No	 28.51054542	 -12.21880518	 32.58348048
No	 28.51054542	 -10.18233765	 34.61994801
No	 30.54701295	 -12.21880518	 34.61994801
No	 30.54701295	 -10.18233765	 32.58348048
No	 28.51054542	 -12.21880518	 36.65641554
No	 28.51054542	 -10.18233765	 38.69288307
No	 30.54701295	 -12.21880518	 38.69288307
No	 30.54701295	 -10.18233765	 36.65641554
Co	 28.51054542	 -8.14587012	 -40.72935060
No	 30.54701295	 -8.14587012	 -38.69288307
Co	 30.54701295	 -6.10940259	 -40.72935060
No	 28.51054542	 -8.14587012	 -36.65641554
No	 28.51054542	 -6.10940259	 -34.61994801
No	 30.54701295	 -8.14587012	 -34.61994801
No	 30.54701295	 -6.10940259	 -36.65641554
No	 28.51054542	 -8.14587012	 -32.58348048
No	 28.51054542	 -6.10940259	 -30.54701295
No	 30.54701295	 -8.14587012	 -30.54701295
No	 30.54701295	 -6.10940259	 -32.58348048
No	 28.51054542	 -8.14587012	 -28.51054542
No	 28.51054542	 -6.10940259	 -26.47407789
No	 30.54701295	 -8.14587012	 -26.47407789
No	 30.54701295	 -6.10940259	 -28.51054542
No	 28.51054542	 -8.14587012	 -24.43761036
No	 28.51054542	 -6.10940259	 -22.40114283
No	 30.54701295	 -8.14587012	 -22.40114283
No	 30.54701295	 -6.10940259	 -24.43761036
No	 28.51054542	 -8.14587012	 -20.36467530
No	 28.51054542	 -8.14587012	 20.36467530
No	 28.51054542	 -6.10940259	 22.40114283
No	 30.54701295	 -8.14587012	 22.40114283
No	 28.51054542	 -8.14587012	 24.43761036
No	 28.51054542	 -6.10940259	 26.47407789
No	 30.54701295	 -8.14587012	 26.47407789
No	 30.54701295	 -6.10940259	 24.43761036
No	 28.51054542	 -8.14587012	 28.51054542
No	 28.51054542	 -6.10940259	 30.54701295
No	 30.54701295	 -8.14587012	 30.54701295
No	 30.54701295	 -6.10940259	 28.51054542
No	 28.51054542	 -8.14587012	 32.58348048
No	 28.51054542	 -6.10940259	 34.61994801
No	 30.54701295	 -8.14587012	 34.61994801
No	 30.54701295	 -6.10940259	 32.58348048
No	 28.51054542	 -8.14587012	 36.65641554
No	 30.54701295	 -8.14587012	 38.69288307
No	 30.54701295	 -6.10940259	 36.65641554
No	 30.54701295	 -4.07293506	 -34.61994801
No	 28.51054542	 -4.07293506	 -32.58348048
No	 28.51054542	 -2.03646753	 -30.54701295
No	 30.54701295	 -4.07293506	 -30.54701295
No	 30.54701295	 -2.03646753	 -32.58348048
No	 28.51054542	 -4.07293506	 -28.51054542
No	 28.51054542	 -2.03646753	 -26.47407789
No	 30.54701295	 -4.07293506	 -26.47407789
No	 30.54701295	 -2.03646753	 -28.51054542
No	 28.51054542	 -4.07293506	 -24.43761036
No	 28.51054542	 -4.07293506	 24.43761036
No	 28.51054542	 -2.03646753	 26.47407789
No	 30.54701295	 -4.07293506	 26.47407789
No	 28.51054542	 -4.07293506	 28.51054542
No	 28.51054542	 -2.03646753	 30.54701295
No	 30.54701295	 -4.07293506	 30.54701295
No	 30.54701295	 -2.03646753	 28.51054542
No	 28.51054542	 -4.07293506	 32.58348048
No	 30.54701295	 -4.07293506	 34.61994801
No	 30.54701295	 -2.03646753	 32.58348048
No	 28.51054542	 2.03646753	 -30.54701295
No	 30.54701295	 -0.00000000	 -30.54701295
No	 30.54701295	 2.03646753	 -32.58348048
No	 28.51054542	 -0.00000000	 -28.51054542
No	 28.51054542	 2.03646753	 -26.47407789
No	 30.54701295	 2.03646753	 -28.51054542
No	 28.51054542	 2.03646753	 26.47407789
No	 28.51054542	 -0.00000000	 28.51054542
No	 28.51054542	 2.03646753	 30.54701295
No	 30.54701295	 -0.00000000	 30.54701295
No	 30.54701295	 2.03646753	 28.51054542
No	 30.54701295	 2.03646753	 32.58348048
Co	 30.54701295	 6.10940259	 -40.72935060
No	 28.51054542	 6.10940259	 -34.61994801
No	 30.54701295	 4.07293506	 -34.61994801
No	 30.54701295	 6.10940259	 -36.65641554
No	 28.51054542	 4.07293506	 -32.58348048
No	 28.51054542	 6.10940259	 -30.54701295
No	 30.54701295	 4.07293506	 -30.54701295
No	 30.54701295	 6.10940259	 -32.58348048
No	 28.51054542	 4.07293506	 -28.51054542
No	 28.51054542	 6.10940259	 -26.47407789
No	 30.54701295	 4.07293506	 -26.47407789
No	 30.54701295	 6.10940259	 -28.51054542
No	 28.51054542	 4.07293506	 -24.43761036
No	 28.51054542	 6.10940259	 -22.40114283
No	 30.54701295	 6.10940259	 -24.43761036
No	 28.51054542	 6.10940259	 22.40114283
No	 28.51054542	 4.07293506	 24.43761036
No	 28.51054542	 6.10940259	 26.47407789
No	 30.54701295	 4.07293506	 26.47407789
No	 30.54701295	 6.10940259	 24.43761036
No	 28.51054542	 4.07293506	 28.51054542
No	 28.51054542	 6.10940259	 30.54701295
No	 30.54701295	 4.07293506	 30.54701295
No	 30.54701295	 6.10940259	 28.51054542
No	 28.51054542	 4.07293506	 32.58348048
No	 28.51054542	 6.10940259	 34.61994801
No	 30.54701295	 4.07293506	 34.61994801
No	 30.54701295	 6.10940259	 32.58348048
No	 30.54701295	 6.10940259	 36.65641554
Co	 28.51054542	 8.14587012	 -40.72935060
No	 28.51054542	 10.18233765	 -38.69288307
No	 30.54701295	 8.14587012	 -38.69288307
Co	 30.54701295	 10.18233765	 -40.72935060
No	 28.51054542	 8.14587012	 -36.65641554
No	 28.51054542	 10.18233765	 -34.61994801
No	 30.54701295	 8.14587012	 -34.61994801
No	 30.54701295	 10.18233765	 -36.65641554
No	 28.51054542	 8.14587012	 -32.58348048
No	 28.51054542	 10.18233765	 -30.54701295
No	 30.54701295	 8.14587012	 -30.54701295
No	 30.54701295	 10.18233765	 -32.58348048
No	 28.51054542	 8.14587012	 -28.51054542
No	 28.51054542	 10.18233765	 -26.47407789
No	 30.54701295	 8.14587012	 -26.47407789
No	 30.54701295	 10.18233765	 -28.51054542
No	 28.51054542	 8.14587012	 -24.43761036
No	 28.51054542	 10.18233765	 -22.40114283
No	 30.54701295	 8.14587012	 -22.40114283
No	 30.54701295	 10.18233765	 -24.43761036
No	 28.51054542	 8.14587012	 -20.36467530
No	 28.51054542	 10.18233765	 -18.32820777
No	 30.54701295	 10.18233765	 -20.36467530
No	 28.51054542	 10.18233765	 18.32820777
No	 28.51054542	 8.14587012	 20.36467530
No	 28.51054542	 10.18233765	 22.40114283
No	 30.54701295	 8.14587012	 22.40114283
No	 30.54701295	 10.18233765	 20.36467530
No	 28.51054542	 8.14587012	 24.43761036
No	 28.51054542	 10.18233765	 26.47407789
No	 30.54701295	 8.14587012	 26.47407789
No	 30.54701295	 10.18233765	 24.43761036
No	 28.51054542	 8.14587012	 28.51054542
No	 28.51054542	 10.18233765	 30.54701295
No	 30.54701295	 8.14587012	 30.54701295
No	 30.54701295	 10.18233765	 28.51054542
No	 28.51054542	 8.14587012	 32.58348048
No	 28.51054542	 10.18233765	 34.61994801
No	 30.54701295	 8.14587012	 34.61994801
No	 30.54701295	 10.18233765	 32.58348048
No	 28.51054542	 8.14587012	 36.65641554
No	 28.51054542	 10.18233765	 38.69288307
No	 30.54701295	 8.14587012	 38.69288307
No	 30.54701295	 10.18233765	 36.65641554
Co	 28.51054542	 12.21880518	 -40.72935060
No	 28.51054542	 14.25527271	 -38.69288307
No	 30.54701295	 12.21880518	 -38.69288307
Co	 30.54701295	 14.25527271	 -40.72935060
No	 28.51054542	 12.21880518	 -36.65641554
No	 28.51054542	 14.25527271	 -34.61994801
No	 30.54701295	 12.21880518	 -34.61994801
No	 30.54701295	 14.25527271	 -36.65641554
No	 28.51054542	 12.21880518	 -32.58348048
No	 28.51054542	 14.25527271	 -30.54701295
No	 30.54701295	 12.21880518	 -30.54701295
No	 30.54701295	 14.25527271	 -32.58348048
No	 28.51054542	 12.21880518	 -28.51054542
No	 28.51054542	 14.25527271	 -26.47407789
No	 30.54701295	 12.21880518	 -26.47407789
No	 30.54701295	 14.25527271	 -28.51054542
No	 28.51054542	 12.21880518	 -24.43761036
No	 28.51054542	 14.25527271	 -22.40114283
No	 30.54701295	 12.21880518	 -22.40114283
No	 30.54701295	 14.25527271	 -24.43761036
No	 28.51054542	 12.21880518	 -20.36467530
No	 28.51054542	 14.25527271	 -18.32820777
No	 30.54701295	 12.21880518	 -18.32820777
No	 30.54701295	 14.25527271	 -20.36467530
No	 28.51054542	 12.21880518	 -16.29174024
No	 28.51054542	 14.25527271	 -14.25527271
No	 30.54701295	 14.25527271	 -16.29174024
No	 28.51054542	 14.25527271	 14.25527271
No	 28.51054542	 12.21880518	 16.29174024
No	 28.51054542	 14.25527271	 18.32820777
No	 30.54701295	 12.21880518	 18.32820777
No	 30.54701295	 14.25527271	 16.29174024
No	 28.51054542	 12.21880518	 20.36467530
No	 28.51054542	 14.25527271	 22.40114283
No	 30.54701295	 12.21880518	 22.40114283
No	 30.54701295	 14.25527271	 20.36467530
No	 28.51054542	 12.21880518	 24.43761036
No	 28.51054542	 14.25527271	 26.47407789
No	 30.54701295	 12.21880518	 26.47407789
No	 30.54701295	 14.25527271	 24.43761036
No	 28.51054542	 12.21880518	 28.51054542
No	 28.51054542	 14.25527271	 30.54701295
No	 30.54701295	 12.21880518	 30.54701295
No	 30.54701295	 14.25527271	 28.51054542
No	 28.51054542	 12.21880518	 32.58348048
No	 28.51054542	 14.25527271	 34.61994801
No	 30.54701295	 12.21880518	 34.61994801
No	 30.54701295	 14.25527271	 32.58348048
No	 28.51054542	 12.21880518	 36.65641554
No	 28.51054542	 14.25527271	 38.69288307
No	 30.54701295	 12.21880518	 38.69288307
No	 30.54701295	 14.25527271	 36.65641554
Co	 28.51054542	 16.29174024	 -40.72935060
No	 28.51054542	 18.32820777	 -38.69288307
No	 30.54701295	 16.29174024	 -38.69288307
Co	 30.54701295	 18.32820777	 -40.72935060
No	 28.51054542	 16.29174024	 -36.65641554
No	 28.51054542	 18.32820777	 -34.61994801
No	 30.54701295	 16.29174024	 -34.61994801
No	 30.54701295	 18.32820777	 -36.65641554
No	 28.51054542	 16.29174024	 -32.58348048
No	 28.51054542	 18.32820777	 -30.54701295
No	 30.54701295	 16.29174024	 -30.54701295
No	 30.54701295	 18.32820777	 -32.58348048
No	 28.51054542	 16.29174024	 -28.51054542
No	 28.51054542	 18.32820777	 -26.47407789
No	 30.54701295	 16.29174024	 -26.47407789
No	 30.54701295	 18.32820777	 -28.51054542
No	 28.51054542	 16.29174024	 -24.43761036
No	 28.51054542	 18.32820777	 -22.40114283
No	 30.54701295	 16.29174024	 -22.40114283
No	 30.54701295	 18.32820777	 -24.43761036
No	 28.51054542	 16.29174024	 -20.36467530
No	 28.51054542	 18.32820777	 -18.32820777
No	 30.54701295	 16.29174024	 -18.32820777
No	 30.54701295	 18.32820777	 -20.36467530
No	 28.51054542	 16.29174024	 -16.29174024
No	 28.51054542	 18.32820777	 -14.25527271
No	 30.54701295	 16.29174024	 -14.25527271
No	 30.54701295	 18.32820777	 -16.29174024
No	 28.51054542	 16.29174024	 -12.21880518
No	 28.51054542	 18.32820777	 -10.18233765
No	 30.54701295	 18.32820777	 -12.21880518
No	 28.51054542	 18.32820777	 10.18233765
No	 28.51054542	 16.29174024	 12.21880518
No	 28.51054542	 18.32820777	 14.25527271
No	 30.54701295	 16.29174024	 14.25527271
No	 30.54701295	 18.32820777	 12.21880518
No	 28.51054542	 16.29174024	 16.29174024
No	 28.51054542	 18.32820777	 18.32820777
No	 30.54701295	 16.29174024	 18.32820777
No	 30.54701295	 18.32820777	 16.29174024
No	 28.51054542	 16.29174024	 20.36467530
No	 28.51054542	 18.32820777	 22.40114283
No	 30.54701295	 16.29174024	 22.40114283
No	 30.54701295	 18.32820777	 20.36467530
No	 28.51054542	 16.29174024	 24.43761036
No	 28.51054542	 18.32820777	 26.47407789
No	 30.54701295	 16.29174024	 26.47407789
No	 30.54701295	 18.32820777	 24.43761036
No	 28.51054542	 16.29174024	 28.51054542
No	 28.51054542	 18.32820777	 30.54701295
No	 30.54701295	 16.29174024	 30.54701295
No	 30.54701295	 18.32820777	 28.51054542
No	 28.51054542	 16.29174024	 32.58348048
No	 28.51054542	 18.32820777	 34.61994801
No	 30.54701295	 16.29174024	 34.61994801
No	 30.54701295	 18.32820777	 32.58348048
No	 28.51054542	 16.29174024	 36.65641554
No	 28.51054542	 18.32820777	 38.69288307
No	 30.54701295	 16.29174024	 38.69288307
No	 30.54701295	 18.32820777	 36.65641554
Co	 28.51054542	 20.36467530	 -40.72935060
No	 28.51054542	 22.40114283	 -38.69288307
No	 30.54701295	 20.36467530	 -38.69288307
Co	 30.54701295	 22.40114283	 -40.72935060
No	 28.51054542	 20.36467530	 -36.65641554
No	 28.51054542	 22.40114283	 -34.61994801
No	 30.54701295	 20.36467530	 -34.61994801
No	 30.54701295	 22.40114283	 -36.65641554
No	 28.51054542	 20.36467530	 -32.58348048
No	 28.51054542	 22.40114283	 -30.54701295
No	 30.54701295	 20.36467530	 -30.54701295
No	 30.54701295	 22.40114283	 -32.58348048
No	 28.51054542	 20.36467530	 -28.51054542
No	 28.51054542	 22.40114283	 -26.47407789
No	 30.54701295	 20.36467530	 -26.47407789
No	 30.54701295	 22.40114283	 -28.51054542
No	 28.51054542	 20.36467530	 -24.43761036
No	 28.51054542	 22.40114283	 -22.40114283
No	 30.54701295	 20.36467530	 -22.40114283
No	 30.54701295	 22.40114283	 -24.43761036
No	 28.51054542	 20.36467530	 -20.36467530
No	 28.51054542	 22.40114283	 -18.32820777
No	 30.54701295	 20.36467530	 -18.32820777
No	 30.54701295	 22.40114283	 -20.36467530
No	 28.51054542	 20.36467530	 -16.29174024
No	 28.51054542	 22.40114283	 -14.25527271
No	 30.54701295	 20.36467530	 -14.25527271
No	 30.54701295	 22.40114283	 -16.29174024
No	 28.51054542	 20.36467530	 -12.21880518
No	 28.51054542	 22.40114283	 -10.18233765
No	 30.54701295	 20.36467530	 -10.18233765
No	 30.54701295	 22.40114283	 -12.21880518
No	 28.51054542	 20.36467530	 -8.14587012
No	 28.51054542	 22.40114283	 -6.10940259
No	 30.54701295	 22.40114283	 -8.14587012
No	 28.51054542	 22.40114283	 6.10940259
No	 28.51054542	 20.36467530	 8.14587012
No	 28.51054542	 22.40114283	 10.18233765
No	 30.54701295	 20.36467530	 10.18233765
No	 30.54701295	 22.40114283	 8.14587012
No	 28.51054542	 20.36467530	 12.21880518
No	 28.51054542	 22.40114283	 14.25527271
No	 30.54701295	 20.36467530	 14.25527271
No	 30.54701295	 22.40114283	 12.21880518
No	 28.51054542	 20.36467530	 16.29174024
No	 28.51054542	 22.40114283	 18.32820777
No	 30.54701295	 20.36467530	 18.32820777
No	 30.54701295	 22.40114283	 16.29174024
No	 28.51054542	 20.36467530	 20.36467530
No	 28.51054542	 22.40114283	 22.40114283
No	 30.54701295	 20.36467530	 22.40114283
No	 30.54701295	 22.40114283	 20.36467530
No	 28.51054542	 20.36467530	 24.43761036
No	 28.51054542	 22.40114283	 26.47407789
No	 30.54701295	 20.36467530	 26.47407789
No	 30.54701295	 22.40114283	 24.43761036
No	 28.51054542	 20.36467530	 28.51054542
No	 28.51054542	 22.40114283	 30.54701295
No	 30.54701295	 20.36467530	 30.54701295
No	 30.54701295	 22.40114283	 28.51054542
No	 28.51054542	 20.36467530	 32.58348048
No	 28.51054542	 22.40114283	 34.61994801
No	 30.54701295	 20.36467530	 34.61994801
No	 30.54701295	 22.40114283	 32.58348048
No	 28.51054542	 20.36467530	 36.65641554
No	 28.51054542	 22.40114283	 38.69288307
No	 30.54701295	 20.36467530	 38.69288307
No	 30.54701295	 22.40114283	 36.65641554
Co	 28.51054542	 24.43761036	 -40.72935060
No	 28.51054542	 26.47407789	 -38.69288307
No	 30.54701295	 24.43761036	 -38.69288307
Co	 30.54701295	 26.47407789	 -40.72935060
No	 28.51054542	 24.43761036	 -36.65641554
No	 28.51054542	 26.47407789	 -34.61994801
No	 30.54701295	 24.43761036	 -34.61994801
No	 30.54701295	 26.47407789	 -36.65641554
No	 28.51054542	 24.43761036	 -32.58348048
No	 28.51054542	 26.47407789	 -30.54701295
No	 30.54701295	 24.43761036	 -30.54701295
No	 30.54701295	 26.47407789	 -32.58348048
No	 28.51054542	 24.43761036	 -28.51054542
No	 28.51054542	 26.47407789	 -26.47407789
No	 30.54701295	 24.43761036	 -26.47407789
No	 30.54701295	 26.47407789	 -28.51054542
No	 28.51054542	 24.43761036	 -24.43761036
No	 28.51054542	 26.47407789	 -22.40114283
No	 30.54701295	 24.43761036	 -22.40114283
No	 30.54701295	 26.47407789	 -24.43761036
No	 28.51054542	 24.43761036	 -20.36467530
No	 28.51054542	 26.47407789	 -18.32820777
No	 30.54701295	 24.43761036	 -18.32820777
No	 30.54701295	 26.47407789	 -20.36467530
No	 28.51054542	 24.43761036	 -16.29174024
No	 28.51054542	 26.47407789	 -14.25527271
No	 30.54701295	 24.43761036	 -14.25527271
No	 30.54701295	 26.47407789	 -16.29174024
No	 28.51054542	 24.43761036	 -12.21880518
No	 28.51054542	 26.47407789	 -10.18233765
No	 30.54701295	 24.43761036	 -10.18233765
No	 30.54701295	 26.47407789	 -12.21880518
No	 28.51054542	 24.43761036	 -8.14587012
No	 28.51054542	 26.47407789	 -6.10940259
No	 30.54701295	 24.43761036	 -6.10940259
No	 30.54701295	 26.47407789	 -8.14587012
No	 28.51054542	 24.43761036	 -4.07293506
No	 28.51054542	 26.47407789	 -2.03646753
No	 30.54701295	 26.47407789	 -4.07293506
No	 28.51054542	 26.47407789	 2.03646753
No	 28.51054542	 24.43761036	 4.07293506
No	 28.51054542	 26.47407789	 6.10940259
No	 30.54701295	 24.43761036	 6.10940259
No	 30.54701295	 26.47407789	 4.07293506
No	 28.51054542	 24.43761036	 8.14587012
No	 28.51054542	 26.47407789	 10.18233765
No	 30.54701295	 24.43761036	 10.18233765
No	 30.54701295	 26.47407789	 8.14587012
No	 28.51054542	 24.43761036	 12.21880518
No	 28.51054542	 26.47407789	 14.25527271
No	 30.54701295	 24.43761036	 14.25527271
No	 30.54701295	 26.47407789	 12.21880518
No	 28.51054542	 24.43761036	 16.29174024
No	 28.51054542	 26.47407789	 18.32820777
No	 30.54701295	 24.43761036	 18.32820777
No	 30.54701295	 26.47407789	 16.29174024
No	 28.51054542	 24.43761036	 20.36467530
No	 28.51054542	 26.47407789	 22.40114283
No	 30.54701295	 24.43761036	 22.40114283
No	 30.54701295	 26.47407789	 20.36467530
No	 28.51054542	 24.43761036	 24.43761036
No	 28.51054542	 26.47407789	 26.47407789
No	 30.54701295	 24.43761036	 26.47407789
No	 30.54701295	 26.47407789	 24.43761036
No	 28.51054542	 24.43761036	 28.51054542
No	 28.51054542	 26.47407789	 30.54701295
No	 30.54701295	 24.43761036	 30.54701295
No	 30.54701295	 26.47407789	 28.51054542
No	 28.51054542	 24.43761036	 32.58348048
No	 28.51054542	 26.47407789	 34.61994801
No	 30.54701295	 24.43761036	 34.61994801
No	 30.54701295	 26.47407789	 32.58348048
No	 28.51054542	 24.43761036	 36.65641554
No	 28.51054542	 26.47407789	 38.69288307
No	 30.54701295	 24.43761036	 38.69288307
No	 30.54701295	 26.47407789	 36.65641554
Co	 28.51054542	 28.51054542	 -40.72935060
No	 28.51054542	 30.54701295	 -38.69288307
No	 30.54701295	 28.51054542	 -38.69288307
Co	 30.54701295	 30.54701295	 -40.72935060
No	 28.51054542	 28.51054542	 -36.65641554
No	 28.51054542	 30.54701295	 -34.61994801
No	 30.54701295	 28.51054542	 -34.61994801
No	 30.54701295	 30.54701295	 -36.65641554
No	 28.51054542	 28.51054542	 -32.58348048
No	 28.51054542	 30.54701295	 -30.54701295
No	 30.54701295	 28.51054542	 -30.54701295
No	 30.54701295	 30.54701295	 -32.58348048
No	 28.51054542	 28.51054542	 -28.51054542
No	 28.51054542	 30.54701295	 -26.47407789
No	 30.54701295	 28.51054542	 -26.47407789
No	 30.54701295	 30.54701295	 -28.51054542
No	 28.51054542	 28.51054542	 -24.43761036
No	 28.51054542	 30.54701295	 -22.40114283
No	 30.54701295	 28.51054542	 -22.40114283
No	 30.54701295	 30.54701295	 -24.43761036
No	 28.51054542	 28.51054542	 -20.36467530
No	 28.51054542	 30.54701295	 -18.32820777
No	 30.54701295	 28.51054542	 -18.32820777
No	 30.54701295	 30.54701295	 -20.36467530
No	 28.51054542	 28.51054542	 -16.29174024
No	 28.51054542	 30.54701295	 -14.25527271
No	 30.54701295	 28.51054542	 -14.25527271
No	 30.54701295	 30.54701295	 -16.29174024
No	 28.51054542	 28.51054542	 -12.21880518
No	 28.51054542	 30.54701295	 -10.18233765
No	 30.54701295	 28.51054542	 -10.18233765
No	 30.54701295	 30.54701295	 -12.21880518
No	 28.51054542	 28.51054542	 -8.14587012
No	 28.51054542	 30.54701295	 -6.10940259
No	 30.54701295	 28.51054542	 -6.10940259
No	 30.54701295	 30.54701295	 -8.14587012
No	 28.51054542	 28.51054542	 -4.07293506
No	 28.51054542	 30.54701295	 -2.03646753
No	 30.54701295	 28.51054542	 -2.03646753
No	 30.54701295	 30.54701295	 -4.07293506
No	 28.51054542	 28.51054542	 -0.00000000
No	 28.51054542	 30.54701295	 2.03646753
No	 30.54701295	 28.51054542	 2.03646753
No	 30.54701295	 30.54701295	 -0.00000000
No	 28.51054542	 28.51054542	 4.07293506
No	 28.51054542	 30.54701295	 6.10940259
No	 30.54701295	 28.51054542	 6.10940259
No	 30.54701295	 30.54701295	 4.07293506
No	 28.51054542	 28.51054542	 8.14587012
No	 28.51054542	 30.54701295	 10.18233765
No	 30.54701295	 28.51054542	 10.18233765
No	 30.54701295	 30.54701295	 8.14587012
No	 28.51054542	 28.51054542	 12.21880518
No	 28.51054542	 30.54701295	 14.25527271
No	 30.54701295	 28.51054542	 14.25527271
No	 30.54701295	 30.54701295	 12.21880518
No	 28.51054542	 28.51054542	 16.29174024
No	 28.51054542	 30.54701295	 18.32820777
No	 30.54701295	 28.51054542	 18.32820777
No	 30.54701295	 30.54701295	 16.29174024
No	 28.51054542	 28.51054542	 20.36467530
No	 28.51054542	 30.54701295	 22.40114283
No	 30.54701295	 28.51054542	 22.40114283
No	 30.54701295	 30.54701295	 20.36467530
No	 28.51054542	 28.51054542	 24.43761036
No	 28.51054542	 30.54701295	 26.47407789
No	 30.54701295	 28.51054542	 26.47407789
No	 30.54701295	 30.54701295	 24.43761036
No	 28.51054542	 28.51054542	 28.51054542
No	 28.51054542	 30.54701295	 30.54701295
No	 30.54701295	 28.51054542	 30.54701295
No	 30.54701295	 30.54701295	 28.51054542
No	 28.51054542	 28.51054542	 32.58348048
No	 28.51054542	 30.54701295	 34.61994801
No	 30.54701295	 28.51054542	 34.61994801
No	 30.54701295	 30.54701295	 32.58348048
No	 28.51054542	 28.51054542	 36.65641554
No	 28.51054542	 30.54701295	 38.69288307
No	 30.54701295	 28.51054542	 38.69288307
No	 30.54701295	 30.54701295	 36.65641554
Co	 28.51054542	 32.58348048	 -40.72935060
No	 28.51054542	 34.61994801	 -38.69288307
No	 30.54701295	 32.58348048	 -38.69288307
Co	 30.54701295	 34.61994801	 -40.72935060
No	 28.51054542	 32.58348048	 -36.65641554
No	 28.51054542	 34.61994801	 -34.61994801
No	 30.54701295	 32.58348048	 -34.61994801
No	 30.54701295	 34.61994801	 -36.65641554
No	 28.51054542	 32.58348048	 -32.58348048
No	 28.51054542	 34.61994801	 -30.54701295
No	 30.54701295	 32.58348048	 -30.54701295
No	 30.54701295	 34.61994801	 -32.58348048
No	 28.51054542	 32.58348048	 -28.51054542
No	 28.51054542	 34.61994801	 -26.47407789
No	 30.54701295	 32.58348048	 -26.47407789
No	 30.54701295	 34.61994801	 -28.51054542
No	 28.51054542	 32.58348048	 -24.43761036
No	 28.51054542	 34.61994801	 -22.40114283
No	 30.54701295	 32.58348048	 -22.40114283
No	 30.54701295	 34.61994801	 -24.43761036
No	 28.51054542	 32.58348048	 -20.36467530
No	 28.51054542	 34.61994801	 -18.32820777
No	 30.54701295	 32.58348048	 -18.32820777
No	 30.54701295	 34.61994801	 -20.36467530
No	 28.51054542	 32.58348048	 -16.29174024
No	 28.51054542	 34.61994801	 -14.25527271
No	 30.54701295	 32.58348048	 -14.25527271
No	 30.54701295	 34.61994801	 -16.29174024
No	 28.51054542	 32.58348048	 -12.21880518
No	 28.51054542	 34.61994801	 -10.18233765
No	 30.54701295	 32.58348048	 -10.18233765
No	 30.54701295	 34.61994801	 -12.21880518
No	 28.51054542	 32.58348048	 -8.14587012
No	 28.51054542	 34.61994801	 -6.10940259
No	 30.54701295	 32.58348048	 -6.10940259
No	 30.54701295	 34.61994801	 -8.14587012
No	 28.51054542	 32.58348048	 -4.07293506
No	 30.54701295	 32.58348048	 -2.03646753
No	 30.54701295	 34.61994801	 -4.07293506
No	 30.54701295	 32.58348048	 2.03646753
No	 28.51054542	 32.58348048	 4.07293506
No	 28.51054542	 34.61994801	 6.10940259
No	 30.54701295	 32.58348048	 6.10940259
No	 30.54701295	 34.61994801	 4.07293506
No	 28.51054542	 32.58348048	 8.14587012
No	 28.51054542	 34.61994801	 10.18233765
No	 30.54701295	 32.58348048	 10.18233765
No	 30.54701295	 34.61994801	 8.14587012
No	 28.51054542	 32.58348048	 12.21880518
No	 28.51054542	 34.61994801	 14.25527271
No	 30.54701295	 32.58348048	 14.25527271
No	 30.54701295	 34.61994801	 12.21880518
No	 28.51054542	 32.58348048	 16.29174024
No	 28.51054542	 34.61994801	 18.32820777
No	 30.54701295	 32.58348048	 18.32820777
No	 30.54701295	 34.61994801	 16.29174024
No	 28.51054542	 32.58348048	 20.36467530
No	 28.51054542	 34.61994801	 22.40114283
No	 30.54701295	 32.58348048	 22.40114283
No	 30.54701295	 34.61994801	 20.36467530
No	 28.51054542	 32.58348048	 24.43761036
No	 28.51054542	 34.61994801	 26.47407789
No	 30.54701295	 32.58348048	 26.47407789
No	 30.54701295	 34.61994801	 24.43761036
No	 28.51054542	 32.58348048	 28.51054542
No	 28.51054542	 34.61994801	 30.54701295
No	 30.54701295	 32.58348048	 30.54701295
No	 30.54701295	 34.61994801	 28.51054542
No	 28.51054542	 32.58348048	 32.58348048
No	 28.51054542	 34.61994801	 34.61994801
No	 30.54701295	 32.58348048	 34.61994801
No	 30.54701295	 34.61994801	 32.58348048
No	 28.51054542	 32.58348048	 36.65641554
No	 28.51054542	 34.61994801	 38.69288307
No	 30.54701295	 32.58348048	 38.69288307
No	 30.54701295	 34.61994801	 36.65641554
Co	 28.51054542	 36.65641554	 -40.72935060
No	 28.51054542	 38.69288307	 -38.69288307
No	 30.54701295	 36.65641554	 -38.69288307
Co	 30.54701295	 38.69288307	 -40.72935060
No	 28.51054542	 36.65641554	 -36.65641554
No	 28.51054542	 38.69288307	 -34.61994801
No	 30.54701295	 36.65641554	 -34.61994801
No	 30.54701295	 38.69288307	 -36.65641554
No	 28.51054542	 36.65641554	 -32.58348048
No	 28.51054542	 38.69288307	 -30.54701295
No	 30.54701295	 36.65641554	 -30.54701295
No	 30.54701295	 38.69288307	 -32.58348048
No	 28.51054542	 36.65641554	 -28.51054542
No	 28.51054542	 38.69288307	 -26.47407789
No	 30.54701295	 36.65641554	 -26.47407789
No	 30.54701295	 38.69288307	 -28.51054542
No	 28.51054542	 36.65641554	 -24.43761036
No	 28.51054542	 38.69288307	 -22.40114283
No	 30.54701295	 36.65641554	 -22.40114283
No	 30.54701295	 38.69288307	 -24.43761036
No	 28.51054542	 36.65641554	 -20.36467530
No	 28.51054542	 38.69288307	 -18.32820777
No	 30.54701295	 36.65641554	 -18.32820777
No	 30.54701295	 38.69288307	 -20.36467530
No	 28.51054542	 36.65641554	 -16.29174024
No	 28.51054542	 38.69288307	 -14.25527271
No	 30.54701295	 36.65641554	 -14.25527271
No	 30.54701295	 38.69288307	 -16.29174024
No	 28.51054542	 36.65641554	 -12.21880518
No	 28.51054542	 38.69288307	 -10.18233765
No	 30.54701295	 36.65641554	 -10.18233765
No	 30.54701295	 38.69288307	 -12.21880518
No	 28.51054542	 36.65641554	 -8.14587012
No	 30.54701295	 36.65641554	 -6.10940259
No	 30.54701295	 38.69288307	 -8.14587012
No	 30.54701295	 36.65641554	 6.10940259
No	 28.51054542	 36.65641554	 8.14587012
No	 28.51054542	 38.69288307	 10.18233765
No	 30.54701295	 36.65641554	 10.18233765
No	 30.54701295	 38.69288307	 8.14587012
No	 28.51054542	 36.65641554	 12.21880518
No	 28.51054542	 38.69288307	 14.25527271
No	 30.54701295	 36.65641554	 14.25527271
No	 30.54701295	 38.69288307	 12.21880518
No	 28.51054542	 36.65641554	 16.29174024
No	 28.51054542	 38.69288307	 18.32820777
No	 30.54701295	 36.65641554	 18.32820777
No	 30.54701295	 38.69288307	 16.29174024
No	 28.51054542	 36.65641554	 20.36467530
No	 28.51054542	 38.69288307	 22.40114283
No	 30.54701295	 36.65641554	 22.40114283
No	 30.54701295	 38.69288307	 20.36467530
No	 28.51054542	 36.65641554	 24.43761036
No	 28.51054542	 38.69288307	 26.47407789
No	 30.54701295	 36.65641554	 26.47407789
No	 30.54701295	 38.69288307	 24.43761036
No	 28.51054542	 36.65641554	 28.51054542
No	 28.51054542	 38.69288307	 30.54701295
No	 30.54701295	 36.65641554	 30.54701295
No	 30.54701295	 38.69288307	 28.51054542
No	 28.51054542	 36.65641554	 32.58348048
No	 28.51054542	 38.69288307	 34.61994801
No	 30.54701295	 36.65641554	 34.61994801
No	 30.54701295	 38.69288307	 32.58348048
No	 28.51054542	 36.65641554	 36.65641554
No	 28.51054542	 38.69288307	 38.69288307
No	 30.54701295	 36.65641554	 38.69288307
No	 30.54701295	 38.69288307	 36.65641554
Co	 32.58348048	 -40.72935060	 -40.72935060
No	 32.58348048	 -38.69288307	 -38.69288307
Co	 34.61994801	 -40.72935060	 -38.69288307
Co	 34.61994801	 -38.69288307	 -40.72935060
Co	 32.58348048	 -40.72935060	 -36.65641554
No	 32.58348048	 -38.69288307	 -34.61994801
Co	 34.61994801	 -40.72935060	 -34.61994801
No	 34.61994801	 -38.69288307	 -36.65641554
Co	 32.58348048	 -40.72935060	 -32.58348048
No	 32.58348048	 -38.69288307	 -30.54701295
Co	 34.61994801	 -40.72935060	 -30.54701295
No	 34.61994801	 -38.69288307	 -32.58348048
Co	 32.58348048	 -40.72935060	 -28.51054542
No	 32.58348048	 -38.69288307	 -26.47407789
Co	 34.61994801	 -40.72935060	 -26.47407789
No	 34.61994801	 -38.69288307	 -28.51054542
Co	 32.58348048	 -40.72935060	 -24.43761036
No	 32.58348048	 -38.69288307	 -22.40114283
Co	 34.61994801	 -40.72935060	 -22.40114283
No	 34.61994801	 -38.69288307	 -24.43761036
Co	 32.58348048	 -40.72935060	 -20.36467530
No	 32.58348048	 -38.69288307	 -18.32820777
Co	 34.61994801	 -40.72935060	 -18.32820777
No	 34.61994801	 -38.69288307	 -20.36467530
Co	 32.58348048	 -40.72935060	 -16.29174024
No	 32.58348048	 -38.69288307	 -14.25527271
Co	 34.61994801	 -40.72935060	 -14.25527271
No	 34.61994801	 -38.69288307	 -16.29174024
Co	 32.58348048	 -40.72935060	 -12.21880518
No	 32.58348048	 -38.69288307	 -10.18233765
Co	 34.61994801	 -40.72935060	 -10.18233765
No	 34.61994801	 -38.69288307	 -12.21880518
Co	 32.58348048	 -40.72935060	 -8.14587012
No	 32.58348048	 -38.69288307	 -6.10940259
Co	 34.61994801	 -40.72935060	 -6.10940259
No	 34.61994801	 -38.69288307	 -8.14587012
Co	 32.58348048	 -40.72935060	 -4.07293506
Co	 34.61994801	 -40.72935060	 -2.03646753
No	 34.61994801	 -38.69288307	 -4.07293506
Co	 34.61994801	 -40.72935060	 2.03646753
Co	 32.58348048	 -40.72935060	 4.07293506
No	 32.58348048	 -38.69288307	 6.10940259
Co	 34.61994801	 -40.72935060	 6.10940259
No	 34.61994801	 -38.69288307	 4.07293506
Co	 32.58348048	 -40.72935060	 8.14587012
No	 32.58348048	 -38.69288307	 10.18233765
Co	 34.61994801	 -40.72935060	 10.18233765
No	 34.61994801	 -38.69288307	 8.14587012
Co	 32.58348048	 -40.72935060	 12.21880518
No	 32.58348048	 -38.69288307	 14.25527271
Co	 34.61994801	 -40.72935060	 14.25527271
No	 34.61994801	 -38.69288307	 12.21880518
Co	 32.58348048	 -40.72935060	 16.29174024
No	 32.58348048	 -38.69288307	 18.32820777
Co	 34.61994801	 -40.72935060	 18.32820777
No	 34.61994801	 -38.69288307	 16.29174024
Co	 32.58348048	 -40.72935060	 20.36467530
No	 32.58348048	 -38.69288307	 22.40114283
Co	 34.61994801	 -40.72935060	 22.40114283
No	 34.61994801	 -38.69288307	 20.36467530
Co	 32.58348048	 -40.72935060	 24.43761036
No	 32.58348048	 -38.69288307	 26.47407789
Co	 34.61994801	 -40.72935060	 26.47407789
No	 34.61994801	 -38.69288307	 24.43761036
Co	 32.58348048	 -40.72935060	 28.51054542
No	 32.58348048	 -38.69288307	 30.54701295
Co	 34.61994801	 -40.72935060	 30.54701295
No	 34.61994801	 -38.69288307	 28.51054542
Co	 32.58348048	 -40.72935060	 32.58348048
No	 32.58348048	 -38.69288307	 34.61994801
Co	 34.61994801	 -40.72935060	 34.61994801
No	 34.61994801	 -38.69288307	 32.58348048
Co	 32.58348048	 -40.72935060	 36.65641554
No	 32.58348048	 -38.69288307	 38.69288307
Co	 34.61994801	 -40.72935060	 38.69288307
No	 34.61994801	 -38.69288307	 36.65641554
Co	 32.58348048	 -36.65641554	 -40.72935060
No	 32.58348048	 -34.61994801	 -38.69288307
No	 34.61994801	 -36.65641554	 -38.69288307
Co	 34.61994801	 -34.61994801	 -40.72935060
No	 32.58348048	 -36.65641554	 -36.65641554
No	 32.58348048	 -34.61994801	 -34.61994801
No	 34.61994801	 -36.65641554	 -34.61994801
No	 34.61994801	 -34.61994801	 -36.65641554
No	 32.58348048	 -36.65641554	 -32.58348048
No	 32.58348048	 -34.61994801	 -30.54701295
No	 34.61994801	 -36.65641554	 -30.54701295
No	 34.61994801	 -34.61994801	 -32.58348048
No	 32.58348048	 -36.65641554	 -28.51054542
No	 32.58348048	 -34.61994801	 -26.47407789
No	 34.61994801	 -36.65641554	 -26.47407789
No	 34.61994801	 -34.61994801	 -28.51054542
No	 32.58348048	 -36.65641554	 -24.43761036
No	 32.58348048	 -34.61994801	 -22.40114283
No	 34.61994801	 -36.65641554	 -22.40114283
No	 34.61994801	 -34.61994801	 -24.43761036
No	 32.58348048	 -36.65641554	 -20.36467530
No	 32.58348048	 -34.61994801	 -18.32820777
No	 34.61994801	 -36.65641554	 -18.32820777
No	 34.61994801	 -34.61994801	 -20.36467530
No	 32.58348048	 -36.65641554	 -16.29174024
No	 32.58348048	 -34.61994801	 -14.25527271
No	 34.61994801	 -36.65641554	 -14.25527271
No	 34.61994801	 -34.61994801	 -16.29174024
No	 32.58348048	 -36.65641554	 -12.21880518
No	 32.58348048	 -34.61994801	 -10.18233765
No	 34.61994801	 -36.65641554	 -10.18233765
No	 34.61994801	 -34.61994801	 -12.21880518
No	 32.58348048	 -36.65641554	 -8.14587012
No	 32.58348048	 -34.61994801	 -6.10940259
No	 34.61994801	 -36.65641554	 -6.10940259
No	 34.61994801	 -34.61994801	 -8.14587012
No	 32.58348048	 -36.65641554	 -4.07293506
No	 32.58348048	 -34.61994801	 -2.03646753
No	 34.61994801	 -36.65641554	 -2.03646753
No	 34.61994801	 -34.61994801	 -4.07293506
No	 32.58348048	 -34.61994801	 2.03646753
No	 34.61994801	 -36.65641554	 2.03646753
No	 34.61994801	 -34.61994801	 -0.00000000
No	 32.58348048	 -36.65641554	 4.07293506
No	 32.58348048	 -34.61994801	 6.10940259
No	 34.61994801	 -36.65641554	 6.10940259
No	 34.61994801	 -34.61994801	 4.07293506
No	 32.58348048	 -36.65641554	 8.14587012
No	 32.58348048	 -34.61994801	 10.18233765
No	 34.61994801	 -36.65641554	 10.18233765
No	 34.61994801	 -34.61994801	 8.14587012
No	 32.58348048	 -36.65641554	 12.21880518
No	 32.58348048	 -34.61994801	 14.25527271
No	 34.61994801	 -36.65641554	 14.25527271
No	 34.61994801	 -34.61994801	 12.21880518
No	 32.58348048	 -36.65641554	 16.29174024
No	 32.58348048	 -34.61994801	 18.32820777
No	 34.61994801	 -36.65641554	 18.32820777
No	 34.61994801	 -34.61994801	 16.29174024
No	 32.58348048	 -36.65641554	 20.36467530
No	 32.58348048	 -34.61994801	 22.40114283
No	 34.61994801	 -36.65641554	 22.40114283
No	 34.61994801	 -34.61994801	 20.36467530
No	 32.58348048	 -36.65641554	 24.43761036
No	 32.58348048	 -34.61994801	 26.47407789
No	 34.61994801	 -36.65641554	 26.47407789
No	 34.61994801	 -34.61994801	 24.43761036
No	 32.58348048	 -36.65641554	 28.51054542
No	 32.58348048	 -34.61994801	 30.54701295
No	 34.61994801	 -36.65641554	 30.54701295
No	 34.61994801	 -34.61994801	 28.51054542
No	 32.58348048	 -36.65641554	 32.58348048
No	 32.58348048	 -34.61994801	 34.61994801
No	 34.61994801	 -36.65641554	 34.61994801
No	 34.61994801	 -34.61994801	 32.58348048
No	 32.58348048	 -36.65641554	 36.65641554
No	 32.58348048	 -34.61994801	 38.69288307
No	 34.61994801	 -36.65641554	 38.69288307
No	 34.61994801	 -34.61994801	 36.65641554
Co	 32.58348048	 -32.58348048	 -40.72935060
No	 32.58348048	 -30.54701295	 -38.69288307
No	 34.61994801	 -32.58348048	 -38.69288307
Co	 34.61994801	 -30.54701295	 -40.72935060
No	 32.58348048	 -32.58348048	 -36.65641554
No	 32.58348048	 -30.54701295	 -34.61994801
No	 34.61994801	 -32.58348048	 -34.61994801
No	 34.61994801	 -30.54701295	 -36.65641554
No	 32.58348048	 -32.58348048	 -32.58348048
No	 32.58348048	 -30.54701295	 -30.54701295
No	 34.61994801	 -32.58348048	 -30.54701295
No	 34.61994801	 -30.54701295	 -32.58348048
No	 32.58348048	 -32.58348048	 -28.51054542
No	 32.58348048	 -30.54701295	 -26.47407789
No	 34.61994801	 -32.58348048	 -26.47407789
No	 34.61994801	 -30.54701295	 -28.51054542
No	 32.58348048	 -32.58348048	 -24.43761036
No	 32.58348048	 -30.54701295	 -22.40114283
No	 34.61994801	 -32.58348048	 -22.40114283
No	 34.61994801	 -30.54701295	 -24.43761036
No	 32.58348048	 -32.58348048	 -20.36467530
No	 32.58348048	 -30.54701295	 -18.32820777
No	 34.61994801	 -32.58348048	 -18.32820777
No	 34.61994801	 -30.54701295	 -20.36467530
No	 32.58348048	 -32.58348048	 -16.29174024
No	 32.58348048	 -30.54701295	 -14.25527271
No	 34.61994801	 -32.58348048	 -14.25527271
No	 34.61994801	 -30.54701295	 -16.29174024
No	 32.58348048	 -32.58348048	 -12.21880518
No	 32.58348048	 -30.54701295	 -10.18233765
No	 34.61994801	 -32.58348048	 -10.18233765
No	 34.61994801	 -30.54701295	 -12.21880518
No	 32.58348048	 -32.58348048	 -8.14587012
No	 32.58348048	 -30.54701295	 -6.10940259
No	 34.61994801	 -32.58348048	 -6.10940259
No	 34.61994801	 -30.54701295	 -8.14587012
No	 32.58348048	 -32.58348048	 -4.07293506
No	 32.58348048	 -30.54701295	 -2.03646753
No	 34.61994801	 -32.58348048	 -2.03646753
No	 34.61994801	 -30.54701295	 -4.07293506
No	 32.58348048	 -32.58348048	 -0.00000000
No	 32.58348048	 -30.54701295	 2.03646753
No	 34.61994801	 -32.58348048	 2.03646753
No	 32.58348048	 -32.58348048	 4.07293506
No	 32.58348048	 -30.54701295	 6.10940259
No	 34.61994801	 -32.58348048	 6.10940259
No	 34.61994801	 -30.54701295	 4.07293506
No	 32.58348048	 -32.58348048	 8.14587012
No	 32.58348048	 -30.54701295	 10.18233765
No	 34.61994801	 -32.58348048	 10.18233765
No	 34.61994801	 -30.54701295	 8.14587012
No	 32.58348048	 -32.58348048	 12.21880518
No	 32.58348048	 -30.54701295	 14.25527271
No	 34.61994801	 -32.58348048	 14.25527271
No	 34.61994801	 -30.54701295	 12.21880518
No	 32.58348048	 -32.58348048	 16.29174024
No	 32.58348048	 -30.54701295	 18.32820777
No	 34.61994801	 -32.58348048	 18.32820777
No	 34.61994801	 -30.54701295	 16.29174024
No	 32.58348048	 -32.58348048	 20.36467530
No	 32.58348048	 -30.54701295	 22.40114283
No	 34.61994801	 -32.58348048	 22.40114283
No	 34.61994801	 -30.54701295	 20.36467530
No	 32.58348048	 -32.58348048	 24.43761036
No	 32.58348048	 -30.54701295	 26.47407789
No	 34.61994801	 -32.58348048	 26.47407789
No	 34.61994801	 -30.54701295	 24.43761036
No	 32.58348048	 -32.58348048	 28.51054542
No	 32.58348048	 -30.54701295	 30.54701295
No	 34.61994801	 -32.58348048	 30.54701295
No	 34.61994801	 -30.54701295	 28.51054542
No	 32.58348048	 -32.58348048	 32.58348048
No	 32.58348048	 -30.54701295	 34.61994801
No	 34.61994801	 -32.58348048	 34.61994801
No	 34.61994801	 -30.54701295	 32.58348048
No	 32.58348048	 -32.58348048	 36.65641554
No	 32.58348048	 -30.54701295	 38.69288307
No	 34.61994801	 -32.58348048	 38.69288307
No	 34.61994801	 -30.54701295	 36.65641554
Co	 32.58348048	 -28.51054542	 -40.72935060
No	 32.58348048	 -26.47407789	 -38.69288307
No	 34.61994801	 -28.51054542	 -38.69288307
Co	 34.61994801	 -26.47407789	 -40.72935060
No	 32.58348048	 -28.51054542	 -36.65641554
No	 32.58348048	 -26.47407789	 -34.61994801
No	 34.61994801	 -28.51054542	 -34.61994801
No	 34.61994801	 -26.47407789	 -36.65641554
No	 32.58348048	 -28.51054542	 -32.58348048
No	 32.58348048	 -26.47407789	 -30.54701295
No	 34.61994801	 -28.51054542	 -30.54701295
No	 34.61994801	 -26.47407789	 -32.58348048
No	 32.58348048	 -28.51054542	 -28.51054542
No	 32.58348048	 -26.47407789	 -26.47407789
No	 34.61994801	 -28.51054542	 -26.47407789
No	 34.61994801	 -26.47407789	 -28.51054542
No	 32.58348048	 -28.51054542	 -24.43761036
No	 32.58348048	 -26.47407789	 -22.40114283
No	 34.61994801	 -28.51054542	 -22.40114283
No	 34.61994801	 -26.47407789	 -24.43761036
No	 32.58348048	 -28.51054542	 -20.36467530
No	 32.58348048	 -26.47407789	 -18.32820777
No	 34.61994801	 -28.51054542	 -18.32820777
No	 34.61994801	 -26.47407789	 -20.36467530
No	 32.58348048	 -28.51054542	 -16.29174024
No	 32.58348048	 -26.47407789	 -14.25527271
No	 34.61994801	 -28.51054542	 -14.25527271
No	 34.61994801	 -26.47407789	 -16.29174024
No	 32.58348048	 -28.51054542	 -12.21880518
No	 32.58348048	 -26.47407789	 -10.18233765
No	 34.61994801	 -28.51054542	 -10.18233765
No	 34.61994801	 -26.47407789	 -12.21880518
No	 32.58348048	 -28.51054542	 -8.14587012
No	 32.58348048	 -26.47407789	 -6.10940259
No	 34.61994801	 -28.51054542	 -6.10940259
No	 34.61994801	 -26.47407789	 -8.14587012
No	 32.58348048	 -28.51054542	 -4.07293506
No	 32.58348048	 -28.51054542	 4.07293506
No	 32.58348048	 -26.47407789	 6.10940259
No	 34.61994801	 -28.51054542	 6.10940259
No	 32.58348048	 -28.51054542	 8.14587012
No	 32.58348048	 -26.47407789	 10.18233765
No	 34.61994801	 -28.51054542	 10.18233765
No	 34.61994801	 -26.47407789	 8.14587012
No	 32.58348048	 -28.51054542	 12.21880518
No	 32.58348048	 -26.47407789	 14.25527271
No	 34.61994801	 -28.51054542	 14.25527271
No	 34.61994801	 -26.47407789	 12.21880518
No	 32.58348048	 -28.51054542	 16.29174024
No	 32.58348048	 -26.47407789	 18.32820777
No	 34.61994801	 -28.51054542	 18.32820777
No	 34.61994801	 -26.47407789	 16.29174024
No	 32.58348048	 -28.51054542	 20.36467530
No	 32.58348048	 -26.47407789	 22.40114283
No	 34.61994801	 -28.51054542	 22.40114283
No	 34.61994801	 -26.47407789	 20.36467530
No	 32.58348048	 -28.51054542	 24.43761036
No	 32.58348048	 -26.47407789	 26.47407789
No	 34.61994801	 -28.51054542	 26.47407789
No	 34.61994801	 -26.47407789	 24.43761036
No	 32.58348048	 -28.51054542	 28.51054542
No	 32.58348048	 -26.47407789	 30.54701295
No	 34.61994801	 -28.51054542	 30.54701295
No	 34.61994801	 -26.47407789	 28.51054542
No	 32.58348048	 -28.51054542	 32.58348048
No	 32.58348048	 -26.47407789	 34.61994801
No	 34.61994801	 -28.51054542	 34.61994801
No	 34.61994801	 -26.47407789	 32.58348048
No	 32.58348048	 -28.51054542	 36.65641554
No	 32.58348048	 -26.47407789	 38.69288307
No	 34.61994801	 -28.51054542	 38.69288307
No	 34.61994801	 -26.47407789	 36.65641554
Co	 32.58348048	 -24.43761036	 -40.72935060
No	 32.58348048	 -22.40114283	 -38.69288307
No	 34.61994801	 -24.43761036	 -38.69288307
Co	 34.61994801	 -22.40114283	 -40.72935060
No	 32.58348048	 -24.43761036	 -36.65641554
No	 32.58348048	 -22.40114283	 -34.61994801
No	 34.61994801	 -24.43761036	 -34.61994801
No	 34.61994801	 -22.40114283	 -36.65641554
No	 32.58348048	 -24.43761036	 -32.58348048
No	 32.58348048	 -22.40114283	 -30.54701295
No	 34.61994801	 -24.43761036	 -30.54701295
No	 34.61994801	 -22.40114283	 -32.58348048
No	 32.58348048	 -24.43761036	 -28.51054542
No	 32.58348048	 -22.40114283	 -26.47407789
No	 34.61994801	 -24.43761036	 -26.47407789
No	 34.61994801	 -22.40114283	 -28.51054542
No	 32.58348048	 -24.43761036	 -24.43761036
No	 32.58348048	 -22.40114283	 -22.40114283
No	 34.61994801	 -24.43761036	 -22.40114283
No	 34.61994801	 -22.40114283	 -24.43761036
No	 32.58348048	 -24.43761036	 -20.36467530
No	 32.58348048	 -22.40114283	 -18.32820777
No	 34.61994801	 -24.43761036	 -18.32820777
No	 34.61994801	 -22.40114283	 -20.36467530
No	 32.58348048	 -24.43761036	 -16.29174024
No	 32.58348048	 -22.40114283	 -14.25527271
No	 34.61994801	 -24.43761036	 -14.25527271
No	 34.61994801	 -22.40114283	 -16.29174024
No	 32.58348048	 -24.43761036	 -12.21880518
No	 32.58348048	 -22.40114283	 -10.18233765
No	 34.61994801	 -24.43761036	 -10.18233765
No	 34.61994801	 -22.40114283	 -12.21880518
No	 32.58348048	 -24.43761036	 -8.14587012
No	 32.58348048	 -24.43761036	 8.14587012
No	 32.58348048	 -22.40114283	 10.18233765
No	 34.61994801	 -24.43761036	 10.18233765
No	 32.58348048	 -24.43761036	 12.21880518
No	 32.58348048	 -22.40114283	 14.25527271
No	 34.61994801	 -24.43761036	 14.25527271
No	 34.61994801	 -22.40114283	 12.21880518
No	 32.58348048	 -24.43761036	 16.29174024
No	 32.58348048	 -22.40114283	 18.32820777
No	 34.61994801	 -24.43761036	 18.32820777
No	 34.61994801	 -22.40114283	 16.29174024
No	 32.58348048	 -24.43761036	 20.36467530
No	 32.58348048	 -22.40114283	 22.40114283
No	 34.61994801	 -24.43761036	 22.40114283
No	 34.61994801	 -22.40114283	 20.36467530
No	 32.58348048	 -24.43761036	 24.43761036
No	 32.58348048	 -22.40114283	 26.47407789
No	 34.61994801	 -24.43761036	 26.47407789
No	 34.61994801	 -22.40114283	 24.43761036
No	 32.58348048	 -24.43761036	 28.51054542
No	 32.58348048	 -22.40114283	 30.54701295
No	 34.61994801	 -24.43761036	 30.54701295
No	 34.61994801	 -22.40114283	 28.51054542
No	 32.58348048	 -24.43761036	 32.58348048
No	 32.58348048	 -22.40114283	 34.61994801
No	 34.61994801	 -24.43761036	 34.61994801
No	 34.61994801	 -22.40114283	 32.58348048
No	 32.58348048	 -24.43761036	 36.65641554
No	 32.58348048	 -22.40114283	 38.69288307
No	 34.61994801	 -24.43761036	 38.69288307
No	 34.61994801	 -22.40114283	 36.65641554
Co	 32.58348048	 -20.36467530	 -40.72935060
No	 32.58348048	 -18.32820777	 -38.69288307
No	 34.61994801	 -20.36467530	 -38.69288307
Co	 34.61994801	 -18.32820777	 -40.72935060
No	 32.58348048	 -20.36467530	 -36.65641554
No	 32.58348048	 -18.32820777	 -34.61994801
No	 34.61994801	 -20.36467530	 -34.61994801
No	 34.61994801	 -18.32820777	 -36.65641554
No	 32.58348048	 -20.36467530	 -32.58348048
No	 32.58348048	 -18.32820777	 -30.54701295
No	 34.61994801	 -20.36467530	 -30.54701295
No	 34.61994801	 -18.32820777	 -32.58348048
No	 32.58348048	 -20.36467530	 -28.51054542
No	 32.58348048	 -18.32820777	 -26.47407789
No	 34.61994801	 -20.36467530	 -26.47407789
No	 34.61994801	 -18.32820777	 -28.51054542
No	 32.58348048	 -20.36467530	 -24.43761036
No	 32.58348048	 -18.32820777	 -22.40114283
No	 34.61994801	 -20.36467530	 -22.40114283
No	 34.61994801	 -18.32820777	 -24.43761036
No	 32.58348048	 -20.36467530	 -20.36467530
No	 32.58348048	 -18.32820777	 -18.32820777
No	 34.61994801	 -20.36467530	 -18.32820777
No	 34.61994801	 -18.32820777	 -20.36467530
No	 32.58348048	 -20.36467530	 -16.29174024
No	 32.58348048	 -18.32820777	 -14.25527271
No	 34.61994801	 -20.36467530	 -14.25527271
No	 34.61994801	 -18.32820777	 -16.29174024
No	 32.58348048	 -20.36467530	 -12.21880518
No	 32.58348048	 -20.36467530	 12.21880518
No	 32.58348048	 -18.32820777	 14.25527271
No	 34.61994801	 -20.36467530	 14.25527271
No	 32.58348048	 -20.36467530	 16.29174024
No	 32.58348048	 -18.32820777	 18.32820777
No	 34.61994801	 -20.36467530	 18.32820777
No	 34.61994801	 -18.32820777	 16.29174024
No	 32.58348048	 -20.36467530	 20.36467530
No	 32.58348048	 -18.32820777	 22.40114283
No	 34.61994801	 -20.36467530	 22.40114283
No	 34.61994801	 -18.32820777	 20.36467530
No	 32.58348048	 -20.36467530	 24.43761036
No	 32.58348048	 -18.32820777	 26.47407789
No	 34.61994801	 -20.36467530	 26.47407789
No	 34.61994801	 -18.32820777	 24.43761036
No	 32.58348048	 -20.36467530	 28.51054542
No	 32.58348048	 -18.32820777	 30.54701295
No	 34.61994801	 -20.36467530	 30.54701295
No	 34.61994801	 -18.32820777	 28.51054542
No	 32.58348048	 -20.36467530	 32.58348048
No	 32.58348048	 -18.32820777	 34.61994801
No	 34.61994801	 -20.36467530	 34.61994801
No	 34.61994801	 -18.32820777	 32.58348048
No	 32.58348048	 -20.36467530	 36.65641554
No	 32.58348048	 -18.32820777	 38.69288307
No	 34.61994801	 -20.36467530	 38.69288307
No	 34.61994801	 -18.32820777	 36.65641554
Co	 32.58348048	 -16.29174024	 -40.72935060
No	 32.58348048	 -14.25527271	 -38.69288307
No	 34.61994801	 -16.29174024	 -38.69288307
Co	 34.61994801	 -14.25527271	 -40.72935060
No	 32.58348048	 -16.29174024	 -36.65641554
No	 32.58348048	 -14.25527271	 -34.61994801
No	 34.61994801	 -16.29174024	 -34.61994801
No	 34.61994801	 -14.25527271	 -36.65641554
No	 32.58348048	 -16.29174024	 -32.58348048
No	 32.58348048	 -14.25527271	 -30.54701295
No	 34.61994801	 -16.29174024	 -30.54701295
No	 34.61994801	 -14.25527271	 -32.58348048
No	 32.58348048	 -16.29174024	 -28.51054542
No	 32.58348048	 -14.25527271	 -26.47407789
No	 34.61994801	 -16.29174024	 -26.47407789
No	 34.61994801	 -14.25527271	 -28.51054542
No	 32.58348048	 -16.29174024	 -24.43761036
No	 32.58348048	 -14.25527271	 -22.40114283
No	 34.61994801	 -16.29174024	 -22.40114283
No	 34.61994801	 -14.25527271	 -24.43761036
No	 32.58348048	 -16.29174024	 -20.36467530
No	 32.58348048	 -14.25527271	 -18.32820777
No	 34.61994801	 -16.29174024	 -18.32820777
No	 34.61994801	 -14.25527271	 -20.36467530
No	 32.58348048	 -16.29174024	 -16.29174024
No	 32.58348048	 -16.29174024	 16.29174024
No	 32.58348048	 -14.25527271	 18.32820777
No	 34.61994801	 -16.29174024	 18.32820777
No	 32.58348048	 -16.29174024	 20.36467530
No	 32.58348048	 -14.25527271	 22.40114283
No	 34.61994801	 -16.29174024	 22.40114283
No	 34.61994801	 -14.25527271	 20.36467530
No	 32.58348048	 -16.29174024	 24.43761036
No	 32.58348048	 -14.25527271	 26.47407789
No	 34.61994801	 -16.29174024	 26.47407789
No	 34.61994801	 -14.25527271	 24.43761036
No	 32.58348048	 -16.29174024	 28.51054542
No	 32.58348048	 -14.25527271	 30.54701295
No	 34.61994801	 -16.29174024	 30.54701295
No	 34.61994801	 -14.25527271	 28.51054542
No	 32.58348048	 -16.29174024	 32.58348048
No	 32.58348048	 -14.25527271	 34.61994801
No	 34.61994801	 -16.29174024	 34.61994801
No	 34.61994801	 -14.25527271	 32.58348048
No	 32.58348048	 -16.29174024	 36.65641554
No	 32.58348048	 -14.25527271	 38.69288307
No	 34.61994801	 -16.29174024	 38.69288307
No	 34.61994801	 -14.25527271	 36.65641554
Co	 32.58348048	 -12.21880518	 -40.72935060
No	 32.58348048	 -10.18233765	 -38.69288307
No	 34.61994801	 -12.21880518	 -38.69288307
Co	 34.61994801	 -10.18233765	 -40.72935060
No	 32.58348048	 -12.21880518	 -36.65641554
No	 32.58348048	 -10.18233765	 -34.61994801
No	 34.61994801	 -12.21880518	 -34.61994801
No	 34.61994801	 -10.18233765	 -36.65641554
No	 32.58348048	 -12.21880518	 -32.58348048
No	 32.58348048	 -10.18233765	 -30.54701295
No	 34.61994801	 -12.21880518	 -30.54701295
No	 34.61994801	 -10.18233765	 -32.58348048
No	 32.58348048	 -12.21880518	 -28.51054542
No	 32.58348048	 -10.18233765	 -26.47407789
No	 34.61994801	 -12.21880518	 -26.47407789
No	 34.61994801	 -10.18233765	 -28.51054542
No	 32.58348048	 -12.21880518	 -24.43761036
No	 32.58348048	 -10.18233765	 -22.40114283
No	 34.61994801	 -12.21880518	 -22.40114283
No	 34.61994801	 -10.18233765	 -24.43761036
No	 32.58348048	 -12.21880518	 -20.36467530
No	 32.58348048	 -12.21880518	 20.36467530
No	 32.58348048	 -10.18233765	 22.40114283
No	 34.61994801	 -12.21880518	 22.40114283
No	 32.58348048	 -12.21880518	 24.43761036
No	 32.58348048	 -10.18233765	 26.47407789
No	 34.61994801	 -12.21880518	 26.47407789
No	 34.61994801	 -10.18233765	 24.43761036
No	 32.58348048	 -12.21880518	 28.51054542
No	 32.58348048	 -10.18233765	 30.54701295
No	 34.61994801	 -12.21880518	 30.54701295
No	 34.61994801	 -10.18233765	 28.51054542
No	 32.58348048	 -12.21880518	 32.58348048
No	 32.58348048	 -10.18233765	 34.61994801
No	 34.61994801	 -12.21880518	 34.61994801
No	 34.61994801	 -10.18233765	 32.58348048
No	 32.58348048	 -12.21880518	 36.65641554
No	 32.58348048	 -10.18233765	 38.69288307
No	 34.61994801	 -12.21880518	 38.69288307
No	 34.61994801	 -10.18233765	 36.65641554
Co	 32.58348048	 -8.14587012	 -40.72935060
No	 32.58348048	 -6.10940259	 -38.69288307
No	 34.61994801	 -8.14587012	 -38.69288307
Co	 34.61994801	 -6.10940259	 -40.72935060
No	 32.58348048	 -8.14587012	 -36.65641554
No	 32.58348048	 -6.10940259	 -34.61994801
No	 34.61994801	 -8.14587012	 -34.61994801
No	 34.61994801	 -6.10940259	 -36.65641554
No	 32.58348048	 -8.14587012	 -32.58348048
No	 32.58348048	 -6.10940259	 -30.54701295
No	 34.61994801	 -8.14587012	 -30.54701295
No	 34.61994801	 -6.10940259	 -32.58348048
No	 32.58348048	 -8.14587012	 -28.51054542
No	 32.58348048	 -6.10940259	 -26.47407789
No	 34.61994801	 -8.14587012	 -26.47407789
No	 34.61994801	 -6.10940259	 -28.51054542
No	 32.58348048	 -8.14587012	 -24.43761036
No	 32.58348048	 -8.14587012	 24.43761036
No	 32.58348048	 -6.10940259	 26.47407789
No	 34.61994801	 -8.14587012	 26.47407789
No	 32.58348048	 -8.14587012	 28.51054542
No	 32.58348048	 -6.10940259	 30.54701295
No	 34.61994801	 -8.14587012	 30.54701295
No	 34.61994801	 -6.10940259	 28.51054542
No	 32.58348048	 -8.14587012	 32.58348048
No	 32.58348048	 -6.10940259	 34.61994801
No	 34.61994801	 -8.14587012	 34.61994801
No	 34.61994801	 -6.10940259	 32.58348048
No	 32.58348048	 -8.14587012	 36.65641554
No	 32.58348048	 -6.10940259	 38.69288307
No	 34.61994801	 -8.14587012	 38.69288307
No	 34.61994801	 -6.10940259	 36.65641554
Co	 32.58348048	 -4.07293506	 -40.72935060
No	 34.61994801	 -4.07293506	 -38.69288307
Co	 34.61994801	 -2.03646753	 -40.72935060
No	 32.58348048	 -4.07293506	 -36.65641554
No	 32.58348048	 -2.03646753	 -34.61994801
No	 34.61994801	 -4.07293506	 -34.61994801
No	 34.61994801	 -2.03646753	 -36.65641554
No	 32.58348048	 -4.07293506	 -32.58348048
No	 32.58348048	 -2.03646753	 -30.54701295
No	 34.61994801	 -4.07293506	 -30.54701295
No	 34.61994801	 -2.03646753	 -32.58348048
No	 32.58348048	 -4.07293506	 -28.51054542
No	 32.58348048	 -4.07293506	 28.51054542
No	 32.58348048	 -2.03646753	 30.54701295
No	 34.61994801	 -4.07293506	 30.54701295
No	 32.58348048	 -4.07293506	 32.58348048
No	 32.58348048	 -2.03646753	 34.61994801
No	 34.61994801	 -4.07293506	 34.61994801
No	 34.61994801	 -2.03646753	 32.58348048
No	 32.58348048	 -4.07293506	 36.65641554
No	 34.61994801	 -4.07293506	 38.69288307
No	 34.61994801	 -2.03646753	 36.65641554
Co	 34.61994801	 2.03646753	 -40.72935060
No	 32.58348048	 2.03646753	 -34.61994801
No	 34.61994801	 -0.00000000	 -34.61994801
No	 34.61994801	 2.03646753	 -36.65641554
No	 32.58348048	 -0.00000000	 -32.58348048
No	 32.58348048	 2.03646753	 -30.54701295
No	 34.61994801	 2.03646753	 -32.58348048
No	 32.58348048	 2.03646753	 30.54701295
No	 32.58348048	 -0.00000000	 32.58348048
No	 32.58348048	 2.03646753	 34.61994801
No	 34.61994801	 -0.00000000	 34.61994801
No	 34.61994801	 2.03646753	 32.58348048
No	 34.61994801	 2.03646753	 36.65641554
Co	 32.58348048	 4.07293506	 -40.72935060
No	 32.58348048	 6.10940259	 -38.69288307
No	 34.61994801	 4.07293506	 -38.69288307
Co	 34.61994801	 6.10940259	 -40.72935060
No	 32.58348048	 4.07293506	 -36.65641554
No	 32.58348048	 6.10940259	 -34.61994801
No	 34.61994801	 4.07293506	 -34.61994801
No	 34.61994801	 6.10940259	 -36.65641554
No	 32.58348048	 4.07293506	 -32.58348048
No	 32.58348048	 6.10940259	 -30.54701295
No	 34.61994801	 4.07293506	 -30.54701295
No	 34.61994801	 6.10940259	 -32.58348048
No	 32.58348048	 4.07293506	 -28.51054542
No	 32.58348048	 6.10940259	 -26.47407789
No	 34.61994801	 6.10940259	 -28.51054542
No	 32.58348048	 6.10940259	 26.47407789
No	 32.58348048	 4.07293506	 28.51054542
No	 32.58348048	 6.10940259	 30.54701295
No	 34.61994801	 4.07293506	 30.54701295
No	 34.61994801	 6.10940259	 28.51054542
No	 32.58348048	 4.07293506	 32.58348048
No	 32.58348048	 6.10940259	 34.61994801
No	 34.61994801	 4.07293506	 34.61994801
No	 34.61994801	 6.10940259	 32.58348048
No	 32.58348048	 4.07293506	 36.65641554
No	 32.58348048	 6.10940259	 38.69288307
No	 34.61994801	 4.07293506	 38.69288307
No	 34.61994801	 6.10940259	 36.65641554
Co	 32.58348048	 8.14587012	 -40.72935060
No	 32.58348048	 10.18233765	 -38.69288307
No	 34.61994801	 8.14587012	 -38.69288307
Co	 34.61994801	 10.18233765	 -40.72935060
No	 32.58348048	 8.14587012	 -36.65641554
No	 32.58348048	 10.18233765	 -34.61994801
No	 34.61994801	 8.14587012	 -34.61994801
No	 34.61994801	 10.18233765	 -36.65641554
No	 32.58348048	 8.14587012	 -32.58348048
No	 32.58348048	 10.18233765	 -30.54701295
No	 34.61994801	 8.14587012	 -30.54701295
No	 34.61994801	 10.18233765	 -32.58348048
No	 32.58348048	 8.14587012	 -28.51054542
No	 32.58348048	 10.18233765	 -26.47407789
No	 34.61994801	 8.14587012	 -26.47407789
No	 34.61994801	 10.18233765	 -28.51054542
No	 32.58348048	 8.14587012	 -24.43761036
No	 32.58348048	 10.18233765	 -22.40114283
No	 34.61994801	 10.18233765	 -24.43761036
No	 32.58348048	 10.18233765	 22.40114283
No	 32.58348048	 8.14587012	 24.43761036
No	 32.58348048	 10.18233765	 26.47407789
No	 34.61994801	 8.14587012	 26.47407789
No	 34.61994801	 10.18233765	 24.43761036
No	 32.58348048	 8.14587012	 28.51054542
No	 32.58348048	 10.18233765	 30.54701295
No	 34.61994801	 8.14587012	 30.54701295
No	 34.61994801	 10.18233765	 28.51054542
No	 32.58348048	 8.14587012	 32.58348048
No	 32.58348048	 10.18233765	 34.61994801
No	 34.61994801	 8.14587012	 34.61994801
No	 34.61994801	 10.18233765	 32.58348048
No	 32.58348048	 8.14587012	 36.65641554
No	 32.58348048	 10.18233765	 38.69288307
No	 34.61994801	 8.14587012	 38.69288307
No	 34.61994801	 10.18233765	 36.65641554
Co	 32.58348048	 12.21880518	 -40.72935060
No	 32.58348048	 14.25527271	 -38.69288307
No	 34.61994801	 12.21880518	 -38.69288307
Co	 34.61994801	 14.25527271	 -40.72935060
No	 32.58348048	 12.21880518	 -36.65641554
No	 32.58348048	 14.25527271	 -34.61994801
No	 34.61994801	 12.21880518	 -34.61994801
No	 34.61994801	 14.25527271	 -36.65641554
No	 32.58348048	 12.21880518	 -32.58348048
No	 32.58348048	 14.25527271	 -30.54701295
No	 34.61994801	 12.21880518	 -30.54701295
No	 34.61994801	 14.25527271	 -32.58348048
No	 32.58348048	 12.21880518	 -28.51054542
No	 32.58348048	 14.25527271	 -26.47407789
No	 34.61994801	 12.21880518	 -26.47407789
No	 34.61994801	 14.25527271	 -28.51054542
No	 32.58348048	 12.21880518	 -24.43761036
No	 32.58348048	 14.25527271	 -22.40114283
No	 34.61994801	 12.21880518	 -22.40114283
No	 34.61994801	 14.25527271	 -24.43761036
No	 32.58348048	 12.21880518	 -20.36467530
No	 32.58348048	 14.25527271	 -18.32820777
No	 34.61994801	 14.25527271	 -20.36467530
No	 32.58348048	 14.25527271	 18.32820777
No	 32.58348048	 12.21880518	 20.36467530
No	 32.58348048	 14.25527271	 22.40114283
No	 34.61994801	 12.21880518	 22.40114283
No	 34.61994801	 14.25527271	 20.36467530
No	 32.58348048	 12.21880518	 24.43761036
No	 32.58348048	 14.25527271	 26.47407789
No	 34.61994801	 12.21880518	 26.47407789
No	 34.61994801	 14.25527271	 24.43761036
No	 32.58348048	 12.21880518	 28.51054542
No	 32.58348048	 14.25527271	 30.54701295
No	 34.61994801	 12.21880518	 30.54701295
No	 34.61994801	 14.25527271	 28.51054542
No	 32.58348048	 12.21880518	 32.58348048
No	 32.58348048	 14.25527271	 34.61994801
No	 34.61994801	 12.21880518	 34.61994801
No	 34.61994801	 14.25527271	 32.58348048
No	 32.58348048	 12.21880518	 36.65641554
No	 32.58348048	 14.25527271	 38.69288307
No	 34.61994801	 12.21880518	 38.69288307
No	 34.61994801	 14.25527271	 36.65641554
Co	 32.58348048	 16.29174024	 -40.72935060
No	 32.58348048	 18.32820777	 -38.69288307
No	 34.61994801	 16.29174024	 -38.69288307
Co	 34.61994801	 18.32820777	 -40.72935060
No	 32.58348048	 16.29174024	 -36.65641554
No	 32.58348048	 18.32820777	 -34.61994801
No	 34.61994801	 16.29174024	 -34.61994801
No	 34.61994801	 18.32820777	 -36.65641554
No	 32.58348048	 16.29174024	 -32.58348048
No	 32.58348048	 18.32820777	 -30.54701295
No	 34.61994801	 16.29174024	 -30.54701295
No	 34.61994801	 18.32820777	 -32.58348048
No	 32.58348048	 16.29174024	 -28.51054542
No	 32.58348048	 18.32820777	 -26.47407789
No	 34.61994801	 16.29174024	 -26.47407789
No	 34.61994801	 18.32820777	 -28.51054542
No	 32.58348048	 16.29174024	 -24.43761036
No	 32.58348048	 18.32820777	 -22.40114283
No	 34.61994801	 16.29174024	 -22.40114283
No	 34.61994801	 18.32820777	 -24.43761036
No	 32.58348048	 16.29174024	 -20.36467530
No	 32.58348048	 18.32820777	 -18.32820777
No	 34.61994801	 16.29174024	 -18.32820777
No	 34.61994801	 18.32820777	 -20.36467530
No	 32.58348048	 16.29174024	 -16.29174024
No	 32.58348048	 18.32820777	 -14.25527271
No	 34.61994801	 18.32820777	 -16.29174024
No	 32.58348048	 18.32820777	 14.25527271
No	 32.58348048	 16.29174024	 16.29174024
No	 32.58348048	 18.32820777	 18.32820777
No	 34.61994801	 16.29174024	 18.32820777
No	 34.61994801	 18.32820777	 16.29174024
No	 32.58348048	 16.29174024	 20.36467530
No	 32.58348048	 18.32820777	 22.40114283
No	 34.61994801	 16.29174024	 22.40114283
No	 34.61994801	 18.32820777	 20.36467530
No	 32.58348048	 16.29174024	 24.43761036
No	 32.58348048	 18.32820777	 26.47407789
No	 34.61994801	 16.29174024	 26.47407789
No	 34.61994801	 18.32820777	 24.43761036
No	 32.58348048	 16.29174024	 28.51054542
No	 32.58348048	 18.32820777	 30.54701295
No	 34.61994801	 16.29174024	 30.54701295
No	 34.61994801	 18.32820777	 28.51054542
No	 32.58348048	 16.29174024	 32.58348048
No	 32.58348048	 18.32820777	 34.61994801
No	 34.61994801	 16.29174024	 34.61994801
No	 34.61994801	 18.32820777	 32.58348048
No	 32.58348048	 16.29174024	 36.65641554
No	 32.58348048	 18.32820777	 38.69288307
No	 34.61994801	 16.29174024	 38.69288307
No	 34.61994801	 18.32820777	 36.65641554
Co	 32.58348048	 20.36467530	 -40.72935060
No	 32.58348048	 22.40114283	 -38.69288307
No	 34.61994801	 20.36467530	 -38.69288307
Co	 34.61994801	 22.40114283	 -40.72935060
No	 32.58348048	 20.36467530	 -36.65641554
No	 32.58348048	 22.40114283	 -34.61994801
No	 34.61994801	 20.36467530	 -34.61994801
No	 34.61994801	 22.40114283	 -36.65641554
No	 32.58348048	 20.36467530	 -32.58348048
No	 32.58348048	 22.40114283	 -30.54701295
No	 34.61994801	 20.36467530	 -30.54701295
No	 34.61994801	 22.40114283	 -32.58348048
No	 32.58348048	 20.36467530	 -28.51054542
No	 32.58348048	 22.40114283	 -26.47407789
No	 34.61994801	 20.36467530	 -26.47407789
No	 34.61994801	 22.40114283	 -28.51054542
No	 32.58348048	 20.36467530	 -24.43761036
No	 32.58348048	 22.40114283	 -22.40114283
No	 34.61994801	 20.36467530	 -22.40114283
No	 34.61994801	 22.40114283	 -24.43761036
No	 32.58348048	 20.36467530	 -20.36467530
No	 32.58348048	 22.40114283	 -18.32820777
No	 34.61994801	 20.36467530	 -18.32820777
No	 34.61994801	 22.40114283	 -20.36467530
No	 32.58348048	 20.36467530	 -16.29174024
No	 32.58348048	 22.40114283	 -14.25527271
No	 34.61994801	 20.36467530	 -14.25527271
No	 34.61994801	 22.40114283	 -16.29174024
No	 32.58348048	 20.36467530	 -12.21880518
No	 32.58348048	 22.40114283	 -10.18233765
No	 34.61994801	 22.40114283	 -12.21880518
No	 32.58348048	 22.40114283	 10.18233765
No	 32.58348048	 20.36467530	 12.21880518
No	 32.58348048	 22.40114283	 14.25527271
No	 34.61994801	 20.36467530	 14.25527271
No	 34.61994801	 22.40114283	 12.21880518
No	 32.58348048	 20.36467530	 16.29174024
No	 32.58348048	 22.40114283	 18.32820777
No	 34.61994801	 20.36467530	 18.32820777
No	 34.61994801	 22.40114283	 16.29174024
No	 32.58348048	 20.36467530	 20.36467530
No	 32.58348048	 22.40114283	 22.40114283
No	 34.61994801	 20.36467530	 22.40114283
No	 34.61994801	 22.40114283	 20.36467530
No	 32.58348048	 20.36467530	 24.43761036
No	 32.58348048	 22.40114283	 26.47407789
No	 34.61994801	 20.36467530	 26.47407789
No	 34.61994801	 22.40114283	 24.43761036
No	 32.58348048	 20.36467530	 28.51054542
No	 32.58348048	 22.40114283	 30.54701295
No	 34.61994801	 20.36467530	 30.54701295
No	 34.61994801	 22.40114283	 28.51054542
No	 32.58348048	 20.36467530	 32.58348048
No	 32.58348048	 22.40114283	 34.61994801
No	 34.61994801	 20.36467530	 34.61994801
No	 34.61994801	 22.40114283	 32.58348048
No	 32.58348048	 20.36467530	 36.65641554
No	 32.58348048	 22.40114283	 38.69288307
No	 34.61994801	 20.36467530	 38.69288307
No	 34.61994801	 22.40114283	 36.65641554
Co	 32.58348048	 24.43761036	 -40.72935060
No	 32.58348048	 26.47407789	 -38.69288307
No	 34.61994801	 24.43761036	 -38.69288307
Co	 34.61994801	 26.47407789	 -40.72935060
No	 32.58348048	 24.43761036	 -36.65641554
No	 32.58348048	 26.47407789	 -34.61994801
No	 34.61994801	 24.43761036	 -34.61994801
No	 34.61994801	 26.47407789	 -36.65641554
No	 32.58348048	 24.43761036	 -32.58348048
No	 32.58348048	 26.47407789	 -30.54701295
No	 34.61994801	 24.43761036	 -30.54701295
No	 34.61994801	 26.47407789	 -32.58348048
No	 32.58348048	 24.43761036	 -28.51054542
No	 32.58348048	 26.47407789	 -26.47407789
No	 34.61994801	 24.43761036	 -26.47407789
No	 34.61994801	 26.47407789	 -28.51054542
No	 32.58348048	 24.43761036	 -24.43761036
No	 32.58348048	 26.47407789	 -22.40114283
No	 34.61994801	 24.43761036	 -22.40114283
No	 34.61994801	 26.47407789	 -24.43761036
No	 32.58348048	 24.43761036	 -20.36467530
No	 32.58348048	 26.47407789	 -18.32820777
No	 34.61994801	 24.43761036	 -18.32820777
No	 34.61994801	 26.47407789	 -20.36467530
No	 32.58348048	 24.43761036	 -16.29174024
No	 32.58348048	 26.47407789	 -14.25527271
No	 34.61994801	 24.43761036	 -14.25527271
No	 34.61994801	 26.47407789	 -16.29174024
No	 32.58348048	 24.43761036	 -12.21880518
No	 32.58348048	 26.47407789	 -10.18233765
No	 34.61994801	 24.43761036	 -10.18233765
No	 34.61994801	 26.47407789	 -12.21880518
No	 32.58348048	 24.43761036	 -8.14587012
No	 32.58348048	 26.47407789	 -6.10940259
No	 34.61994801	 26.47407789	 -8.14587012
No	 32.58348048	 26.47407789	 6.10940259
No	 32.58348048	 24.43761036	 8.14587012
No	 32.58348048	 26.47407789	 10.18233765
No	 34.61994801	 24.43761036	 10.18233765
No	 34.61994801	 26.47407789	 8.14587012
No	 32.58348048	 24.43761036	 12.21880518
No	 32.58348048	 26.47407789	 14.25527271
No	 34.61994801	 24.43761036	 14.25527271
No	 34.61994801	 26.47407789	 12.21880518
No	 32.58348048	 24.43761036	 16.29174024
No	 32.58348048	 26.47407789	 18.32820777
No	 34.61994801	 24.43761036	 18.32820777
No	 34.61994801	 26.47407789	 16.29174024
No	 32.58348048	 24.43761036	 20.36467530
No	 32.58348048	 26.47407789	 22.40114283
No	 34.61994801	 24.43761036	 22.40114283
No	 34.61994801	 26.47407789	 20.36467530
No	 32.58348048	 24.43761036	 24.43761036
No	 32.58348048	 26.47407789	 26.47407789
No	 34.61994801	 24.43761036	 26.47407789
No	 34.61994801	 26.47407789	 24.43761036
No	 32.58348048	 24.43761036	 28.51054542
No	 32.58348048	 26.47407789	 30.54701295
No	 34.61994801	 24.43761036	 30.54701295
No	 34.61994801	 26.47407789	 28.51054542
No	 32.58348048	 24.43761036	 32.58348048
No	 32.58348048	 26.47407789	 34.61994801
No	 34.61994801	 24.43761036	 34.61994801
No	 34.61994801	 26.47407789	 32.58348048
No	 32.58348048	 24.43761036	 36.65641554
No	 32.58348048	 26.47407789	 38.69288307
No	 34.61994801	 24.43761036	 38.69288307
No	 34.61994801	 26.47407789	 36.65641554
Co	 32.58348048	 28.51054542	 -40.72935060
No	 32.58348048	 30.54701295	 -38.69288307
No	 34.61994801	 28.51054542	 -38.69288307
Co	 34.61994801	 30.54701295	 -40.72935060
No	 32.58348048	 28.51054542	 -36.65641554
No	 32.58348048	 30.54701295	 -34.61994801
No	 34.61994801	 28.51054542	 -34.61994801
No	 34.61994801	 30.54701295	 -36.65641554
No	 32.58348048	 28.51054542	 -32.58348048
No	 32.58348048	 30.54701295	 -30.54701295
No	 34.61994801	 28.51054542	 -30.54701295
No	 34.61994801	 30.54701295	 -32.58348048
No	 32.58348048	 28.51054542	 -28.51054542
No	 32.58348048	 30.54701295	 -26.47407789
No	 34.61994801	 28.51054542	 -26.47407789
No	 34.61994801	 30.54701295	 -28.51054542
No	 32.58348048	 28.51054542	 -24.43761036
No	 32.58348048	 30.54701295	 -22.40114283
No	 34.61994801	 28.51054542	 -22.40114283
No	 34.61994801	 30.54701295	 -24.43761036
No	 32.58348048	 28.51054542	 -20.36467530
No	 32.58348048	 30.54701295	 -18.32820777
No	 34.61994801	 28.51054542	 -18.32820777
No	 34.61994801	 30.54701295	 -20.36467530
No	 32.58348048	 28.51054542	 -16.29174024
No	 32.58348048	 30.54701295	 -14.25527271
No	 34.61994801	 28.51054542	 -14.25527271
No	 34.61994801	 30.54701295	 -16.29174024
No	 32.58348048	 28.51054542	 -12.21880518
No	 32.58348048	 30.54701295	 -10.18233765
No	 34.61994801	 28.51054542	 -10.18233765
No	 34.61994801	 30.54701295	 -12.21880518
No	 32.58348048	 28.51054542	 -8.14587012
No	 32.58348048	 30.54701295	 -6.10940259
No	 34.61994801	 28.51054542	 -6.10940259
No	 34.61994801	 30.54701295	 -8.14587012
No	 32.58348048	 28.51054542	 -4.07293506
No	 32.58348048	 30.54701295	 -2.03646753
No	 34.61994801	 30.54701295	 -4.07293506
No	 32.58348048	 30.54701295	 2.03646753
No	 32.58348048	 28.51054542	 4.07293506
No	 32.58348048	 30.54701295	 6.10940259
No	 34.61994801	 28.51054542	 6.10940259
No	 34.61994801	 30.54701295	 4.07293506
No	 32.58348048	 28.51054542	 8.14587012
No	 32.58348048	 30.54701295	 10.18233765
No	 34.61994801	 28.51054542	 10.18233765
No	 34.61994801	 30.54701295	 8.14587012
No	 32.58348048	 28.51054542	 12.21880518
No	 32.58348048	 30.54701295	 14.25527271
No	 34.61994801	 28.51054542	 14.25527271
No	 34.61994801	 30.54701295	 12.21880518
No	 32.58348048	 28.51054542	 16.29174024
No	 32.58348048	 30.54701295	 18.32820777
No	 34.61994801	 28.51054542	 18.32820777
No	 34.61994801	 30.54701295	 16.29174024
No	 32.58348048	 28.51054542	 20.36467530
No	 32.58348048	 30.54701295	 22.40114283
No	 34.61994801	 28.51054542	 22.40114283
No	 34.61994801	 30.54701295	 20.36467530
No	 32.58348048	 28.51054542	 24.43761036
No	 32.58348048	 30.54701295	 26.47407789
No	 34.61994801	 28.51054542	 26.47407789
No	 34.61994801	 30.54701295	 24.43761036
No	 32.58348048	 28.51054542	 28.51054542
No	 32.58348048	 30.54701295	 30.54701295
No	 34.61994801	 28.51054542	 30.54701295
No	 34.61994801	 30.54701295	 28.51054542
No	 32.58348048	 28.51054542	 32.58348048
No	 32.58348048	 30.54701295	 34.61994801
No	 34.61994801	 28.51054542	 34.61994801
No	 34.61994801	 30.54701295	 32.58348048
No	 32.58348048	 28.51054542	 36.65641554
No	 32.58348048	 30.54701295	 38.69288307
No	 34.61994801	 28.51054542	 38.69288307
No	 34.61994801	 30.54701295	 36.65641554
Co	 32.58348048	 32.58348048	 -40.72935060
No	 32.58348048	 34.61994801	 -38.69288307
No	 34.61994801	 32.58348048	 -38.69288307
Co	 34.61994801	 34.61994801	 -40.72935060
No	 32.58348048	 32.58348048	 -36.65641554
No	 32.58348048	 34.61994801	 -34.61994801
No	 34.61994801	 32.58348048	 -34.61994801
No	 34.61994801	 34.61994801	 -36.65641554
No	 32.58348048	 32.58348048	 -32.58348048
No	 32.58348048	 34.61994801	 -30.54701295
No	 34.61994801	 32.58348048	 -30.54701295
No	 34.61994801	 34.61994801	 -32.58348048
No	 32.58348048	 32.58348048	 -28.51054542
No	 32.58348048	 34.61994801	 -26.47407789
No	 34.61994801	 32.58348048	 -26.47407789
No	 34.61994801	 34.61994801	 -28.51054542
No	 32.58348048	 32.58348048	 -24.43761036
No	 32.58348048	 34.61994801	 -22.40114283
No	 34.61994801	 32.58348048	 -22.40114283
No	 34.61994801	 34.61994801	 -24.43761036
No	 32.58348048	 32.58348048	 -20.36467530
No	 32.58348048	 34.61994801	 -18.32820777
No	 34.61994801	 32.58348048	 -18.32820777
No	 34.61994801	 34.61994801	 -20.36467530
No	 32.58348048	 32.58348048	 -16.29174024
No	 32.58348048	 34.61994801	 -14.25527271
No	 34.61994801	 32.58348048	 -14.25527271
No	 34.61994801	 34.61994801	 -16.29174024
No	 32.58348048	 32.58348048	 -12.21880518
No	 32.58348048	 34.61994801	 -10.18233765
No	 34.61994801	 32.58348048	 -10.18233765
No	 34.61994801	 34.61994801	 -12.21880518
No	 32.58348048	 32.58348048	 -8.14587012
No	 32.58348048	 34.61994801	 -6.10940259
No	 34.61994801	 32.58348048	 -6.10940259
No	 34.61994801	 34.61994801	 -8.14587012
No	 32.58348048	 32.58348048	 -4.07293506
No	 32.58348048	 34.61994801	 -2.03646753
No	 34.61994801	 32.58348048	 -2.03646753
No	 34.61994801	 34.61994801	 -4.07293506
No	 32.58348048	 32.58348048	 -0.00000000
No	 32.58348048	 34.61994801	 2.03646753
No	 34.61994801	 32.58348048	 2.03646753
No	 34.61994801	 34.61994801	 -0.00000000
No	 32.58348048	 32.58348048	 4.07293506
No	 32.58348048	 34.61994801	 6.10940259
No	 34.61994801	 32.58348048	 6.10940259
No	 34.61994801	 34.61994801	 4.07293506
No	 32.58348048	 32.58348048	 8.14587012
No	 32.58348048	 34.61994801	 10.18233765
No	 34.61994801	 32.58348048	 10.18233765
No	 34.61994801	 34.61994801	 8.14587012
No	 32.58348048	 32.58348048	 12.21880518
No	 32.58348048	 34.61994801	 14.25527271
No	 34.61994801	 32.58348048	 14.25527271
No	 34.61994801	 34.61994801	 12.21880518
No	 32.58348048	 32.58348048	 16.29174024
No	 32.58348048	 34.61994801	 18.32820777
No	 34.61994801	 32.58348048	 18.32820777
No	 34.61994801	 34.61994801	 16.29174024
No	 32.58348048	 32.58348048	 20.36467530
No	 32.58348048	 34.61994801	 22.40114283
No	 34.61994801	 32.58348048	 22.40114283
No	 34.61994801	 34.61994801	 20.36467530
No	 32.58348048	 32.58348048	 24.43761036
No	 32.58348048	 34.61994801	 26.47407789
No	 34.61994801	 32.58348048	 26.47407789
No	 34.61994801	 34.61994801	 24.43761036
No	 32.58348048	 32.58348048	 28.51054542
No	 32.58348048	 34.61994801	 30.54701295
No	 34.61994801	 32.58348048	 30.54701295
No	 34.61994801	 34.61994801	 28.51054542
No	 32.58348048	 32.58348048	 32.58348048
No	 32.58348048	 34.61994801	 34.61994801
No	 34.61994801	 32.58348048	 34.61994801
No	 34.61994801	 34.61994801	 32.58348048
No	 32.58348048	 32.58348048	 36.65641554
No	 32.58348048	 34.61994801	 38.69288307
No	 34.61994801	 32.58348048	 38.69288307
No	 34.61994801	 34.61994801	 36.65641554
Co	 32.58348048	 36.65641554	 -40.72935060
No	 32.58348048	 38.69288307	 -38.69288307
No	 34.61994801	 36.65641554	 -38.69288307
Co	 34.61994801	 38.69288307	 -40.72935060
No	 32.58348048	 36.65641554	 -36.65641554
No	 32.58348048	 38.69288307	 -34.61994801
No	 34.61994801	 36.65641554	 -34.61994801
No	 34.61994801	 38.69288307	 -36.65641554
No	 32.58348048	 36.65641554	 -32.58348048
No	 32.58348048	 38.69288307	 -30.54701295
No	 34.61994801	 36.65641554	 -30.54701295
No	 34.61994801	 38.69288307	 -32.58348048
No	 32.58348048	 36.65641554	 -28.51054542
No	 32.58348048	 38.69288307	 -26.47407789
No	 34.61994801	 36.65641554	 -26.47407789
No	 34.61994801	 38.69288307	 -28.51054542
No	 32.58348048	 36.65641554	 -24.43761036
No	 32.58348048	 38.69288307	 -22.40114283
No	 34.61994801	 36.65641554	 -22.40114283
No	 34.61994801	 38.69288307	 -24.43761036
No	 32.58348048	 36.65641554	 -20.36467530
No	 32.58348048	 38.69288307	 -18.32820777
No	 34.61994801	 36.65641554	 -18.32820777
No	 34.61994801	 38.69288307	 -20.36467530
No	 32.58348048	 36.65641554	 -16.29174024
No	 32.58348048	 38.69288307	 -14.25527271
No	 34.61994801	 36.65641554	 -14.25527271
No	 34.61994801	 38.69288307	 -16.29174024
No	 32.58348048	 36.65641554	 -12.21880518
No	 32.58348048	 38.69288307	 -10.18233765
No	 34.61994801	 36.65641554	 -10.18233765
No	 34.61994801	 38.69288307	 -12.21880518
No	 32.58348048	 36.65641554	 -8.14587012
No	 32.58348048	 38.69288307	 -6.10940259
No	 34.61994801	 36.65641554	 -6.10940259
No	 34.61994801	 38.69288307	 -8.14587012
No	 32.58348048	 36.65641554	 -4.07293506
No	 34.61994801	 36.65641554	 -2.03646753
No	 34.61994801	 38.69288307	 -4.07293506
No	 34.61994801	 36.65641554	 2.03646753
No	 32.58348048	 36.65641554	 4.07293506
No	 32.58348048	 38.69288307	 6.10940259
No	 34.61994801	 36.65641554	 6.10940259
No	 34.61994801	 38.69288307	 4.07293506
No	 32.58348048	 36.65641554	 8.14587012
No	 32.58348048	 38.69288307	 10.18233765
No	 34.61994801	 36.65641554	 10.18233765
No	 34.61994801	 38.69288307	 8.14587012
No	 32.58348048	 36.65641554	 12.21880518
No	 32.58348048	 38.69288307	 14.25527271
No	 34.61994801	 36.65641554	 14.25527271
No	 34.61994801	 38.69288307	 12.21880518
No	 32.58348048	 36.65641554	 16.29174024
No	 32.58348048	 38.69288307	 18.32820777
No	 34.61994801	 36.65641554	 18.32820777
No	 34.61994801	 38.69288307	 16.29174024
No	 32.58348048	 36.65641554	 20.36467530
No	 32.58348048	 38.69288307	 22.40114283
No	 34.61994801	 36.65641554	 22.40114283
No	 34.61994801	 38.69288307	 20.36467530
No	 32.58348048	 36.65641554	 24.43761036
No	 32.58348048	 38.69288307	 26.47407789
No	 34.61994801	 36.65641554	 26.47407789
No	 34.61994801	 38.69288307	 24.43761036
No	 32.58348048	 36.65641554	 28.51054542
No	 32.58348048	 38.69288307	 30.54701295
No	 34.61994801	 36.65641554	 30.54701295
No	 34.61994801	 38.69288307	 28.51054542
No	 32.58348048	 36.65641554	 32.58348048
No	 32.58348048	 38.69288307	 34.61994801
No	 34.61994801	 36.65641554	 34.61994801
No	 34.61994801	 38.69288307	 32.58348048
No	 32.58348048	 36.65641554	 36.65641554
No	 32.58348048	 38.69288307	 38.69288307
No	 34.61994801	 36.65641554	 38.69288307
No	 34.61994801	 38.69288307	 36.65641554
Co	 36.65641554	 -40.72935060	 -40.72935060
No	 36.65641554	 -38.69288307	 -38.69288307
Co	 38.69288307	 -40.72935060	 -38.69288307
Co	 38.69288307	 -38.69288307	 -40.72935060
Co	 36.65641554	 -40.72935060	 -36.65641554
No	 36.65641554	 -38.69288307	 -34.61994801
Co	 38.69288307	 -40.72935060	 -34.61994801
No	 38.69288307	 -38.69288307	 -36.65641554
Co	 36.65641554	 -40.72935060	 -32.58348048
No	 36.65641554	 -38.69288307	 -30.54701295
Co	 38.69288307	 -40.72935060	 -30.54701295
No	 38.69288307	 -38.69288307	 -32.58348048
Co	 36.65641554	 -40.72935060	 -28.51054542
No	 36.65641554	 -38.69288307	 -26.47407789
Co	 38.69288307	 -40.72935060	 -26.47407789
No	 38.69288307	 -38.69288307	 -28.51054542
Co	 36.65641554	 -40.72935060	 -24.43761036
No	 36.65641554	 -38.69288307	 -22.40114283
Co	 38.69288307	 -40.72935060	 -22.40114283
No	 38.69288307	 -38.69288307	 -24.43761036
Co	 36.65641554	 -40.72935060	 -20.36467530
No	 36.65641554	 -38.69288307	 -18.32820777
Co	 38.69288307	 -40.72935060	 -18.32820777
No	 38.69288307	 -38.69288307	 -20.36467530
Co	 36.65641554	 -40.72935060	 -16.29174024
No	 36.65641554	 -38.69288307	 -14.25527271
Co	 38.69288307	 -40.72935060	 -14.25527271
No	 38.69288307	 -38.69288307	 -16.29174024
Co	 36.65641554	 -40.72935060	 -12.21880518
No	 36.65641554	 -38.69288307	 -10.18233765
Co	 38.69288307	 -40.72935060	 -10.18233765
No	 38.69288307	 -38.69288307	 -12.21880518
Co	 36.65641554	 -40.72935060	 -8.14587012
No	 36.65641554	 -38.69288307	 -6.10940259
Co	 38.69288307	 -40.72935060	 -6.10940259
No	 38.69288307	 -38.69288307	 -8.14587012
Co	 36.65641554	 -40.72935060	 -4.07293506
No	 36.65641554	 -38.69288307	 -2.03646753
Co	 38.69288307	 -40.72935060	 -2.03646753
No	 38.69288307	 -38.69288307	 -4.07293506
Co	 36.65641554	 -40.72935060	 -0.00000000
No	 36.65641554	 -38.69288307	 2.03646753
Co	 38.69288307	 -40.72935060	 2.03646753
No	 38.69288307	 -38.69288307	 -0.00000000
Co	 36.65641554	 -40.72935060	 4.07293506
No	 36.65641554	 -38.69288307	 6.10940259
Co	 38.69288307	 -40.72935060	 6.10940259
No	 38.69288307	 -38.69288307	 4.07293506
Co	 36.65641554	 -40.72935060	 8.14587012
No	 36.65641554	 -38.69288307	 10.18233765
Co	 38.69288307	 -40.72935060	 10.18233765
No	 38.69288307	 -38.69288307	 8.14587012
Co	 36.65641554	 -40.72935060	 12.21880518
No	 36.65641554	 -38.69288307	 14.25527271
Co	 38.69288307	 -40.72935060	 14.25527271
No	 38.69288307	 -38.69288307	 12.21880518
Co	 36.65641554	 -40.72935060	 16.29174024
No	 36.65641554	 -38.69288307	 18.32820777
Co	 38.69288307	 -40.72935060	 18.32820777
No	 38.69288307	 -38.69288307	 16.29174024
Co	 36.65641554	 -40.72935060	 20.36467530
No	 36.65641554	 -38.69288307	 22.40114283
Co	 38.69288307	 -40.72935060	 22.40114283
No	 38.69288307	 -38.69288307	 20.36467530
Co	 36.65641554	 -40.72935060	 24.43761036
No	 36.65641554	 -38.69288307	 26.47407789
Co	 38.69288307	 -40.72935060	 26.47407789
No	 38.69288307	 -38.69288307	 24.43761036
Co	 36.65641554	 -40.72935060	 28.51054542
No	 36.65641554	 -38.69288307	 30.54701295
Co	 38.69288307	 -40.72935060	 30.54701295
No	 38.69288307	 -38.69288307	 28.51054542
Co	 36.65641554	 -40.72935060	 32.58348048
No	 36.65641554	 -38.69288307	 34.61994801
Co	 38.69288307	 -40.72935060	 34.61994801
No	 38.69288307	 -38.69288307	 32.58348048
Co	 36.65641554	 -40.72935060	 36.65641554
No	 36.65641554	 -38.69288307	 38.69288307
Co	 38.69288307	 -40.72935060	 38.69288307
No	 38.69288307	 -38.69288307	 36.65641554
Co	 36.65641554	 -36.65641554	 -40.72935060
No	 36.65641554	 -34.61994801	 -38.69288307
No	 38.69288307	 -36.65641554	 -38.69288307
Co	 38.69288307	 -34.61994801	 -40.72935060
No	 36.65641554	 -36.65641554	 -36.65641554
No	 36.65641554	 -34.61994801	 -34.61994801
No	 38.69288307	 -36.65641554	 -34.61994801
No	 38.69288307	 -34.61994801	 -36.65641554
No	 36.65641554	 -36.65641554	 -32.58348048
No	 36.65641554	 -34.61994801	 -30.54701295
No	 38.69288307	 -36.65641554	 -30.54701295
No	 38.69288307	 -34.61994801	 -32.58348048
No	 36.65641554	 -36.65641554	 -28.51054542
No	 36.65641554	 -34.61994801	 -26.47407789
No	 38.69288307	 -36.65641554	 -26.47407789
No	 38.69288307	 -34.61994801	 -28.51054542
No	 36.65641554	 -36.65641554	 -24.43761036
No	 36.65641554	 -34.61994801	 -22.40114283
No	 38.69288307	 -36.65641554	 -22.40114283
No	 38.69288307	 -34.61994801	 -24.43761036
No	 36.65641554	 -36.65641554	 -20.36467530
No	 36.65641554	 -34.61994801	 -18.32820777
No	 38.69288307	 -36.65641554	 -18.32820777
No	 38.69288307	 -34.61994801	 -20.36467530
No	 36.65641554	 -36.65641554	 -16.29174024
No	 36.65641554	 -34.61994801	 -14.25527271
No	 38.69288307	 -36.65641554	 -14.25527271
No	 38.69288307	 -34.61994801	 -16.29174024
No	 36.65641554	 -36.65641554	 -12.21880518
No	 36.65641554	 -34.61994801	 -10.18233765
No	 38.69288307	 -36.65641554	 -10.18233765
No	 38.69288307	 -34.61994801	 -12.21880518
No	 36.65641554	 -36.65641554	 -8.14587012
No	 36.65641554	 -34.61994801	 -6.10940259
No	 38.69288307	 -36.65641554	 -6.10940259
No	 38.69288307	 -34.61994801	 -8.14587012
No	 36.65641554	 -36.65641554	 -4.07293506
No	 36.65641554	 -34.61994801	 -2.03646753
No	 38.69288307	 -36.65641554	 -2.03646753
No	 38.69288307	 -34.61994801	 -4.07293506
No	 36.65641554	 -36.65641554	 -0.00000000
No	 36.65641554	 -34.61994801	 2.03646753
No	 38.69288307	 -36.65641554	 2.03646753
No	 36.65641554	 -36.65641554	 4.07293506
No	 36.65641554	 -34.61994801	 6.10940259
No	 38.69288307	 -36.65641554	 6.10940259
No	 38.69288307	 -34.61994801	 4.07293506
No	 36.65641554	 -36.65641554	 8.14587012
No	 36.65641554	 -34.61994801	 10.18233765
No	 38.69288307	 -36.65641554	 10.18233765
No	 38.69288307	 -34.61994801	 8.14587012
No	 36.65641554	 -36.65641554	 12.21880518
No	 36.65641554	 -34.61994801	 14.25527271
No	 38.69288307	 -36.65641554	 14.25527271
No	 38.69288307	 -34.61994801	 12.21880518
No	 36.65641554	 -36.65641554	 16.29174024
No	 36.65641554	 -34.61994801	 18.32820777
No	 38.69288307	 -36.65641554	 18.32820777
No	 38.69288307	 -34.61994801	 16.29174024
No	 36.65641554	 -36.65641554	 20.36467530
No	 36.65641554	 -34.61994801	 22.40114283
No	 38.69288307	 -36.65641554	 22.40114283
No	 38.69288307	 -34.61994801	 20.36467530
No	 36.65641554	 -36.65641554	 24.43761036
No	 36.65641554	 -34.61994801	 26.47407789
No	 38.69288307	 -36.65641554	 26.47407789
No	 38.69288307	 -34.61994801	 24.43761036
No	 36.65641554	 -36.65641554	 28.51054542
No	 36.65641554	 -34.61994801	 30.54701295
No	 38.69288307	 -36.65641554	 30.54701295
No	 38.69288307	 -34.61994801	 28.51054542
No	 36.65641554	 -36.65641554	 32.58348048
No	 36.65641554	 -34.61994801	 34.61994801
No	 38.69288307	 -36.65641554	 34.61994801
No	 38.69288307	 -34.61994801	 32.58348048
No	 36.65641554	 -36.65641554	 36.65641554
No	 36.65641554	 -34.61994801	 38.69288307
No	 38.69288307	 -36.65641554	 38.69288307
No	 38.69288307	 -34.61994801	 36.65641554
Co	 36.65641554	 -32.58348048	 -40.72935060
No	 36.65641554	 -30.54701295	 -38.69288307
No	 38.69288307	 -32.58348048	 -38.69288307
Co	 38.69288307	 -30.54701295	 -40.72935060
No	 36.65641554	 -32.58348048	 -36.65641554
No	 36.65641554	 -30.54701295	 -34.61994801
No	 38.69288307	 -32.58348048	 -34.61994801
No	 38.69288307	 -30.54701295	 -36.65641554
No	 36.65641554	 -32.58348048	 -32.58348048
No	 36.65641554	 -30.54701295	 -30.54701295
No	 38.69288307	 -32.58348048	 -30.54701295
No	 38.69288307	 -30.54701295	 -32.58348048
No	 36.65641554	 -32.58348048	 -28.51054542
No	 36.65641554	 -30.54701295	 -26.47407789
No	 38.69288307	 -32.58348048	 -26.47407789
No	 38.69288307	 -30.54701295	 -28.51054542
No	 36.65641554	 -32.58348048	 -24.43761036
No	 36.65641554	 -30.54701295	 -22.40114283
No	 38.69288307	 -32.58348048	 -22.40114283
No	 38.69288307	 -30.54701295	 -24.43761036
No	 36.65641554	 -32.58348048	 -20.36467530
No	 36.65641554	 -30.54701295	 -18.32820777
No	 38.69288307	 -32.58348048	 -18.32820777
No	 38.69288307	 -30.54701295	 -20.36467530
No	 36.65641554	 -32.58348048	 -16.29174024
No	 36.65641554	 -30.54701295	 -14.25527271
No	 38.69288307	 -32.58348048	 -14.25527271
No	 38.69288307	 -30.54701295	 -16.29174024
No	 36.65641554	 -32.58348048	 -12.21880518
No	 36.65641554	 -30.54701295	 -10.18233765
No	 38.69288307	 -32.58348048	 -10.18233765
No	 38.69288307	 -30.54701295	 -12.21880518
No	 36.65641554	 -32.58348048	 -8.14587012
No	 36.65641554	 -30.54701295	 -6.10940259
No	 38.69288307	 -32.58348048	 -6.10940259
No	 38.69288307	 -30.54701295	 -8.14587012
No	 36.65641554	 -32.58348048	 -4.07293506
No	 36.65641554	 -32.58348048	 4.07293506
No	 36.65641554	 -30.54701295	 6.10940259
No	 38.69288307	 -32.58348048	 6.10940259
No	 36.65641554	 -32.58348048	 8.14587012
No	 36.65641554	 -30.54701295	 10.18233765
No	 38.69288307	 -32.58348048	 10.18233765
No	 38.69288307	 -30.54701295	 8.14587012
No	 36.65641554	 -32.58348048	 12.21880518
No	 36.65641554	 -30.54701295	 14.25527271
No	 38.69288307	 -32.58348048	 14.25527271
No	 38.69288307	 -30.54701295	 12.21880518
No	 36.65641554	 -32.58348048	 16.29174024
No	 36.65641554	 -30.54701295	 18.32820777
No	 38.69288307	 -32.58348048	 18.32820777
No	 38.69288307	 -30.54701295	 16.29174024
No	 36.65641554	 -32.58348048	 20.36467530
No	 36.65641554	 -30.54701295	 22.40114283
No	 38.69288307	 -32.58348048	 22.40114283
No	 38.69288307	 -30.54701295	 20.36467530
No	 36.65641554	 -32.58348048	 24.43761036
No	 36.65641554	 -30.54701295	 26.47407789
No	 38.69288307	 -32.58348048	 26.47407789
No	 38.69288307	 -30.54701295	 24.43761036
No	 36.65641554	 -32.58348048	 28.51054542
No	 36.65641554	 -30.54701295	 30.54701295
No	 38.69288307	 -32.58348048	 30.54701295
No	 38.69288307	 -30.54701295	 28.51054542
No	 36.65641554	 -32.58348048	 32.58348048
No	 36.65641554	 -30.54701295	 34.61994801
No	 38.69288307	 -32.58348048	 34.61994801
No	 38.69288307	 -30.54701295	 32.58348048
No	 36.65641554	 -32.58348048	 36.65641554
No	 36.65641554	 -30.54701295	 38.69288307
No	 38.69288307	 -32.58348048	 38.69288307
No	 38.69288307	 -30.54701295	 36.65641554
Co	 36.65641554	 -28.51054542	 -40.72935060
No	 36.65641554	 -26.47407789	 -38.69288307
No	 38.69288307	 -28.51054542	 -38.69288307
Co	 38.69288307	 -26.47407789	 -40.72935060
No	 36.65641554	 -28.51054542	 -36.65641554
No	 36.65641554	 -26.47407789	 -34.61994801
No	 38.69288307	 -28.51054542	 -34.61994801
No	 38.69288307	 -26.47407789	 -36.65641554
No	 36.65641554	 -28.51054542	 -32.58348048
No	 36.65641554	 -26.47407789	 -30.54701295
No	 38.69288307	 -28.51054542	 -30.54701295
No	 38.69288307	 -26.47407789	 -32.58348048
No	 36.65641554	 -28.51054542	 -28.51054542
No	 36.65641554	 -26.47407789	 -26.47407789
No	 38.69288307	 -28.51054542	 -26.47407789
No	 38.69288307	 -26.47407789	 -28.51054542
No	 36.65641554	 -28.51054542	 -24.43761036
No	 36.65641554	 -26.47407789	 -22.40114283
No	 38.69288307	 -28.51054542	 -22.40114283
No	 38.69288307	 -26.47407789	 -24.43761036
No	 36.65641554	 -28.51054542	 -20.36467530
No	 36.65641554	 -26.47407789	 -18.32820777
No	 38.69288307	 -28.51054542	 -18.32820777
No	 38.69288307	 -26.47407789	 -20.36467530
No	 36.65641554	 -28.51054542	 -16.29174024
No	 36.65641554	 -26.47407789	 -14.25527271
No	 38.69288307	 -28.51054542	 -14.25527271
No	 38.69288307	 -26.47407789	 -16.29174024
No	 36.65641554	 -28.51054542	 -12.21880518
No	 36.65641554	 -26.47407789	 -10.18233765
No	 38.69288307	 -28.51054542	 -10.18233765
No	 38.69288307	 -26.47407789	 -12.21880518
No	 36.65641554	 -28.51054542	 -8.14587012
No	 36.65641554	 -28.51054542	 8.14587012
No	 36.65641554	 -26.47407789	 10.18233765
No	 38.69288307	 -28.51054542	 10.18233765
No	 36.65641554	 -28.51054542	 12.21880518
No	 36.65641554	 -26.47407789	 14.25527271
No	 38.69288307	 -28.51054542	 14.25527271
No	 38.69288307	 -26.47407789	 12.21880518
No	 36.65641554	 -28.51054542	 16.29174024
No	 36.65641554	 -26.47407789	 18.32820777
No	 38.69288307	 -28.51054542	 18.32820777
No	 38.69288307	 -26.47407789	 16.29174024
No	 36.65641554	 -28.51054542	 20.36467530
No	 36.65641554	 -26.47407789	 22.40114283
No	 38.69288307	 -28.51054542	 22.40114283
No	 38.69288307	 -26.47407789	 20.36467530
No	 36.65641554	 -28.51054542	 24.43761036
No	 36.65641554	 -26.47407789	 26.47407789
No	 38.69288307	 -28.51054542	 26.47407789
No	 38.69288307	 -26.47407789	 24.43761036
No	 36.65641554	 -28.51054542	 28.51054542
No	 36.65641554	 -26.47407789	 30.54701295
No	 38.69288307	 -28.51054542	 30.54701295
No	 38.69288307	 -26.47407789	 28.51054542
No	 36.65641554	 -28.51054542	 32.58348048
No	 36.65641554	 -26.47407789	 34.61994801
No	 38.69288307	 -28.51054542	 34.61994801
No	 38.69288307	 -26.47407789	 32.58348048
No	 36.65641554	 -28.51054542	 36.65641554
No	 36.65641554	 -26.47407789	 38.69288307
No	 38.69288307	 -28.51054542	 38.69288307
No	 38.69288307	 -26.47407789	 36.65641554
Co	 36.65641554	 -24.43761036	 -40.72935060
No	 36.65641554	 -22.40114283	 -38.69288307
No	 38.69288307	 -24.43761036	 -38.69288307
Co	 38.69288307	 -22.40114283	 -40.72935060
No	 36.65641554	 -24.43761036	 -36.65641554
No	 36.65641554	 -22.40114283	 -34.61994801
No	 38.69288307	 -24.43761036	 -34.61994801
No	 38.69288307	 -22.40114283	 -36.65641554
No	 36.65641554	 -24.43761036	 -32.58348048
No	 36.65641554	 -22.40114283	 -30.54701295
No	 38.69288307	 -24.43761036	 -30.54701295
No	 38.69288307	 -22.40114283	 -32.58348048
No	 36.65641554	 -24.43761036	 -28.51054542
No	 36.65641554	 -22.40114283	 -26.47407789
No	 38.69288307	 -24.43761036	 -26.47407789
No	 38.69288307	 -22.40114283	 -28.51054542
No	 36.65641554	 -24.43761036	 -24.43761036
No	 36.65641554	 -22.40114283	 -22.40114283
No	 38.69288307	 -24.43761036	 -22.40114283
No	 38.69288307	 -22.40114283	 -24.43761036
No	 36.65641554	 -24.43761036	 -20.36467530
No	 36.65641554	 -22.40114283	 -18.32820777
No	 38.69288307	 -24.43761036	 -18.32820777
No	 38.69288307	 -22.40114283	 -20.36467530
No	 36.65641554	 -24.43761036	 -16.29174024
No	 36.65641554	 -22.40114283	 -14.25527271
No	 38.69288307	 -24.43761036	 -14.25527271
No	 38.69288307	 -22.40114283	 -16.29174024
No	 36.65641554	 -24.43761036	 -12.21880518
No	 36.65641554	 -24.43761036	 12.21880518
No	 36.65641554	 -22.40114283	 14.25527271
No	 38.69288307	 -24.43761036	 14.25527271
No	 36.65641554	 -24.43761036	 16.29174024
No	 36.65641554	 -22.40114283	 18.32820777
No	 38.69288307	 -24.43761036	 18.32820777
No	 38.69288307	 -22.40114283	 16.29174024
No	 36.65641554	 -24.43761036	 20.36467530
No	 36.65641554	 -22.40114283	 22.40114283
No	 38.69288307	 -24.43761036	 22.40114283
No	 38.69288307	 -22.40114283	 20.36467530
No	 36.65641554	 -24.43761036	 24.43761036
No	 36.65641554	 -22.40114283	 26.47407789
No	 38.69288307	 -24.43761036	 26.47407789
No	 38.69288307	 -22.40114283	 24.43761036
No	 36.65641554	 -24.43761036	 28.51054542
No	 36.65641554	 -22.40114283	 30.54701295
No	 38.69288307	 -24.43761036	 30.54701295
No	 38.69288307	 -22.40114283	 28.51054542
No	 36.65641554	 -24.43761036	 32.58348048
No	 36.65641554	 -22.40114283	 34.61994801
No	 38.69288307	 -24.43761036	 34.61994801
No	 38.69288307	 -22.40114283	 32.58348048
No	 36.65641554	 -24.43761036	 36.65641554
No	 36.65641554	 -22.40114283	 38.69288307
No	 38.69288307	 -24.43761036	 38.69288307
No	 38.69288307	 -22.40114283	 36.65641554
Co	 36.65641554	 -20.36467530	 -40.72935060
No	 36.65641554	 -18.32820777	 -38.69288307
No	 38.69288307	 -20.36467530	 -38.69288307
Co	 38.69288307	 -18.32820777	 -40.72935060
No	 36.65641554	 -20.36467530	 -36.65641554
No	 36.65641554	 -18.32820777	 -34.61994801
No	 38.69288307	 -20.36467530	 -34.61994801
No	 38.69288307	 -18.32820777	 -36.65641554
No	 36.65641554	 -20.36467530	 -32.58348048
No	 36.65641554	 -18.32820777	 -30.54701295
No	 38.69288307	 -20.36467530	 -30.54701295
No	 38.69288307	 -18.32820777	 -32.58348048
No	 36.65641554	 -20.36467530	 -28.51054542
No	 36.65641554	 -18.32820777	 -26.47407789
No	 38.69288307	 -20.36467530	 -26.47407789
No	 38.69288307	 -18.32820777	 -28.51054542
No	 36.65641554	 -20.36467530	 -24.43761036
No	 36.65641554	 -18.32820777	 -22.40114283
No	 38.69288307	 -20.36467530	 -22.40114283
No	 38.69288307	 -18.32820777	 -24.43761036
No	 36.65641554	 -20.36467530	 -20.36467530
No	 36.65641554	 -18.32820777	 -18.32820777
No	 38.69288307	 -20.36467530	 -18.32820777
No	 38.69288307	 -18.32820777	 -20.36467530
No	 36.65641554	 -20.36467530	 -16.29174024
No	 36.65641554	 -20.36467530	 16.29174024
No	 36.65641554	 -18.32820777	 18.32820777
No	 38.69288307	 -20.36467530	 18.32820777
No	 36.65641554	 -20.36467530	 20.36467530
No	 36.65641554	 -18.32820777	 22.40114283
No	 38.69288307	 -20.36467530	 22.40114283
No	 38.69288307	 -18.32820777	 20.36467530
No	 36.65641554	 -20.36467530	 24.43761036
No	 36.65641554	 -18.32820777	 26.47407789
No	 38.69288307	 -20.36467530	 26.47407789
No	 38.69288307	 -18.32820777	 24.43761036
No	 36.65641554	 -20.36467530	 28.51054542
No	 36.65641554	 -18.32820777	 30.54701295
No	 38.69288307	 -20.36467530	 30.54701295
No	 38.69288307	 -18.32820777	 28.51054542
No	 36.65641554	 -20.36467530	 32.58348048
No	 36.65641554	 -18.32820777	 34.61994801
No	 38.69288307	 -20.36467530	 34.61994801
No	 38.69288307	 -18.32820777	 32.58348048
No	 36.65641554	 -20.36467530	 36.65641554
No	 36.65641554	 -18.32820777	 38.69288307
No	 38.69288307	 -20.36467530	 38.69288307
No	 38.69288307	 -18.32820777	 36.65641554
Co	 36.65641554	 -16.29174024	 -40.72935060
No	 36.65641554	 -14.25527271	 -38.69288307
No	 38.69288307	 -16.29174024	 -38.69288307
Co	 38.69288307	 -14.25527271	 -40.72935060
No	 36.65641554	 -16.29174024	 -36.65641554
No	 36.65641554	 -14.25527271	 -34.61994801
No	 38.69288307	 -16.29174024	 -34.61994801
No	 38.69288307	 -14.25527271	 -36.65641554
No	 36.65641554	 -16.29174024	 -32.58348048
No	 36.65641554	 -14.25527271	 -30.54701295
No	 38.69288307	 -16.29174024	 -30.54701295
No	 38.69288307	 -14.25527271	 -32.58348048
No	 36.65641554	 -16.29174024	 -28.51054542
No	 36.65641554	 -14.25527271	 -26.47407789
No	 38.69288307	 -16.29174024	 -26.47407789
No	 38.69288307	 -14.25527271	 -28.51054542
No	 36.65641554	 -16.29174024	 -24.43761036
No	 36.65641554	 -14.25527271	 -22.40114283
No	 38.69288307	 -16.29174024	 -22.40114283
No	 38.69288307	 -14.25527271	 -24.43761036
No	 36.65641554	 -16.29174024	 -20.36467530
No	 36.65641554	 -16.29174024	 20.36467530
No	 36.65641554	 -14.25527271	 22.40114283
No	 38.69288307	 -16.29174024	 22.40114283
No	 36.65641554	 -16.29174024	 24.43761036
No	 36.65641554	 -14.25527271	 26.47407789
No	 38.69288307	 -16.29174024	 26.47407789
No	 38.69288307	 -14.25527271	 24.43761036
No	 36.65641554	 -16.29174024	 28.51054542
No	 36.65641554	 -14.25527271	 30.54701295
No	 38.69288307	 -16.29174024	 30.54701295
No	 38.69288307	 -14.25527271	 28.51054542
No	 36.65641554	 -16.29174024	 32.58348048
No	 36.65641554	 -14.25527271	 34.61994801
No	 38.69288307	 -16.29174024	 34.61994801
No	 38.69288307	 -14.25527271	 32.58348048
No	 36.65641554	 -16.29174024	 36.65641554
No	 36.65641554	 -14.25527271	 38.69288307
No	 38.69288307	 -16.29174024	 38.69288307
No	 38.69288307	 -14.25527271	 36.65641554
Co	 36.65641554	 -12.21880518	 -40.72935060
No	 36.65641554	 -10.18233765	 -38.69288307
No	 38.69288307	 -12.21880518	 -38.69288307
Co	 38.69288307	 -10.18233765	 -40.72935060
No	 36.65641554	 -12.21880518	 -36.65641554
No	 36.65641554	 -10.18233765	 -34.61994801
No	 38.69288307	 -12.21880518	 -34.61994801
No	 38.69288307	 -10.18233765	 -36.65641554
No	 36.65641554	 -12.21880518	 -32.58348048
No	 36.65641554	 -10.18233765	 -30.54701295
No	 38.69288307	 -12.21880518	 -30.54701295
No	 38.69288307	 -10.18233765	 -32.58348048
No	 36.65641554	 -12.21880518	 -28.51054542
No	 36.65641554	 -10.18233765	 -26.47407789
No	 38.69288307	 -12.21880518	 -26.47407789
No	 38.69288307	 -10.18233765	 -28.51054542
No	 36.65641554	 -12.21880518	 -24.43761036
No	 36.65641554	 -12.21880518	 24.43761036
No	 36.65641554	 -10.18233765	 26.47407789
No	 38.69288307	 -12.21880518	 26.47407789
No	 36.65641554	 -12.21880518	 28.51054542
No	 36.65641554	 -10.18233765	 30.54701295
No	 38.69288307	 -12.21880518	 30.54701295
No	 38.69288307	 -10.18233765	 28.51054542
No	 36.65641554	 -12.21880518	 32.58348048
No	 36.65641554	 -10.18233765	 34.61994801
No	 38.69288307	 -12.21880518	 34.61994801
No	 38.69288307	 -10.18233765	 32.58348048
No	 36.65641554	 -12.21880518	 36.65641554
No	 36.65641554	 -10.18233765	 38.69288307
No	 38.69288307	 -12.21880518	 38.69288307
No	 38.69288307	 -10.18233765	 36.65641554
Co	 36.65641554	 -8.14587012	 -40.72935060
No	 36.65641554	 -6.10940259	 -38.69288307
No	 38.69288307	 -8.14587012	 -38.69288307
Co	 38.69288307	 -6.10940259	 -40.72935060
No	 36.65641554	 -8.14587012	 -36.65641554
No	 36.65641554	 -6.10940259	 -34.61994801
No	 38.69288307	 -8.14587012	 -34.61994801
No	 38.69288307	 -6.10940259	 -36.65641554
No	 36.65641554	 -8.14587012	 -32.58348048
No	 36.65641554	 -6.10940259	 -30.54701295
No	 38.69288307	 -8.14587012	 -30.54701295
No	 38.69288307	 -6.10940259	 -32.58348048
No	 36.65641554	 -8.14587012	 -28.51054542
No	 36.65641554	 -8.14587012	 28.51054542
No	 36.65641554	 -6.10940259	 30.54701295
No	 38.69288307	 -8.14587012	 30.54701295
No	 36.65641554	 -8.14587012	 32.58348048
No	 36.65641554	 -6.10940259	 34.61994801
No	 38.69288307	 -8.14587012	 34.61994801
No	 38.69288307	 -6.10940259	 32.58348048
No	 36.65641554	 -8.14587012	 36.65641554
No	 36.65641554	 -6.10940259	 38.69288307
No	 38.69288307	 -8.14587012	 38.69288307
No	 38.69288307	 -6.10940259	 36.65641554
Co	 36.65641554	 -4.07293506	 -40.72935060
No	 36.65641554	 -2.03646753	 -38.69288307
No	 38.69288307	 -4.07293506	 -38.69288307
Co	 38.69288307	 -2.03646753	 -40.72935060
No	 36.65641554	 -4.07293506	 -36.65641554
No	 36.65641554	 -2.03646753	 -34.61994801
No	 38.69288307	 -4.07293506	 -34.61994801
No	 38.69288307	 -2.03646753	 -36.65641554
No	 36.65641554	 -4.07293506	 -32.58348048
No	 36.65641554	 -4.07293506	 32.58348048
No	 36.65641554	 -2.03646753	 34.61994801
No	 38.69288307	 -4.07293506	 34.61994801
No	 36.65641554	 -4.07293506	 36.65641554
No	 36.65641554	 -2.03646753	 38.69288307
No	 38.69288307	 -4.07293506	 38.69288307
No	 38.69288307	 -2.03646753	 36.65641554
Co	 36.65641554	 -0.00000000	 -40.72935060
No	 36.65641554	 2.03646753	 -38.69288307
No	 38.69288307	 -0.00000000	 -38.69288307
Co	 38.69288307	 2.03646753	 -40.72935060
No	 36.65641554	 -0.00000000	 -36.65641554
No	 36.65641554	 2.03646753	 -34.61994801
No	 38.69288307	 2.03646753	 -36.65641554
No	 36.65641554	 2.03646753	 34.61994801
No	 36.65641554	 -0.00000000	 36.65641554
No	 36.65641554	 2.03646753	 38.69288307
No	 38.69288307	 -0.00000000	 38.69288307
No	 38.69288307	 2.03646753	 36.65641554
Co	 36.65641554	 4.07293506	 -40.72935060
No	 36.65641554	 6.10940259	 -38.69288307
No	 38.69288307	 4.07293506	 -38.69288307
Co	 38.69288307	 6.10940259	 -40.72935060
No	 36.65641554	 4.07293506	 -36.65641554
No	 36.65641554	 6.10940259	 -34.61994801
No	 38.69288307	 4.07293506	 -34.61994801
No	 38.69288307	 6.10940259	 -36.65641554
No	 36.65641554	 4.07293506	 -32.58348048
No	 36.65641554	 6.10940259	 -30.54701295
No	 38.69288307	 6.10940259	 -32.58348048
No	 36.65641554	 6.10940259	 30.54701295
No	 36.65641554	 4.07293506	 32.58348048
No	 36.65641554	 6.10940259	 34.61994801
No	 38.69288307	 4.07293506	 34.61994801
No	 38.69288307	 6.10940259	 32.58348048
No	 36.65641554	 4.07293506	 36.65641554
No	 36.65641554	 6.10940259	 38.69288307
No	 38.69288307	 4.07293506	 38.69288307
No	 38.69288307	 6.10940259	 36.65641554
Co	 36.65641554	 8.14587012	 -40.72935060
No	 36.65641554	 10.18233765	 -38.69288307
No	 38.69288307	 8.14587012	 -38.69288307
Co	 38.69288307	 10.18233765	 -40.72935060
No	 36.65641554	 8.14587012	 -36.65641554
No	 36.65641554	 10.18233765	 -34.61994801
No	 38.69288307	 8.14587012	 -34.61994801
No	 38.69288307	 10.18233765	 -36.65641554
No	 36.65641554	 8.14587012	 -32.58348048
No	 36.65641554	 10.18233765	 -30.54701295
No	 38.69288307	 8.14587012	 -30.54701295
No	 38.69288307	 10.18233765	 -32.58348048
No	 36.65641554	 8.14587012	 -28.51054542
No	 36.65641554	 10.18233765	 -26.47407789
No	 38.69288307	 10.18233765	 -28.51054542
No	 36.65641554	 10.18233765	 26.47407789
No	 36.65641554	 8.14587012	 28.51054542
No	 36.65641554	 10.18233765	 30.54701295
No	 38.69288307	 8.14587012	 30.54701295
No	 38.69288307	 10.18233765	 28.51054542
No	 36.65641554	 8.14587012	 32.58348048
No	 36.65641554	 10.18233765	 34.61994801
No	 38.69288307	 8.14587012	 34.61994801
No	 38.69288307	 10.18233765	 32.58348048
No	 36.65641554	 8.14587012	 36.65641554
No	 36.65641554	 10.18233765	 38.69288307
No	 38.69288307	 8.14587012	 38.69288307
No	 38.69288307	 10.18233765	 36.65641554
Co	 36.65641554	 12.21880518	 -40.72935060
No	 36.65641554	 14.25527271	 -38.69288307
No	 38.69288307	 12.21880518	 -38.69288307
Co	 38.69288307	 14.25527271	 -40.72935060
No	 36.65641554	 12.21880518	 -36.65641554
No	 36.65641554	 14.25527271	 -34.61994801
No	 38.69288307	 12.21880518	 -34.61994801
No	 38.69288307	 14.25527271	 -36.65641554
No	 36.65641554	 12.21880518	 -32.58348048
No	 36.65641554	 14.25527271	 -30.54701295
No	 38.69288307	 12.21880518	 -30.54701295
No	 38.69288307	 14.25527271	 -32.58348048
No	 36.65641554	 12.21880518	 -28.51054542
No	 36.65641554	 14.25527271	 -26.47407789
No	 38.69288307	 12.21880518	 -26.47407789
No	 38.69288307	 14.25527271	 -28.51054542
No	 36.65641554	 12.21880518	 -24.43761036
No	 36.65641554	 14.25527271	 -22.40114283
No	 38.69288307	 14.25527271	 -24.43761036
No	 36.65641554	 14.25527271	 22.40114283
No	 36.65641554	 12.21880518	 24.43761036
No	 36.65641554	 14.25527271	 26.47407789
No	 38.69288307	 12.21880518	 26.47407789
No	 38.69288307	 14.25527271	 24.43761036
No	 36.65641554	 12.21880518	 28.51054542
No	 36.65641554	 14.25527271	 30.54701295
No	 38.69288307	 12.21880518	 30.54701295
No	 38.69288307	 14.25527271	 28.51054542
No	 36.65641554	 12.21880518	 32.58348048
No	 36.65641554	 14.25527271	 34.61994801
No	 38.69288307	 12.21880518	 34.61994801
No	 38.69288307	 14.25527271	 32.58348048
No	 36.65641554	 12.21880518	 36.65641554
No	 36.65641554	 14.25527271	 38.69288307
No	 38.69288307	 12.21880518	 38.69288307
No	 38.69288307	 14.25527271	 36.65641554
Co	 36.65641554	 16.29174024	 -40.72935060
No	 36.65641554	 18.32820777	 -38.69288307
No	 38.69288307	 16.29174024	 -38.69288307
Co	 38.69288307	 18.32820777	 -40.72935060
No	 36.65641554	 16.29174024	 -36.65641554
No	 36.65641554	 18.32820777	 -34.61994801
No	 38.69288307	 16.29174024	 -34.61994801
No	 38.69288307	 18.32820777	 -36.65641554
No	 36.65641554	 16.29174024	 -32.58348048
No	 36.65641554	 18.32820777	 -30.54701295
No	 38.69288307	 16.29174024	 -30.54701295
No	 38.69288307	 18.32820777	 -32.58348048
No	 36.65641554	 16.29174024	 -28.51054542
No	 36.65641554	 18.32820777	 -26.47407789
No	 38.69288307	 16.29174024	 -26.47407789
No	 38.69288307	 18.32820777	 -28.51054542
No	 36.65641554	 16.29174024	 -24.43761036
No	 36.65641554	 18.32820777	 -22.40114283
No	 38.69288307	 16.29174024	 -22.40114283
No	 38.69288307	 18.32820777	 -24.43761036
No	 36.65641554	 16.29174024	 -20.36467530
No	 36.65641554	 18.32820777	 -18.32820777
No	 38.69288307	 18.32820777	 -20.36467530
No	 36.65641554	 18.32820777	 18.32820777
No	 36.65641554	 16.29174024	 20.36467530
No	 36.65641554	 18.32820777	 22.40114283
No	 38.69288307	 16.29174024	 22.40114283
No	 38.69288307	 18.32820777	 20.36467530
No	 36.65641554	 16.29174024	 24.43761036
No	 36.65641554	 18.32820777	 26.47407789
No	 38.69288307	 16.29174024	 26.47407789
No	 38.69288307	 18.32820777	 24.43761036
No	 36.65641554	 16.29174024	 28.51054542
No	 36.65641554	 18.32820777	 30.54701295
No	 38.69288307	 16.29174024	 30.54701295
No	 38.69288307	 18.32820777	 28.51054542
No	 36.65641554	 16.29174024	 32.58348048
No	 36.65641554	 18.32820777	 34.61994801
No	 38.69288307	 16.29174024	 34.61994801
No	 38.69288307	 18.32820777	 32.58348048
No	 36.65641554	 16.29174024	 36.65641554
No	 36.65641554	 18.32820777	 38.69288307
No	 38.69288307	 16.29174024	 38.69288307
No	 38.69288307	 18.32820777	 36.65641554
Co	 36.65641554	 20.36467530	 -40.72935060
No	 36.65641554	 22.40114283	 -38.69288307
No	 38.69288307	 20.36467530	 -38.69288307
Co	 38.69288307	 22.40114283	 -40.72935060
No	 36.65641554	 20.36467530	 -36.65641554
No	 36.65641554	 22.40114283	 -34.61994801
No	 38.69288307	 20.36467530	 -34.61994801
No	 38.69288307	 22.40114283	 -36.65641554
No	 36.65641554	 20.36467530	 -32.58348048
No	 36.65641554	 22.40114283	 -30.54701295
No	 38.69288307	 20.36467530	 -30.54701295
No	 38.69288307	 22.40114283	 -32.58348048
No	 36.65641554	 20.36467530	 -28.51054542
No	 36.65641554	 22.40114283	 -26.47407789
No	 38.69288307	 20.36467530	 -26.47407789
No	 38.69288307	 22.40114283	 -28.51054542
No	 36.65641554	 20.36467530	 -24.43761036
No	 36.65641554	 22.40114283	 -22.40114283
No	 38.69288307	 20.36467530	 -22.40114283
No	 38.69288307	 22.40114283	 -24.43761036
No	 36.65641554	 20.36467530	 -20.36467530
No	 36.65641554	 22.40114283	 -18.32820777
No	 38.69288307	 20.36467530	 -18.32820777
No	 38.69288307	 22.40114283	 -20.36467530
No	 36.65641554	 20.36467530	 -16.29174024
No	 36.65641554	 22.40114283	 -14.25527271
No	 38.69288307	 22.40114283	 -16.29174024
No	 36.65641554	 22.40114283	 14.25527271
No	 36.65641554	 20.36467530	 16.29174024
No	 36.65641554	 22.40114283	 18.32820777
No	 38.69288307	 20.36467530	 18.32820777
No	 38.69288307	 22.40114283	 16.29174024
No	 36.65641554	 20.36467530	 20.36467530
No	 36.65641554	 22.40114283	 22.40114283
No	 38.69288307	 20.36467530	 22.40114283
No	 38.69288307	 22.40114283	 20.36467530
No	 36.65641554	 20.36467530	 24.43761036
No	 36.65641554	 22.40114283	 26.47407789
No	 38.69288307	 20.36467530	 26.47407789
No	 38.69288307	 22.40114283	 24.43761036
No	 36.65641554	 20.36467530	 28.51054542
No	 36.65641554	 22.40114283	 30.54701295
No	 38.69288307	 20.36467530	 30.54701295
No	 38.69288307	 22.40114283	 28.51054542
No	 36.65641554	 20.36467530	 32.58348048
No	 36.65641554	 22.40114283	 34.61994801
No	 38.69288307	 20.36467530	 34.61994801
No	 38.69288307	 22.40114283	 32.58348048
No	 36.65641554	 20.36467530	 36.65641554
No	 36.65641554	 22.40114283	 38.69288307
No	 38.69288307	 20.36467530	 38.69288307
No	 38.69288307	 22.40114283	 36.65641554
Co	 36.65641554	 24.43761036	 -40.72935060
No	 36.65641554	 26.47407789	 -38.69288307
No	 38.69288307	 24.43761036	 -38.69288307
Co	 38.69288307	 26.47407789	 -40.72935060
No	 36.65641554	 24.43761036	 -36.65641554
No	 36.65641554	 26.47407789	 -34.61994801
No	 38.69288307	 24.43761036	 -34.61994801
No	 38.69288307	 26.47407789	 -36.65641554
No	 36.65641554	 24.43761036	 -32.58348048
No	 36.65641554	 26.47407789	 -30.54701295
No	 38.69288307	 24.43761036	 -30.54701295
No	 38.69288307	 26.47407789	 -32.58348048
No	 36.65641554	 24.43761036	 -28.51054542
No	 36.65641554	 26.47407789	 -26.47407789
No	 38.69288307	 24.43761036	 -26.47407789
No	 38.69288307	 26.47407789	 -28.51054542
No	 36.65641554	 24.43761036	 -24.43761036
No	 36.65641554	 26.47407789	 -22.40114283
No	 38.69288307	 24.43761036	 -22.40114283
No	 38.69288307	 26.47407789	 -24.43761036
No	 36.65641554	 24.43761036	 -20.36467530
No	 36.65641554	 26.47407789	 -18.32820777
No	 38.69288307	 24.43761036	 -18.32820777
No	 38.69288307	 26.47407789	 -20.36467530
No	 36.65641554	 24.43761036	 -16.29174024
No	 36.65641554	 26.47407789	 -14.25527271
No	 38.69288307	 24.43761036	 -14.25527271
No	 38.69288307	 26.47407789	 -16.29174024
No	 36.65641554	 24.43761036	 -12.21880518
No	 36.65641554	 26.47407789	 -10.18233765
No	 38.69288307	 26.47407789	 -12.21880518
No	 36.65641554	 26.47407789	 10.18233765
No	 36.65641554	 24.43761036	 12.21880518
No	 36.65641554	 26.47407789	 14.25527271
No	 38.69288307	 24.43761036	 14.25527271
No	 38.69288307	 26.47407789	 12.21880518
No	 36.65641554	 24.43761036	 16.29174024
No	 36.65641554	 26.47407789	 18.32820777
No	 38.69288307	 24.43761036	 18.32820777
No	 38.69288307	 26.47407789	 16.29174024
No	 36.65641554	 24.43761036	 20.36467530
No	 36.65641554	 26.47407789	 22.40114283
No	 38.69288307	 24.43761036	 22.40114283
No	 38.69288307	 26.47407789	 20.36467530
No	 36.65641554	 24.43761036	 24.43761036
No	 36.65641554	 26.47407789	 26.47407789
No	 38.69288307	 24.43761036	 26.47407789
No	 38.69288307	 26.47407789	 24.43761036
No	 36.65641554	 24.43761036	 28.51054542
No	 36.65641554	 26.47407789	 30.54701295
No	 38.69288307	 24.43761036	 30.54701295
No	 38.69288307	 26.47407789	 28.51054542
No	 36.65641554	 24.43761036	 32.58348048
No	 36.65641554	 26.47407789	 34.61994801
No	 38.69288307	 24.43761036	 34.61994801
No	 38.69288307	 26.47407789	 32.58348048
No	 36.65641554	 24.43761036	 36.65641554
No	 36.65641554	 26.47407789	 38.69288307
No	 38.69288307	 24.43761036	 38.69288307
No	 38.69288307	 26.47407789	 36.65641554
Co	 36.65641554	 28.51054542	 -40.72935060
No	 36.65641554	 30.54701295	 -38.69288307
No	 38.69288307	 28.51054542	 -38.69288307
Co	 38.69288307	 30.54701295	 -40.72935060
No	 36.65641554	 28.51054542	 -36.65641554
No	 36.65641554	 30.54701295	 -34.61994801
No	 38.69288307	 28.51054542	 -34.61994801
No	 38.69288307	 30.54701295	 -36.65641554
No	 36.65641554	 28.51054542	 -32.58348048
No	 36.65641554	 30.54701295	 -30.54701295
No	 38.69288307	 28.51054542	 -30.54701295
No	 38.69288307	 30.54701295	 -32.58348048
No	 36.65641554	 28.51054542	 -28.51054542
No	 36.65641554	 30.54701295	 -26.47407789
No	 38.69288307	 28.51054542	 -26.47407789
No	 38.69288307	 30.54701295	 -28.51054542
No	 36.65641554	 28.51054542	 -24.43761036
No	 36.65641554	 30.54701295	 -22.40114283
No	 38.69288307	 28.51054542	 -22.40114283
No	 38.69288307	 30.54701295	 -24.43761036
No	 36.65641554	 28.51054542	 -20.36467530
No	 36.65641554	 30.54701295	 -18.32820777
No	 38.69288307	 28.51054542	 -18.32820777
No	 38.69288307	 30.54701295	 -20.36467530
No	 36.65641554	 28.51054542	 -16.29174024
No	 36.65641554	 30.54701295	 -14.25527271
No	 38.69288307	 28.51054542	 -14.25527271
No	 38.69288307	 30.54701295	 -16.29174024
No	 36.65641554	 28.51054542	 -12.21880518
No	 36.65641554	 30.54701295	 -10.18233765
No	 38.69288307	 28.51054542	 -10.18233765
No	 38.69288307	 30.54701295	 -12.21880518
No	 36.65641554	 28.51054542	 -8.14587012
No	 36.65641554	 30.54701295	 -6.10940259
No	 38.69288307	 30.54701295	 -8.14587012
No	 36.65641554	 30.54701295	 6.10940259
No	 36.65641554	 28.51054542	 8.14587012
No	 36.65641554	 30.54701295	 10.18233765
No	 38.69288307	 28.51054542	 10.18233765
No	 38.69288307	 30.54701295	 8.14587012
No	 36.65641554	 28.51054542	 12.21880518
No	 36.65641554	 30.54701295	 14.25527271
No	 38.69288307	 28.51054542	 14.25527271
No	 38.69288307	 30.54701295	 12.21880518
No	 36.65641554	 28.51054542	 16.29174024
No	 36.65641554	 30.54701295	 18.32820777
No	 38.69288307	 28.51054542	 18.32820777
No	 38.69288307	 30.54701295	 16.29174024
No	 36.65641554	 28.51054542	 20.36467530
No	 36.65641554	 30.54701295	 22.40114283
No	 38.69288307	 28.51054542	 22.40114283
No	 38.69288307	 30.54701295	 20.36467530
No	 36.65641554	 28.51054542	 24.43761036
No	 36.65641554	 30.54701295	 26.47407789
No	 38.69288307	 28.51054542	 26.47407789
No	 38.69288307	 30.54701295	 24.43761036
No	 36.65641554	 28.51054542	 28.51054542
No	 36.65641554	 30.54701295	 30.54701295
No	 38.69288307	 28.51054542	 30.54701295
No	 38.69288307	 30.54701295	 28.51054542
No	 36.65641554	 28.51054542	 32.58348048
No	 36.65641554	 30.54701295	 34.61994801
No	 38.69288307	 28.51054542	 34.61994801
No	 38.69288307	 30.54701295	 32.58348048
No	 36.65641554	 28.51054542	 36.65641554
No	 36.65641554	 30.54701295	 38.69288307
No	 38.69288307	 28.51054542	 38.69288307
No	 38.69288307	 30.54701295	 36.65641554
Co	 36.65641554	 32.58348048	 -40.72935060
No	 36.65641554	 34.61994801	 -38.69288307
No	 38.69288307	 32.58348048	 -38.69288307
Co	 38.69288307	 34.61994801	 -40.72935060
No	 36.65641554	 32.58348048	 -36.65641554
No	 36.65641554	 34.61994801	 -34.61994801
No	 38.69288307	 32.58348048	 -34.61994801
No	 38.69288307	 34.61994801	 -36.65641554
No	 36.65641554	 32.58348048	 -32.58348048
No	 36.65641554	 34.61994801	 -30.54701295
No	 38.69288307	 32.58348048	 -30.54701295
No	 38.69288307	 34.61994801	 -32.58348048
No	 36.65641554	 32.58348048	 -28.51054542
No	 36.65641554	 34.61994801	 -26.47407789
No	 38.69288307	 32.58348048	 -26.47407789
No	 38.69288307	 34.61994801	 -28.51054542
No	 36.65641554	 32.58348048	 -24.43761036
No	 36.65641554	 34.61994801	 -22.40114283
No	 38.69288307	 32.58348048	 -22.40114283
No	 38.69288307	 34.61994801	 -24.43761036
No	 36.65641554	 32.58348048	 -20.36467530
No	 36.65641554	 34.61994801	 -18.32820777
No	 38.69288307	 32.58348048	 -18.32820777
No	 38.69288307	 34.61994801	 -20.36467530
No	 36.65641554	 32.58348048	 -16.29174024
No	 36.65641554	 34.61994801	 -14.25527271
No	 38.69288307	 32.58348048	 -14.25527271
No	 38.69288307	 34.61994801	 -16.29174024
No	 36.65641554	 32.58348048	 -12.21880518
No	 36.65641554	 34.61994801	 -10.18233765
No	 38.69288307	 32.58348048	 -10.18233765
No	 38.69288307	 34.61994801	 -12.21880518
No	 36.65641554	 32.58348048	 -8.14587012
No	 36.65641554	 34.61994801	 -6.10940259
No	 38.69288307	 32.58348048	 -6.10940259
No	 38.69288307	 34.61994801	 -8.14587012
No	 36.65641554	 32.58348048	 -4.07293506
No	 36.65641554	 34.61994801	 -2.03646753
No	 38.69288307	 34.61994801	 -4.07293506
No	 36.65641554	 34.61994801	 2.03646753
No	 36.65641554	 32.58348048	 4.07293506
No	 36.65641554	 34.61994801	 6.10940259
No	 38.69288307	 32.58348048	 6.10940259
No	 38.69288307	 34.61994801	 4.07293506
No	 36.65641554	 32.58348048	 8.14587012
No	 36.65641554	 34.61994801	 10.18233765
No	 38.69288307	 32.58348048	 10.18233765
No	 38.69288307	 34.61994801	 8.14587012
No	 36.65641554	 32.58348048	 12.21880518
No	 36.65641554	 34.61994801	 14.25527271
No	 38.69288307	 32.58348048	 14.25527271
No	 38.69288307	 34.61994801	 12.21880518
No	 36.65641554	 32.58348048	 16.29174024
No	 36.65641554	 34.61994801	 18.32820777
No	 38.69288307	 32.58348048	 18.32820777
No	 38.69288307	 34.61994801	 16.29174024
No	 36.65641554	 32.58348048	 20.36467530
No	 36.65641554	 34.61994801	 22.40114283
No	 38.69288307	 32.58348048	 22.40114283
No	 38.69288307	 34.61994801	 20.36467530
No	 36.65641554	 32.58348048	 24.43761036
No	 36.65641554	 34.61994801	 26.47407789
No	 38.69288307	 32.58348048	 26.47407789
No	 38.69288307	 34.61994801	 24.43761036
No	 36.65641554	 32.58348048	 28.51054542
No	 36.65641554	 34.61994801	 30.54701295
No	 38.69288307	 32.58348048	 30.54701295
No	 38.69288307	 34.61994801	 28.51054542
No	 36.65641554	 32.58348048	 32.58348048
No	 36.65641554	 34.61994801	 34.61994801
No	 38.69288307	 32.58348048	 34.61994801
No	 38.69288307	 34.61994801	 32.58348048
No	 36.65641554	 32.58348048	 36.65641554
No	 36.65641554	 34.61994801	 38.69288307
No	 38.69288307	 32.58348048	 38.69288307
No	 38.69288307	 34.61994801	 36.65641554
Co	 36.65641554	 36.65641554	 -40.72935060
No	 36.65641554	 38.69288307	 -38.69288307
No	 38.69288307	 36.65641554	 -38.69288307
Co	 38.69288307	 38.69288307	 -40.72935060
No	 36.65641554	 36.65641554	 -36.65641554
No	 36.65641554	 38.69288307	 -34.61994801
No	 38.69288307	 36.65641554	 -34.61994801
No	 38.69288307	 38.69288307	 -36.65641554
No	 36.65641554	 36.65641554	 -32.58348048
No	 36.65641554	 38.69288307	 -30.54701295
No	 38.69288307	 36.65641554	 -30.54701295
No	 38.69288307	 38.69288307	 -32.58348048
No	 36.65641554	 36.65641554	 -28.51054542
No	 36.65641554	 38.69288307	 -26.47407789
No	 38.69288307	 36.65641554	 -26.47407789
No	 38.69288307	 38.69288307	 -28.51054542
No	 36.65641554	 36.65641554	 -24.43761036
No	 36.65641554	 38.69288307	 -22.40114283
No	 38.69288307	 36.65641554	 -22.40114283
No	 38.69288307	 38.69288307	 -24.43761036
No	 36.65641554	 36.65641554	 -20.36467530
No	 36.65641554	 38.69288307	 -18.32820777
No	 38.69288307	 36.65641554	 -18.32820777
No	 38.69288307	 38.69288307	 -20.36467530
No	 36.65641554	 36.65641554	 -16.29174024
No	 36.65641554	 38.69288307	 -14.25527271
No	 38.69288307	 36.65641554	 -14.25527271
No	 38.69288307	 38.69288307	 -16.29174024
No	 36.65641554	 36.65641554	 -12.21880518
No	 36.65641554	 38.69288307	 -10.18233765
No	 38.69288307	 36.65641554	 -10.18233765
No	 38.69288307	 38.69288307	 -12.21880518
No	 36.65641554	 36.65641554	 -8.14587012
No	 36.65641554	 38.69288307	 -6.10940259
No	 38.69288307	 36.65641554	 -6.10940259
No	 38.69288307	 38.69288307	 -8.14587012
No	 36.65641554	 36.65641554	 -4.07293506
No	 36.65641554	 38.69288307	 -2.03646753
No	 38.69288307	 36.65641554	 -2.03646753
No	 38.69288307	 38.69288307	 -4.07293506
No	 36.65641554	 36.65641554	 -0.00000000
No	 36.65641554	 38.69288307	 2.03646753
No	 38.69288307	 36.65641554	 2.03646753
No	 38.69288307	 38.69288307	 -0.00000000
No	 36.65641554	 36.65641554	 4.07293506
No	 36.65641554	 38.69288307	 6.10940259
No	 38.69288307	 36.65641554	 6.10940259
No	 38.69288307	 38.69288307	 4.07293506
No	 36.65641554	 36.65641554	 8.14587012
No	 36.65641554	 38.69288307	 10.18233765
No	 38.69288307	 36.65641554	 10.18233765
No	 38.69288307	 38.69288307	 8.14587012
No	 36.65641554	 36.65641554	 12.21880518
No	 36.65641554	 38.69288307	 14.25527271
No	 38.69288307	 36.65641554	 14.25527271
No	 38.69288307	 38.69288307	 12.21880518
No	 36.65641554	 36.65641554	 16.29174024
No	 36.65641554	 38.69288307	 18.32820777
No	 38.69288307	 36.65641554	 18.32820777
No	 38.69288307	 38.69288307	 16.29174024
No	 36.65641554	 36.65641554	 20.36467530
No	 36.65641554	 38.69288307	 22.40114283
No	 38.69288307	 36.65641554	 22.40114283
No	 38.69288307	 38.69288307	 20.36467530
No	 36.65641554	 36.65641554	 24.43761036
No	 36.65641554	 38.69288307	 26.47407789
No	 38.69288307	 36.65641554	 26.47407789
No	 38.69288307	 38.69288307	 24.43761036
No	 36.65641554	 36.65641554	 28.51054542
No	 36.65641554	 38.69288307	 30.54701295
No	 38.69288307	 36.65641554	 30.54701295
No	 38.69288307	 38.69288307	 28.51054542
No	 36.65641554	 36.65641554	 32.58348048
No	 36.65641554	 38.69288307	 34.61994801
No	 38.69288307	 36.65641554	 34.61994801
No	 38.69288307	 38.69288307	 32.58348048
No	 36.65641554	 36.65641554	 36.65641554
No	 36.65641554	 38.69288307	 38.69288307
No	 38.69288307	 36.65641554	 38.69288307
No	 38.69288307	 38.69288307	 36.65641554
Co	 -40.72935060	 -40.72935060	 40.72935060
Co	 -38.69288307	 -38.69288307	 40.72935060
Co	 -40.72935060	 -36.65641554	 40.72935060
Co	 -38.69288307	 -34.61994801	 40.72935060
Co	 -40.72935060	 -32.58348048	 40.72935060
Co	 -38.69288307	 -30.54701295	 40.72935060
Co	 -40.72935060	 -28.51054542	 40.72935060
Co	 -38.69288307	 -26.47407789	 40.72935060
Co	 -40.72935060	 -24.43761036	 40.72935060
Co	 -38.69288307	 -22.40114283	 40.72935060
Co	 -40.72935060	 -20.36467530	 40.72935060
Co	 -38.69288307	 -18.32820777	 40.72935060
Co	 -40.72935060	 -16.29174024	 40.72935060
Co	 -38.69288307	 -14.25527271	 40.72935060
Co	 -40.72935060	 -12.21880518	 40.72935060
Co	 -38.69288307	 -10.18233765	 40.72935060
Co	 -40.72935060	 -8.14587012	 40.72935060
Co	 -38.69288307	 -6.10940259	 40.72935060
Co	 -40.72935060	 -4.07293506	 40.72935060
Co	 -38.69288307	 -2.03646753	 40.72935060
Co	 -40.72935060	 -0.00000000	 40.72935060
Co	 -38.69288307	 2.03646753	 40.72935060
Co	 -40.72935060	 4.07293506	 40.72935060
Co	 -38.69288307	 6.10940259	 40.72935060
Co	 -40.72935060	 8.14587012	 40.72935060
Co	 -38.69288307	 10.18233765	 40.72935060
Co	 -40.72935060	 12.21880518	 40.72935060
Co	 -38.69288307	 14.25527271	 40.72935060
Co	 -40.72935060	 16.29174024	 40.72935060
Co	 -38.69288307	 18.32820777	 40.72935060
Co	 -40.72935060	 20.36467530	 40.72935060
Co	 -38.69288307	 22.40114283	 40.72935060
Co	 -40.72935060	 24.43761036	 40.72935060
Co	 -38.69288307	 26.47407789	 40.72935060
Co	 -40.72935060	 28.51054542	 40.72935060
Co	 -38.69288307	 30.54701295	 40.72935060
Co	 -40.72935060	 32.58348048	 40.72935060
Co	 -38.69288307	 34.61994801	 40.72935060
Co	 -40.72935060	 36.65641554	 40.72935060
Co	 -38.69288307	 38.69288307	 40.72935060
Co	 -36.65641554	 -40.72935060	 40.72935060
Co	 -34.61994801	 -38.69288307	 40.72935060
Co	 -36.65641554	 -36.65641554	 40.72935060
Co	 -34.61994801	 -34.61994801	 40.72935060
Co	 -36.65641554	 -32.58348048	 40.72935060
Co	 -34.61994801	 -30.54701295	 40.72935060
Co	 -36.65641554	 -28.51054542	 40.72935060
Co	 -34.61994801	 -26.47407789	 40.72935060
Co	 -36.65641554	 -24.43761036	 40.72935060
Co	 -34.61994801	 -22.40114283	 40.72935060
Co	 -36.65641554	 -20.36467530	 40.72935060
Co	 -34.61994801	 -18.32820777	 40.72935060
Co	 -36.65641554	 -16.29174024	 40.72935060
Co	 -34.61994801	 -14.25527271	 40.72935060
Co	 -36.65641554	 -12.21880518	 40.72935060
Co	 -34.61994801	 -10.18233765	 40.72935060
Co	 -36.65641554	 -8.14587012	 40.72935060
Co	 -34.61994801	 -6.10940259	 40.72935060
Co	 -36.65641554	 -4.07293506	 40.72935060
Co	 -34.61994801	 -2.03646753	 40.72935060
Co	 -36.65641554	 -0.00000000	 40.72935060
Co	 -34.61994801	 2.03646753	 40.72935060
Co	 -36.65641554	 4.07293506	 40.72935060
Co	 -34.61994801	 6.10940259	 40.72935060
Co	 -36.65641554	 8.14587012	 40.72935060
Co	 -34.61994801	 10.18233765	 40.72935060
Co	 -36.65641554	 12.21880518	 40.72935060
Co	 -34.61994801	 14.25527271	 40.72935060
Co	 -36.65641554	 16.29174024	 40.72935060
Co	 -34.61994801	 18.32820777	 40.72935060
Co	 -36.65641554	 20.36467530	 40.72935060
Co	 -34.61994801	 22.40114283	 40.72935060
Co	 -36.65641554	 24.43761036	 40.72935060
Co	 -34.61994801	 26.47407789	 40.72935060
Co	 -36.65641554	 28.51054542	 40.72935060
Co	 -34.61994801	 30.54701295	 40.72935060
Co	 -36.65641554	 32.58348048	 40.72935060
Co	 -34.61994801	 34.61994801	 40.72935060
Co	 -36.65641554	 36.65641554	 40.72935060
Co	 -34.61994801	 38.69288307	 40.72935060
Co	 -32.58348048	 -40.72935060	 40.72935060
Co	 -30.54701295	 -38.69288307	 40.72935060
Co	 -32.58348048	 -36.65641554	 40.72935060
Co	 -30.54701295	 -34.61994801	 40.72935060
Co	 -32.58348048	 -32.58348048	 40.72935060
Co	 -30.54701295	 -30.54701295	 40.72935060
Co	 -32.58348048	 -28.51054542	 40.72935060
Co	 -30.54701295	 -26.47407789	 40.72935060
Co	 -32.58348048	 -24.43761036	 40.72935060
Co	 -30.54701295	 -22.40114283	 40.72935060
Co	 -32.58348048	 -20.36467530	 40.72935060
Co	 -30.54701295	 -18.32820777	 40.72935060
Co	 -32.58348048	 -16.29174024	 40.72935060
Co	 -30.54701295	 -14.25527271	 40.72935060
Co	 -32.58348048	 -12.21880518	 40.72935060
Co	 -30.54701295	 -10.18233765	 40.72935060
Co	 -32.58348048	 -8.14587012	 40.72935060
Co	 -30.54701295	 -6.10940259	 40.72935060
Co	 -32.58348048	 -4.07293506	 40.72935060
Co	 -32.58348048	 4.07293506	 40.72935060
Co	 -30.54701295	 6.10940259	 40.72935060
Co	 -32.58348048	 8.14587012	 40.72935060
Co	 -30.54701295	 10.18233765	 40.72935060
Co	 -32.58348048	 12.21880518	 40.72935060
Co	 -30.54701295	 14.25527271	 40.72935060
Co	 -32.58348048	 16.29174024	 40.72935060
Co	 -30.54701295	 18.32820777	 40.72935060
Co	 -32.58348048	 20.36467530	 40.72935060
Co	 -30.54701295	 22.40114283	 40.72935060
Co	 -32.58348048	 24.43761036	 40.72935060
Co	 -30.54701295	 26.47407789	 40.72935060
Co	 -32.58348048	 28.51054542	 40.72935060
Co	 -30.54701295	 30.54701295	 40.72935060
Co	 -32.58348048	 32.58348048	 40.72935060
Co	 -30.54701295	 34.61994801	 40.72935060
Co	 -32.58348048	 36.65641554	 40.72935060
Co	 -30.54701295	 38.69288307	 40.72935060
Co	 -28.51054542	 -40.72935060	 40.72935060
Co	 -26.47407789	 -38.69288307	 40.72935060
Co	 -28.51054542	 -36.65641554	 40.72935060
Co	 -26.47407789	 -34.61994801	 40.72935060
Co	 -28.51054542	 -32.58348048	 40.72935060
Co	 -26.47407789	 -30.54701295	 40.72935060
Co	 -28.51054542	 -28.51054542	 40.72935060
Co	 -26.47407789	 -26.47407789	 40.72935060
Co	 -28.51054542	 -24.43761036	 40.72935060
Co	 -26.47407789	 -22.40114283	 40.72935060
Co	 -28.51054542	 -20.36467530	 40.72935060
Co	 -26.47407789	 -18.32820777	 40.72935060
Co	 -28.51054542	 -16.29174024	 40.72935060
Co	 -26.47407789	 -14.25527271	 40.72935060
Co	 -28.51054542	 -12.21880518	 40.72935060
Co	 -26.47407789	 -10.18233765	 40.72935060
Co	 -28.51054542	 -8.14587012	 40.72935060
Co	 -28.51054542	 8.14587012	 40.72935060
Co	 -26.47407789	 10.18233765	 40.72935060
Co	 -28.51054542	 12.21880518	 40.72935060
Co	 -26.47407789	 14.25527271	 40.72935060
Co	 -28.51054542	 16.29174024	 40.72935060
Co	 -26.47407789	 18.32820777	 40.72935060
Co	 -28.51054542	 20.36467530	 40.72935060
Co	 -26.47407789	 22.40114283	 40.72935060
Co	 -28.51054542	 24.43761036	 40.72935060
Co	 -26.47407789	 26.47407789	 40.72935060
Co	 -28.51054542	 28.51054542	 40.72935060
Co	 -26.47407789	 30.54701295	 40.72935060
Co	 -28.51054542	 32.58348048	 40.72935060
Co	 -26.47407789	 34.61994801	 40.72935060
Co	 -28.51054542	 36.65641554	 40.72935060
Co	 -26.47407789	 38.69288307	 40.72935060
Co	 -24.43761036	 -40.72935060	 40.72935060
Co	 -22.40114283	 -38.69288307	 40.72935060
Co	 -24.43761036	 -36.65641554	 40.72935060
Co	 -22.40114283	 -34.61994801	 40.72935060
Co	 -24.43761036	 -32.58348048	 40.72935060
Co	 -22.40114283	 -30.54701295	 40.72935060
Co	 -24.43761036	 -28.51054542	 40.72935060
Co	 -22.40114283	 -26.47407789	 40.72935060
Co	 -24.43761036	 -24.43761036	 40.72935060
Co	 -22.40114283	 -22.40114283	 40.72935060
Co	 -24.43761036	 -20.36467530	 40.72935060
Co	 -22.40114283	 -18.32820777	 40.72935060
Co	 -24.43761036	 -16.29174024	 40.72935060
Co	 -22.40114283	 -14.25527271	 40.72935060
Co	 -24.43761036	 -12.21880518	 40.72935060
Co	 -24.43761036	 12.21880518	 40.72935060
Co	 -22.40114283	 14.25527271	 40.72935060
Co	 -24.43761036	 16.29174024	 40.72935060
Co	 -22.40114283	 18.32820777	 40.72935060
Co	 -24.43761036	 20.36467530	 40.72935060
Co	 -22.40114283	 22.40114283	 40.72935060
Co	 -24.43761036	 24.43761036	 40.72935060
Co	 -22.40114283	 26.47407789	 40.72935060
Co	 -24.43761036	 28.51054542	 40.72935060
Co	 -22.40114283	 30.54701295	 40.72935060
Co	 -24.43761036	 32.58348048	 40.72935060
Co	 -22.40114283	 34.61994801	 40.72935060
Co	 -24.43761036	 36.65641554	 40.72935060
Co	 -22.40114283	 38.69288307	 40.72935060
Co	 -20.36467530	 -40.72935060	 40.72935060
Co	 -18.32820777	 -38.69288307	 40.72935060
Co	 -20.36467530	 -36.65641554	 40.72935060
Co	 -18.32820777	 -34.61994801	 40.72935060
Co	 -20.36467530	 -32.58348048	 40.72935060
Co	 -18.32820777	 -30.54701295	 40.72935060
Co	 -20.36467530	 -28.51054542	 40.72935060
Co	 -18.32820777	 -26.47407789	 40.72935060
Co	 -20.36467530	 -24.43761036	 40.72935060
Co	 -18.32820777	 -22.40114283	 40.72935060
Co	 -20.36467530	 -20.36467530	 40.72935060
Co	 -18.32820777	 -18.32820777	 40.72935060
Co	 -20.36467530	 -16.29174024	 40.72935060
Co	 -20.36467530	 16.29174024	 40.72935060
Co	 -18.32820777	 18.32820777	 40.72935060
Co	 -20.36467530	 20.36467530	 40.72935060
Co	 -18.32820777	 22.40114283	 40.72935060
Co	 -20.36467530	 24.43761036	 40.72935060
Co	 -18.32820777	 26.47407789	 40.72935060
Co	 -20.36467530	 28.51054542	 40.72935060
Co	 -18.32820777	 30.54701295	 40.72935060
Co	 -20.36467530	 32.58348048	 40.72935060
Co	 -18.32820777	 34.61994801	 40.72935060
Co	 -20.36467530	 36.65641554	 40.72935060
Co	 -18.32820777	 38.69288307	 40.72935060
Co	 -16.29174024	 -40.72935060	 40.72935060
Co	 -14.25527271	 -38.69288307	 40.72935060
Co	 -16.29174024	 -36.65641554	 40.72935060
Co	 -14.25527271	 -34.61994801	 40.72935060
Co	 -16.29174024	 -32.58348048	 40.72935060
Co	 -14.25527271	 -30.54701295	 40.72935060
Co	 -16.29174024	 -28.51054542	 40.72935060
Co	 -14.25527271	 -26.47407789	 40.72935060
Co	 -16.29174024	 -24.43761036	 40.72935060
Co	 -14.25527271	 -22.40114283	 40.72935060
Co	 -16.29174024	 -20.36467530	 40.72935060
Co	 -16.29174024	 20.36467530	 40.72935060
Co	 -14.25527271	 22.40114283	 40.72935060
Co	 -16.29174024	 24.43761036	 40.72935060
Co	 -14.25527271	 26.47407789	 40.72935060
Co	 -16.29174024	 28.51054542	 40.72935060
Co	 -14.25527271	 30.54701295	 40.72935060
Co	 -16.29174024	 32.58348048	 40.72935060
Co	 -14.25527271	 34.61994801	 40.72935060
Co	 -16.29174024	 36.65641554	 40.72935060
Co	 -14.25527271	 38.69288307	 40.72935060
Co	 -12.21880518	 -40.72935060	 40.72935060
Co	 -10.18233765	 -38.69288307	 40.72935060
Co	 -12.21880518	 -36.65641554	 40.72935060
Co	 -10.18233765	 -34.61994801	 40.72935060
Co	 -12.21880518	 -32.58348048	 40.72935060
Co	 -10.18233765	 -30.54701295	 40.72935060
Co	 -12.21880518	 -28.51054542	 40.72935060
Co	 -10.18233765	 -26.47407789	 40.72935060
Co	 -12.21880518	 -24.43761036	 40.72935060
Co	 -12.21880518	 24.43761036	 40.72935060
Co	 -10.18233765	 26.47407789	 40.72935060
Co	 -12.21880518	 28.51054542	 40.72935060
Co	 -10.18233765	 30.54701295	 40.72935060
Co	 -12.21880518	 32.58348048	 40.72935060
Co	 -10.18233765	 34.61994801	 40.72935060
Co	 -12.21880518	 36.65641554	 40.72935060
Co	 -10.18233765	 38.69288307	 40.72935060
Co	 -8.14587012	 -40.72935060	 40.72935060
Co	 -6.10940259	 -38.69288307	 40.72935060
Co	 -8.14587012	 -36.65641554	 40.72935060
Co	 -6.10940259	 -34.61994801	 40.72935060
Co	 -8.14587012	 -32.58348048	 40.72935060
Co	 -6.10940259	 -30.54701295	 40.72935060
Co	 -8.14587012	 -28.51054542	 40.72935060
Co	 -8.14587012	 28.51054542	 40.72935060
Co	 -6.10940259	 30.54701295	 40.72935060
Co	 -8.14587012	 32.58348048	 40.72935060
Co	 -6.10940259	 34.61994801	 40.72935060
Co	 -8.14587012	 36.65641554	 40.72935060
Co	 -6.10940259	 38.69288307	 40.72935060
Co	 -4.07293506	 -40.72935060	 40.72935060
Co	 -2.03646753	 -38.69288307	 40.72935060
Co	 -4.07293506	 -36.65641554	 40.72935060
Co	 -2.03646753	 -34.61994801	 40.72935060
Co	 -4.07293506	 -32.58348048	 40.72935060
Co	 -4.07293506	 32.58348048	 40.72935060
Co	 -2.03646753	 34.61994801	 40.72935060
Co	 -4.07293506	 36.65641554	 40.72935060
Co	 -2.03646753	 38.69288307	 40.72935060
Co	 -0.00000000	 -40.72935060	 40.72935060
Co	 2.03646753	 -38.69288307	 40.72935060
Co	 -0.00000000	 -36.65641554	 40.72935060
Co	 2.03646753	 -34.61994801	 40.72935060
Co	 2.03646753	 34.61994801	 40.72935060
Co	 -0.00000000	 36.65641554	 40.72935060
Co	 2.03646753	 38.69288307	 40.72935060
Co	 4.07293506	 -40.72935060	 40.72935060
Co	 6.10940259	 -38.69288307	 40.72935060
Co	 4.07293506	 -36.65641554	 40.72935060
Co	 6.10940259	 -34.61994801	 40.72935060
Co	 4.07293506	 -32.58348048	 40.72935060
Co	 6.10940259	 -30.54701295	 40.72935060
Co	 6.10940259	 30.54701295	 40.72935060
Co	 4.07293506	 32.58348048	 40.72935060
Co	 6.10940259	 34.61994801	 40.72935060
Co	 4.07293506	 36.65641554	 40.72935060
Co	 6.10940259	 38.69288307	 40.72935060
Co	 8.14587012	 -40.72935060	 40.72935060
Co	 10.18233765	 -38.69288307	 40.72935060
Co	 8.14587012	 -36.65641554	 40.72935060
Co	 10.18233765	 -34.61994801	 40.72935060
Co	 8.14587012	 -32.58348048	 40.72935060
Co	 10.18233765	 -30.54701295	 40.72935060
Co	 8.14587012	 -28.51054542	 40.72935060
Co	 10.18233765	 -26.47407789	 40.72935060
Co	 10.18233765	 26.47407789	 40.72935060
Co	 8.14587012	 28.51054542	 40.72935060
Co	 10.18233765	 30.54701295	 40.72935060
Co	 8.14587012	 32.58348048	 40.72935060
Co	 10.18233765	 34.61994801	 40.72935060
Co	 8.14587012	 36.65641554	 40.72935060
Co	 10.18233765	 38.69288307	 40.72935060
Co	 12.21880518	 -40.72935060	 40.72935060
Co	 14.25527271	 -38.69288307	 40.72935060
Co	 12.21880518	 -36.65641554	 40.72935060
Co	 14.25527271	 -34.61994801	 40.72935060
Co	 12.21880518	 -32.58348048	 40.72935060
Co	 14.25527271	 -30.54701295	 40.72935060
Co	 12.21880518	 -28.51054542	 40.72935060
Co	 14.25527271	 -26.47407789	 40.72935060
Co	 12.21880518	 -24.43761036	 40.72935060
Co	 14.25527271	 -22.40114283	 40.72935060
Co	 14.25527271	 22.40114283	 40.72935060
Co	 12.21880518	 24.43761036	 40.72935060
Co	 14.25527271	 26.47407789	 40.72935060
Co	 12.21880518	 28.51054542	 40.72935060
Co	 14.25527271	 30.54701295	 40.72935060
Co	 12.21880518	 32.58348048	 40.72935060
Co	 14.25527271	 34.61994801	 40.72935060
Co	 12.21880518	 36.65641554	 40.72935060
Co	 14.25527271	 38.69288307	 40.72935060
Co	 16.29174024	 -40.72935060	 40.72935060
Co	 18.32820777	 -38.69288307	 40.72935060
Co	 16.29174024	 -36.65641554	 40.72935060
Co	 18.32820777	 -34.61994801	 40.72935060
Co	 16.29174024	 -32.58348048	 40.72935060
Co	 18.32820777	 -30.54701295	 40.72935060
Co	 16.29174024	 -28.51054542	 40.72935060
Co	 18.32820777	 -26.47407789	 40.72935060
Co	 16.29174024	 -24.43761036	 40.72935060
Co	 18.32820777	 -22.40114283	 40.72935060
Co	 16.29174024	 -20.36467530	 40.72935060
Co	 18.32820777	 -18.32820777	 40.72935060
Co	 18.32820777	 18.32820777	 40.72935060
Co	 16.29174024	 20.36467530	 40.72935060
Co	 18.32820777	 22.40114283	 40.72935060
Co	 16.29174024	 24.43761036	 40.72935060
Co	 18.32820777	 26.47407789	 40.72935060
Co	 16.29174024	 28.51054542	 40.72935060
Co	 18.32820777	 30.54701295	 40.72935060
Co	 16.29174024	 32.58348048	 40.72935060
Co	 18.32820777	 34.61994801	 40.72935060
Co	 16.29174024	 36.65641554	 40.72935060
Co	 18.32820777	 38.69288307	 40.72935060
Co	 20.36467530	 -40.72935060	 40.72935060
Co	 22.40114283	 -38.69288307	 40.72935060
Co	 20.36467530	 -36.65641554	 40.72935060
Co	 22.40114283	 -34.61994801	 40.72935060
Co	 20.36467530	 -32.58348048	 40.72935060
Co	 22.40114283	 -30.54701295	 40.72935060
Co	 20.36467530	 -28.51054542	 40.72935060
Co	 22.40114283	 -26.47407789	 40.72935060
Co	 20.36467530	 -24.43761036	 40.72935060
Co	 22.40114283	 -22.40114283	 40.72935060
Co	 20.36467530	 -20.36467530	 40.72935060
Co	 22.40114283	 -18.32820777	 40.72935060
Co	 20.36467530	 -16.29174024	 40.72935060
Co	 22.40114283	 -14.25527271	 40.72935060
Co	 22.40114283	 14.25527271	 40.72935060
Co	 20.36467530	 16.29174024	 40.72935060
Co	 22.40114283	 18.32820777	 40.72935060
Co	 20.36467530	 20.36467530	 40.72935060
Co	 22.40114283	 22.40114283	 40.72935060
Co	 20.36467530	 24.43761036	 40.72935060
Co	 22.40114283	 26.47407789	 40.72935060
Co	 20.36467530	 28.51054542	 40.72935060
Co	 22.40114283	 30.54701295	 40.72935060
Co	 20.36467530	 32.58348048	 40.72935060
Co	 22.40114283	 34.61994801	 40.72935060
Co	 20.36467530	 36.65641554	 40.72935060
Co	 22.40114283	 38.69288307	 40.72935060
Co	 24.43761036	 -40.72935060	 40.72935060
Co	 26.47407789	 -38.69288307	 40.72935060
Co	 24.43761036	 -36.65641554	 40.72935060
Co	 26.47407789	 -34.61994801	 40.72935060
Co	 24.43761036	 -32.58348048	 40.72935060
Co	 26.47407789	 -30.54701295	 40.72935060
Co	 24.43761036	 -28.51054542	 40.72935060
Co	 26.47407789	 -26.47407789	 40.72935060
Co	 24.43761036	 -24.43761036	 40.72935060
Co	 26.47407789	 -22.40114283	 40.72935060
Co	 24.43761036	 -20.36467530	 40.72935060
Co	 26.47407789	 -18.32820777	 40.72935060
Co	 24.43761036	 -16.29174024	 40.72935060
Co	 26.47407789	 -14.25527271	 40.72935060
Co	 24.43761036	 -12.21880518	 40.72935060
Co	 26.47407789	 -10.18233765	 40.72935060
Co	 26.47407789	 10.18233765	 40.72935060
Co	 24.43761036	 12.21880518	 40.72935060
Co	 26.47407789	 14.25527271	 40.72935060
Co	 24.43761036	 16.29174024	 40.72935060
Co	 26.47407789	 18.32820777	 40.72935060
Co	 24.43761036	 20.36467530	 40.72935060
Co	 26.47407789	 22.40114283	 40.72935060
Co	 24.43761036	 24.43761036	 40.72935060
Co	 26.47407789	 26.47407789	 40.72935060
Co	 24.43761036	 28.51054542	 40.72935060
Co	 26.47407789	 30.54701295	 40.72935060
Co	 24.43761036	 32.58348048	 40.72935060
Co	 26.47407789	 34.61994801	 40.72935060
Co	 24.43761036	 36.65641554	 40.72935060
Co	 26.47407789	 38.69288307	 40.72935060
Co	 28.51054542	 -40.72935060	 40.72935060
Co	 30.54701295	 -38.69288307	 40.72935060
Co	 28.51054542	 -36.65641554	 40.72935060
Co	 30.54701295	 -34.61994801	 40.72935060
Co	 28.51054542	 -32.58348048	 40.72935060
Co	 30.54701295	 -30.54701295	 40.72935060
Co	 28.51054542	 -28.51054542	 40.72935060
Co	 30.54701295	 -26.47407789	 40.72935060
Co	 28.51054542	 -24.43761036	 40.72935060
Co	 30.54701295	 -22.40114283	 40.72935060
Co	 28.51054542	 -20.36467530	 40.72935060
Co	 30.54701295	 -18.32820777	 40.72935060
Co	 28.51054542	 -16.29174024	 40.72935060
Co	 30.54701295	 -14.25527271	 40.72935060
Co	 28.51054542	 -12.21880518	 40.72935060
Co	 30.54701295	 -10.18233765	 40.72935060
Co	 28.51054542	 -8.14587012	 40.72935060
Co	 30.54701295	 -6.10940259	 40.72935060
Co	 30.54701295	 6.10940259	 40.72935060
Co	 28.51054542	 8.14587012	 40.72935060
Co	 30.54701295	 10.18233765	 40.72935060
Co	 28.51054542	 12.21880518	 40.72935060
Co	 30.54701295	 14.25527271	 40.72935060
Co	 28.51054542	 16.29174024	 40.72935060
Co	 30.54701295	 18.32820777	 40.72935060
Co	 28.51054542	 20.36467530	 40.72935060
Co	 30.54701295	 22.40114283	 40.72935060
Co	 28.51054542	 24.43761036	 40.72935060
Co	 30.54701295	 26.47407789	 40.72935060
Co	 28.51054542	 28.51054542	 40.72935060
Co	 30.54701295	 30.54701295	 40.72935060
Co	 28.51054542	 32.58348048	 40.72935060
Co	 30.54701295	 34.61994801	 40.72935060
Co	 28.51054542	 36.65641554	 40.72935060
Co	 30.54701295	 38.69288307	 40.72935060
Co	 32.58348048	 -40.72935060	 40.72935060
Co	 34.61994801	 -38.69288307	 40.72935060
Co	 32.58348048	 -36.65641554	 40.72935060
Co	 34.61994801	 -34.61994801	 40.72935060
Co	 32.58348048	 -32.58348048	 40.72935060
Co	 34.61994801	 -30.54701295	 40.72935060
Co	 32.58348048	 -28.51054542	 40.72935060
Co	 34.61994801	 -26.47407789	 40.72935060
Co	 32.58348048	 -24.43761036	 40.72935060
Co	 34.61994801	 -22.40114283	 40.72935060
Co	 32.58348048	 -20.36467530	 40.72935060
Co	 34.61994801	 -18.32820777	 40.72935060
Co	 32.58348048	 -16.29174024	 40.72935060
Co	 34.61994801	 -14.25527271	 40.72935060
Co	 32.58348048	 -12.21880518	 40.72935060
Co	 34.61994801	 -10.18233765	 40.72935060
Co	 32.58348048	 -8.14587012	 40.72935060
Co	 34.61994801	 -6.10940259	 40.72935060
Co	 32.58348048	 -4.07293506	 40.72935060
Co	 34.61994801	 -2.03646753	 40.72935060
Co	 34.61994801	 2.03646753	 40.72935060
Co	 32.58348048	 4.07293506	 40.72935060
Co	 34.61994801	 6.10940259	 40.72935060
Co	 32.58348048	 8.14587012	 40.72935060
Co	 34.61994801	 10.18233765	 40.72935060
Co	 32.58348048	 12.21880518	 40.72935060
Co	 34.61994801	 14.25527271	 40.72935060
Co	 32.58348048	 16.29174024	 40.72935060
Co	 34.61994801	 18.32820777	 40.72935060
Co	 32.58348048	 20.36467530	 40.72935060
Co	 34.61994801	 22.40114283	 40.72935060
Co	 32.58348048	 24.43761036	 40.72935060
Co	 34.61994801	 26.47407789	 40.72935060
Co	 32.58348048	 28.51054542	 40.72935060
Co	 34.61994801	 30.54701295	 40.72935060
Co	 32.58348048	 32.58348048	 40.72935060
Co	 34.61994801	 34.61994801	 40.72935060
Co	 32.58348048	 36.65641554	 40.72935060
Co	 34.61994801	 38.69288307	 40.72935060
Co	 36.65641554	 -40.72935060	 40.72935060
Co	 38.69288307	 -38.69288307	 40.72935060
Co	 36.65641554	 -36.65641554	 40.72935060
Co	 38.69288307	 -34.61994801	 40.72935060
Co	 36.65641554	 -32.58348048	 40.72935060
Co	 38.69288307	 -30.54701295	 40.72935060
Co	 36.65641554	 -28.51054542	 40.72935060
Co	 38.69288307	 -26.47407789	 40.72935060
Co	 36.65641554	 -24.43761036	 40.72935060
Co	 38.69288307	 -22.40114283	 40.72935060
Co	 36.65641554	 -20.36467530	 40.72935060
Co	 38.69288307	 -18.32820777	 40.72935060
Co	 36.65641554	 -16.29174024	 40.72935060
Co	 38.69288307	 -14.25527271	 40.72935060
Co	 36.65641554	 -12.21880518	 40.72935060
Co	 38.69288307	 -10.18233765	 40.72935060
Co	 36.65641554	 -8.14587012	 40.72935060
Co	 38.69288307	 -6.10940259	 40.72935060
Co	 36.65641554	 -4.07293506	 40.72935060
Co	 38.69288307	 -2.03646753	 40.72935060
Co	 36.65641554	 -0.00000000	 40.72935060
Co	 38.69288307	 2.03646753	 40.72935060
Co	 36.65641554	 4.07293506	 40.72935060
Co	 38.69288307	 6.10940259	 40.72935060
Co	 36.65641554	 8.14587012	 40.72935060
Co	 38.69288307	 10.18233765	 40.72935060
Co	 36.65641554	 12.21880518	 40.72935060
Co	 38.69288307	 14.25527271	 40.72935060
Co	 36.65641554	 16.29174024	 40.72935060
Co	 38.69288307	 18.32820777	 40.72935060
Co	 36.65641554	 20.36467530	 40.72935060
Co	 38.69288307	 22.40114283	 40.72935060
Co	 36.65641554	 24.43761036	 40.72935060
Co	 38.69288307	 26.47407789	 40.72935060
Co	 36.65641554	 28.51054542	 40.72935060
Co	 38.69288307	 30.54701295	 40.72935060
Co	 36.65641554	 32.58348048	 40.72935060
Co	 38.69288307	 34.61994801	 40.72935060
Co	 36.65641554	 36.65641554	 40.72935060
Co	 38.69288307	 38.69288307	 40.72935060
Co	 -40.72935060	 40.72935060	 -40.72935060
Co	 -38.69288307	 40.72935060	 -38.69288307
Co	 -40.72935060	 40.72935060	 -36.65641554
Co	 -38.69288307	 40.72935060	 -34.61994801
Co	 -40.72935060	 40.72935060	 -32.58348048
Co	 -38.69288307	 40.72935060	 -30.54701295
Co	 -40.72935060	 40.72935060	 -28.51054542
Co	 -38.69288307	 40.72935060	 -26.47407789
Co	 -40.72935060	 40.72935060	 -24.43761036
Co	 -38.69288307	 40.72935060	 -22.40114283
Co	 -40.72935060	 40.72935060	 -20.36467530
Co	 -38.69288307	 40.72935060	 -18.32820777
Co	 -40.72935060	 40.72935060	 -16.29174024
Co	 -38.69288307	 40.72935060	 -14.25527271
Co	 -40.72935060	 40.72935060	 -12.21880518
Co	 -38.69288307	 40.72935060	 -10.18233765
Co	 -40.72935060	 40.72935060	 -8.14587012
Co	 -38.69288307	 40.72935060	 -6.10940259
Co	 -40.72935060	 40.72935060	 -4.07293506
Co	 -38.69288307	 40.72935060	 -2.03646753
Co	 -40.72935060	 40.72935060	 -0.00000000
Co	 -38.69288307	 40.72935060	 2.03646753
Co	 -40.72935060	 40.72935060	 4.07293506
Co	 -38.69288307	 40.72935060	 6.10940259
Co	 -40.72935060	 40.72935060	 8.14587012
Co	 -38.69288307	 40.72935060	 10.18233765
Co	 -40.72935060	 40.72935060	 12.21880518
Co	 -38.69288307	 40.72935060	 14.25527271
Co	 -40.72935060	 40.72935060	 16.29174024
Co	 -38.69288307	 40.72935060	 18.32820777
Co	 -40.72935060	 40.72935060	 20.36467530
Co	 -38.69288307	 40.72935060	 22.40114283
Co	 -40.72935060	 40.72935060	 24.43761036
Co	 -38.69288307	 40.72935060	 26.47407789
Co	 -40.72935060	 40.72935060	 28.51054542
Co	 -38.69288307	 40.72935060	 30.54701295
Co	 -40.72935060	 40.72935060	 32.58348048
Co	 -38.69288307	 40.72935060	 34.61994801
Co	 -40.72935060	 40.72935060	 36.65641554
Co	 -38.69288307	 40.72935060	 38.69288307
Co	 -36.65641554	 40.72935060	 -40.72935060
Co	 -34.61994801	 40.72935060	 -38.69288307
Co	 -36.65641554	 40.72935060	 -36.65641554
Co	 -34.61994801	 40.72935060	 -34.61994801
Co	 -36.65641554	 40.72935060	 -32.58348048
Co	 -34.61994801	 40.72935060	 -30.54701295
Co	 -36.65641554	 40.72935060	 -28.51054542
Co	 -34.61994801	 40.72935060	 -26.47407789
Co	 -36.65641554	 40.72935060	 -24.43761036
Co	 -34.61994801	 40.72935060	 -22.40114283
Co	 -36.65641554	 40.72935060	 -20.36467530
Co	 -34.61994801	 40.72935060	 -18.32820777
Co	 -36.65641554	 40.72935060	 -16.29174024
Co	 -34.61994801	 40.72935060	 -14.25527271
Co	 -36.65641554	 40.72935060	 -12.21880518
Co	 -34.61994801	 40.72935060	 -10.18233765
Co	 -36.65641554	 40.72935060	 -8.14587012
Co	 -34.61994801	 40.72935060	 -6.10940259
Co	 -36.65641554	 40.72935060	 -4.07293506
Co	 -34.61994801	 40.72935060	 -2.03646753
Co	 -36.65641554	 40.72935060	 -0.00000000
Co	 -34.61994801	 40.72935060	 2.03646753
Co	 -36.65641554	 40.72935060	 4.07293506
Co	 -34.61994801	 40.72935060	 6.10940259
Co	 -36.65641554	 40.72935060	 8.14587012
Co	 -34.61994801	 40.72935060	 10.18233765
Co	 -36.65641554	 40.72935060	 12.21880518
Co	 -34.61994801	 40.72935060	 14.25527271
Co	 -36.65641554	 40.72935060	 16.29174024
Co	 -34.61994801	 40.72935060	 18.32820777
Co	 -36.65641554	 40.72935060	 20.36467530
Co	 -34.61994801	 40.72935060	 22.40114283
Co	 -36.65641554	 40.72935060	 24.43761036
Co	 -34.61994801	 40.72935060	 26.47407789
Co	 -36.65641554	 40.72935060	 28.51054542
Co	 -34.61994801	 40.72935060	 30.54701295
Co	 -36.65641554	 40.72935060	 32.58348048
Co	 -34.61994801	 40.72935060	 34.61994801
Co	 -36.65641554	 40.72935060	 36.65641554
Co	 -34.61994801	 40.72935060	 38.69288307
Co	 -32.58348048	 40.72935060	 -40.72935060
Co	 -30.54701295	 40.72935060	 -38.69288307
Co	 -32.58348048	 40.72935060	 -36.65641554
Co	 -30.54701295	 40.72935060	 -34.61994801
Co	 -32.58348048	 40.72935060	 -32.58348048
Co	 -30.54701295	 40.72935060	 -30.54701295
Co	 -32.58348048	 40.72935060	 -28.51054542
Co	 -30.54701295	 40.72935060	 -26.47407789
Co	 -32.58348048	 40.72935060	 -24.43761036
Co	 -30.54701295	 40.72935060	 -22.40114283
Co	 -32.58348048	 40.72935060	 -20.36467530
Co	 -30.54701295	 40.72935060	 -18.32820777
Co	 -32.58348048	 40.72935060	 -16.29174024
Co	 -30.54701295	 40.72935060	 -14.25527271
Co	 -32.58348048	 40.72935060	 -12.21880518
Co	 -30.54701295	 40.72935060	 -10.18233765
Co	 -32.58348048	 40.72935060	 -8.14587012
Co	 -30.54701295	 40.72935060	 -6.10940259
Co	 -32.58348048	 40.72935060	 -4.07293506
Co	 -32.58348048	 40.72935060	 4.07293506
Co	 -30.54701295	 40.72935060	 6.10940259
Co	 -32.58348048	 40.72935060	 8.14587012
Co	 -30.54701295	 40.72935060	 10.18233765
Co	 -32.58348048	 40.72935060	 12.21880518
Co	 -30.54701295	 40.72935060	 14.25527271
Co	 -32.58348048	 40.72935060	 16.29174024
Co	 -30.54701295	 40.72935060	 18.32820777
Co	 -32.58348048	 40.72935060	 20.36467530
Co	 -30.54701295	 40.72935060	 22.40114283
Co	 -32.58348048	 40.72935060	 24.43761036
Co	 -30.54701295	 40.72935060	 26.47407789
Co	 -32.58348048	 40.72935060	 28.51054542
Co	 -30.54701295	 40.72935060	 30.54701295
Co	 -32.58348048	 40.72935060	 32.58348048
Co	 -30.54701295	 40.72935060	 34.61994801
Co	 -32.58348048	 40.72935060	 36.65641554
Co	 -30.54701295	 40.72935060	 38.69288307
Co	 -28.51054542	 40.72935060	 -40.72935060
Co	 -26.47407789	 40.72935060	 -38.69288307
Co	 -28.51054542	 40.72935060	 -36.65641554
Co	 -26.47407789	 40.72935060	 -34.61994801
Co	 -28.51054542	 40.72935060	 -32.58348048
Co	 -26.47407789	 40.72935060	 -30.54701295
Co	 -28.51054542	 40.72935060	 -28.51054542
Co	 -26.47407789	 40.72935060	 -26.47407789
Co	 -28.51054542	 40.72935060	 -24.43761036
Co	 -26.47407789	 40.72935060	 -22.40114283
Co	 -28.51054542	 40.72935060	 -20.36467530
Co	 -26.47407789	 40.72935060	 -18.32820777
Co	 -28.51054542	 40.72935060	 -16.29174024
Co	 -26.47407789	 40.72935060	 -14.25527271
Co	 -28.51054542	 40.72935060	 -12.21880518
Co	 -26.47407789	 40.72935060	 -10.18233765
Co	 -28.51054542	 40.72935060	 -8.14587012
Co	 -28.51054542	 40.72935060	 8.14587012
Co	 -26.47407789	 40.72935060	 10.18233765
Co	 -28.51054542	 40.72935060	 12.21880518
Co	 -26.47407789	 40.72935060	 14.25527271
Co	 -28.51054542	 40.72935060	 16.29174024
Co	 -26.47407789	 40.72935060	 18.32820777
Co	 -28.51054542	 40.72935060	 20.36467530
Co	 -26.47407789	 40.72935060	 22.40114283
Co	 -28.51054542	 40.72935060	 24.43761036
Co	 -26.47407789	 40.72935060	 26.47407789
Co	 -28.51054542	 40.72935060	 28.51054542
Co	 -26.47407789	 40.72935060	 30.54701295
Co	 -28.51054542	 40.72935060	 32.58348048
Co	 -26.47407789	 40.72935060	 34.61994801
Co	 -28.51054542	 40.72935060	 36.65641554
Co	 -26.47407789	 40.72935060	 38.69288307
Co	 -24.43761036	 40.72935060	 -40.72935060
Co	 -22.40114283	 40.72935060	 -38.69288307
Co	 -24.43761036	 40.72935060	 -36.65641554
Co	 -22.40114283	 40.72935060	 -34.61994801
Co	 -24.43761036	 40.72935060	 -32.58348048
Co	 -22.40114283	 40.72935060	 -30.54701295
Co	 -24.43761036	 40.72935060	 -28.51054542
Co	 -22.40114283	 40.72935060	 -26.47407789
Co	 -24.43761036	 40.72935060	 -24.43761036
Co	 -22.40114283	 40.72935060	 -22.40114283
Co	 -24.43761036	 40.72935060	 -20.36467530
Co	 -22.40114283	 40.72935060	 -18.32820777
Co	 -24.43761036	 40.72935060	 -16.29174024
Co	 -22.40114283	 40.72935060	 -14.25527271
Co	 -24.43761036	 40.72935060	 -12.21880518
Co	 -24.43761036	 40.72935060	 12.21880518
Co	 -22.40114283	 40.72935060	 14.25527271
Co	 -24.43761036	 40.72935060	 16.29174024
Co	 -22.40114283	 40.72935060	 18.32820777
Co	 -24.43761036	 40.72935060	 20.36467530
Co	 -22.40114283	 40.72935060	 22.40114283
Co	 -24.43761036	 40.72935060	 24.43761036
Co	 -22.40114283	 40.72935060	 26.47407789
Co	 -24.43761036	 40.72935060	 28.51054542
Co	 -22.40114283	 40.72935060	 30.54701295
Co	 -24.43761036	 40.72935060	 32.58348048
Co	 -22.40114283	 40.72935060	 34.61994801
Co	 -24.43761036	 40.72935060	 36.65641554
Co	 -22.40114283	 40.72935060	 38.69288307
Co	 -20.36467530	 40.72935060	 -40.72935060
Co	 -18.32820777	 40.72935060	 -38.69288307
Co	 -20.36467530	 40.72935060	 -36.65641554
Co	 -18.32820777	 40.72935060	 -34.61994801
Co	 -20.36467530	 40.72935060	 -32.58348048
Co	 -18.32820777	 40.72935060	 -30.54701295
Co	 -20.36467530	 40.72935060	 -28.51054542
Co	 -18.32820777	 40.72935060	 -26.47407789
Co	 -20.36467530	 40.72935060	 -24.43761036
Co	 -18.32820777	 40.72935060	 -22.40114283
Co	 -20.36467530	 40.72935060	 -20.36467530
Co	 -18.32820777	 40.72935060	 -18.32820777
Co	 -20.36467530	 40.72935060	 -16.29174024
Co	 -20.36467530	 40.72935060	 16.29174024
Co	 -18.32820777	 40.72935060	 18.32820777
Co	 -20.36467530	 40.72935060	 20.36467530
Co	 -18.32820777	 40.72935060	 22.40114283
Co	 -20.36467530	 40.72935060	 24.43761036
Co	 -18.32820777	 40.72935060	 26.47407789
Co	 -20.36467530	 40.72935060	 28.51054542
Co	 -18.32820777	 40.72935060	 30.54701295
Co	 -20.36467530	 40.72935060	 32.58348048
Co	 -18.32820777	 40.72935060	 34.61994801
Co	 -20.36467530	 40.72935060	 36.65641554
Co	 -18.32820777	 40.72935060	 38.69288307
Co	 -16.29174024	 40.72935060	 -40.72935060
Co	 -14.25527271	 40.72935060	 -38.69288307
Co	 -16.29174024	 40.72935060	 -36.65641554
Co	 -14.25527271	 40.72935060	 -34.61994801
Co	 -16.29174024	 40.72935060	 -32.58348048
Co	 -14.25527271	 40.72935060	 -30.54701295
Co	 -16.29174024	 40.72935060	 -28.51054542
Co	 -14.25527271	 40.72935060	 -26.47407789
Co	 -16.29174024	 40.72935060	 -24.43761036
Co	 -14.25527271	 40.72935060	 -22.40114283
Co	 -16.29174024	 40.72935060	 -20.36467530
Co	 -16.29174024	 40.72935060	 20.36467530
Co	 -14.25527271	 40.72935060	 22.40114283
Co	 -16.29174024	 40.72935060	 24.43761036
Co	 -14.25527271	 40.72935060	 26.47407789
Co	 -16.29174024	 40.72935060	 28.51054542
Co	 -14.25527271	 40.72935060	 30.54701295
Co	 -16.29174024	 40.72935060	 32.58348048
Co	 -14.25527271	 40.72935060	 34.61994801
Co	 -16.29174024	 40.72935060	 36.65641554
Co	 -14.25527271	 40.72935060	 38.69288307
Co	 -12.21880518	 40.72935060	 -40.72935060
Co	 -10.18233765	 40.72935060	 -38.69288307
Co	 -12.21880518	 40.72935060	 -36.65641554
Co	 -10.18233765	 40.72935060	 -34.61994801
Co	 -12.21880518	 40.72935060	 -32.58348048
Co	 -10.18233765	 40.72935060	 -30.54701295
Co	 -12.21880518	 40.72935060	 -28.51054542
Co	 -10.18233765	 40.72935060	 -26.47407789
Co	 -12.21880518	 40.72935060	 -24.43761036
Co	 -12.21880518	 40.72935060	 24.43761036
Co	 -10.18233765	 40.72935060	 26.47407789
Co	 -12.21880518	 40.72935060	 28.51054542
Co	 -10.18233765	 40.72935060	 30.54701295
Co	 -12.21880518	 40.72935060	 32.58348048
Co	 -10.18233765	 40.72935060	 34.61994801
Co	 -12.21880518	 40.72935060	 36.65641554
Co	 -10.18233765	 40.72935060	 38.69288307
Co	 -8.14587012	 40.72935060	 -40.72935060
Co	 -6.10940259	 40.72935060	 -38.69288307
Co	 -8.14587012	 40.72935060	 -36.65641554
Co	 -6.10940259	 40.72935060	 -34.61994801
Co	 -8.14587012	 40.72935060	 -32.58348048
Co	 -6.10940259	 40.72935060	 -30.54701295
Co	 -8.14587012	 40.72935060	 -28.51054542
Co	 -8.14587012	 40.72935060	 28.51054542
Co	 -6.10940259	 40.72935060	 30.54701295
Co	 -8.14587012	 40.72935060	 32.58348048
Co	 -6.10940259	 40.72935060	 34.61994801
Co	 -8.14587012	 40.72935060	 36.65641554
Co	 -6.10940259	 40.72935060	 38.69288307
Co	 -4.07293506	 40.72935060	 -40.72935060
Co	 -2.03646753	 40.72935060	 -38.69288307
Co	 -4.07293506	 40.72935060	 -36.65641554
Co	 -2.03646753	 40.72935060	 -34.61994801
Co	 -4.07293506	 40.72935060	 -32.58348048
Co	 -4.07293506	 40.72935060	 32.58348048
Co	 -2.03646753	 40.72935060	 34.61994801
Co	 -4.07293506	 40.72935060	 36.65641554
Co	 -2.03646753	 40.72935060	 38.69288307
Co	 -0.00000000	 40.72935060	 -40.72935060
Co	 2.03646753	 40.72935060	 -38.69288307
Co	 -0.00000000	 40.72935060	 -36.65641554
Co	 2.03646753	 40.72935060	 -34.61994801
Co	 2.03646753	 40.72935060	 34.61994801
Co	 -0.00000000	 40.72935060	 36.65641554
Co	 2.03646753	 40.72935060	 38.69288307
Co	 4.07293506	 40.72935060	 -40.72935060
Co	 6.10940259	 40.72935060	 -38.69288307
Co	 4.07293506	 40.72935060	 -36.65641554
Co	 6.10940259	 40.72935060	 -34.61994801
Co	 4.07293506	 40.72935060	 -32.58348048
Co	 6.10940259	 40.72935060	 -30.54701295
Co	 6.10940259	 40.72935060	 30.54701295
Co	 4.07293506	 40.72935060	 32.58348048
Co	 6.10940259	 40.72935060	 34.61994801
Co	 4.07293506	 40.72935060	 36.65641554
Co	 6.10940259	 40.72935060	 38.69288307
Co	 8.14587012	 40.72935060	 -40.72935060
Co	 10.18233765	 40.72935060	 -38.69288307
Co	 8.14587012	 40.72935060	 -36.65641554
Co	 10.18233765	 40.72935060	 -34.61994801
Co	 8.14587012	 40.72935060	 -32.58348048
Co	 10.18233765	 40.72935060	 -30.54701295
Co	 8.14587012	 40.72935060	 -28.51054542
Co	 10.18233765	 40.72935060	 -26.47407789
Co	 10.18233765	 40.72935060	 26.47407789
Co	 8.14587012	 40.72935060	 28.51054542
Co	 10.18233765	 40.72935060	 30.54701295
Co	 8.14587012	 40.72935060	 32.58348048
Co	 10.18233765	 40.72935060	 34.61994801
Co	 8.14587012	 40.72935060	 36.65641554
Co	 10.18233765	 40.72935060	 38.69288307
Co	 12.21880518	 40.72935060	 -40.72935060
Co	 14.25527271	 40.72935060	 -38.69288307
Co	 12.21880518	 40.72935060	 -36.65641554
Co	 14.25527271	 40.72935060	 -34.61994801
Co	 12.21880518	 40.72935060	 -32.58348048
Co	 14.25527271	 40.72935060	 -30.54701295
Co	 12.21880518	 40.72935060	 -28.51054542
Co	 14.25527271	 40.72935060	 -26.47407789
Co	 12.21880518	 40.72935060	 -24.43761036
Co	 14.25527271	 40.72935060	 -22.40114283
Co	 14.25527271	 40.72935060	 22.40114283
Co	 12.21880518	 40.72935060	 24.43761036
Co	 14.25527271	 40.72935060	 26.47407789
Co	 12.21880518	 40.72935060	 28.51054542
Co	 14.25527271	 40.72935060	 30.54701295
Co	 12.21880518	 40.72935060	 32.58348048
Co	 14.25527271	 40.72935060	 34.61994801
Co	 12.21880518	 40.72935060	 36.65641554
Co	 14.25527271	 40.72935060	 38.69288307
Co	 16.29174024	 40.72935060	 -40.72935060
Co	 18.32820777	 40.72935060	 -38.69288307
Co	 16.29174024	 40.72935060	 -36.65641554
Co	 18.32820777	 40.72935060	 -34.61994801
Co	 16.29174024	 40.72935060	 -32.58348048
Co	 18.32820777	 40.72935060	 -30.54701295
Co	 16.29174024	 40.72935060	 -28.51054542
Co	 18.32820777	 40.72935060	 -26.47407789
Co	 16.29174024	 40.72935060	 -24.43761036
Co	 18.32820777	 40.72935060	 -22.40114283
Co	 16.29174024	 40.72935060	 -20.36467530
Co	 18.32820777	 40.72935060	 -18.32820777
Co	 18.32820777	 40.72935060	 18.32820777
Co	 16.29174024	 40.72935060	 20.36467530
Co	 18.32820777	 40.72935060	 22.40114283
Co	 16.29174024	 40.72935060	 24.43761036
Co	 18.32820777	 40.72935060	 26.47407789
Co	 16.29174024	 40.72935060	 28.51054542
Co	 18.32820777	 40.72935060	 30.54701295
Co	 16.29174024	 40.72935060	 32.58348048
Co	 18.32820777	 40.72935060	 34.61994801
Co	 16.29174024	 40.72935060	 36.65641554
Co	 18.32820777	 40.72935060	 38.69288307
Co	 20.36467530	 40.72935060	 -40.72935060
Co	 22.40114283	 40.72935060	 -38.69288307
Co	 20.36467530	 40.72935060	 -36.65641554
Co	 22.40114283	 40.72935060	 -34.61994801
Co	 20.36467530	 40.72935060	 -32.58348048
Co	 22.40114283	 40.72935060	 -30.54701295
Co	 20.36467530	 40.72935060	 -28.51054542
Co	 22.40114283	 40.72935060	 -26.47407789
Co	 20.36467530	 40.72935060	 -24.43761036
Co	 22.40114283	 40.72935060	 -22.40114283
Co	 20.36467530	 40.72935060	 -20.36467530
Co	 22.40114283	 40.72935060	 -18.32820777
Co	 20.36467530	 40.72935060	 -16.29174024
Co	 22.40114283	 40.72935060	 -14.25527271
Co	 22.40114283	 40.72935060	 14.25527271
Co	 20.36467530	 40.72935060	 16.29174024
Co	 22.40114283	 40.72935060	 18.32820777
Co	 20.36467530	 40.72935060	 20.36467530
Co	 22.40114283	 40.72935060	 22.40114283
Co	 20.36467530	 40.72935060	 24.43761036
Co	 22.40114283	 40.72935060	 26.47407789
Co	 20.36467530	 40.72935060	 28.51054542
Co	 22.40114283	 40.72935060	 30.54701295
Co	 20.36467530	 40.72935060	 32.58348048
Co	 22.40114283	 40.72935060	 34.61994801
Co	 20.36467530	 40.72935060	 36.65641554
Co	 22.40114283	 40.72935060	 38.69288307
Co	 24.43761036	 40.72935060	 -40.72935060
Co	 26.47407789	 40.72935060	 -38.69288307
Co	 24.43761036	 40.72935060	 -36.65641554
Co	 26.47407789	 40.72935060	 -34.61994801
Co	 24.43761036	 40.72935060	 -32.58348048
Co	 26.47407789	 40.72935060	 -30.54701295
Co	 24.43761036	 40.72935060	 -28.51054542
Co	 26.47407789	 40.72935060	 -26.47407789
Co	 24.43761036	 40.72935060	 -24.43761036
Co	 26.47407789	 40.72935060	 -22.40114283
Co	 24.43761036	 40.72935060	 -20.36467530
Co	 26.47407789	 40.72935060	 -18.32820777
Co	 24.43761036	 40.72935060	 -16.29174024
Co	 26.47407789	 40.72935060	 -14.25527271
Co	 24.43761036	 40.72935060	 -12.21880518
Co	 26.47407789	 40.72935060	 -10.18233765
Co	 26.47407789	 40.72935060	 10.18233765
Co	 24.43761036	 40.72935060	 12.21880518
Co	 26.47407789	 40.72935060	 14.25527271
Co	 24.43761036	 40.72935060	 16.29174024
Co	 26.47407789	 40.72935060	 18.32820777
Co	 24.43761036	 40.72935060	 20.36467530
Co	 26.47407789	 40.72935060	 22.40114283
Co	 24.43761036	 40.72935060	 24.43761036
Co	 26.47407789	 40.72935060	 26.47407789
Co	 24.43761036	 40.72935060	 28.51054542
Co	 26.47407789	 40.72935060	 30.54701295
Co	 24.43761036	 40.72935060	 32.58348048
Co	 26.47407789	 40.72935060	 34.61994801
Co	 24.43761036	 40.72935060	 36.65641554
Co	 26.47407789	 40.72935060	 38.69288307
Co	 28.51054542	 40.72935060	 -40.72935060
Co	 30.54701295	 40.72935060	 -38.69288307
Co	 28.51054542	 40.72935060	 -36.65641554
Co	 30.54701295	 40.72935060	 -34.61994801
Co	 28.51054542	 40.72935060	 -32.58348048
Co	 30.54701295	 40.72935060	 -30.54701295
Co	 28.51054542	 40.72935060	 -28.51054542
Co	 30.54701295	 40.72935060	 -26.47407789
Co	 28.51054542	 40.72935060	 -24.43761036
Co	 30.54701295	 40.72935060	 -22.40114283
Co	 28.51054542	 40.72935060	 -20.36467530
Co	 30.54701295	 40.72935060	 -18.32820777
Co	 28.51054542	 40.72935060	 -16.29174024
Co	 30.54701295	 40.72935060	 -14.25527271
Co	 28.51054542	 40.72935060	 -12.21880518
Co	 30.54701295	 40.72935060	 -10.18233765
Co	 28.51054542	 40.72935060	 -8.14587012
Co	 30.54701295	 40.72935060	 -6.10940259
Co	 30.54701295	 40.72935060	 6.10940259
Co	 28.51054542	 40.72935060	 8.14587012
Co	 30.54701295	 40.72935060	 10.18233765
Co	 28.51054542	 40.72935060	 12.21880518
Co	 30.54701295	 40.72935060	 14.25527271
Co	 28.51054542	 40.72935060	 16.29174024
Co	 30.54701295	 40.72935060	 18.32820777
Co	 28.51054542	 40.72935060	 20.36467530
Co	 30.54701295	 40.72935060	 22.40114283
Co	 28.51054542	 40.72935060	 24.43761036
Co	 30.54701295	 40.72935060	 26.47407789
Co	 28.51054542	 40.72935060	 28.51054542
Co	 30.54701295	 40.72935060	 30.54701295
Co	 28.51054542	 40.72935060	 32.58348048
Co	 30.54701295	 40.72935060	 34.61994801
Co	 28.51054542	 40.72935060	 36.65641554
Co	 30.54701295	 40.72935060	 38.69288307
Co	 32.58348048	 40.72935060	 -40.72935060
Co	 34.61994801	 40.72935060	 -38.69288307
Co	 32.58348048	 40.72935060	 -36.65641554
Co	 34.61994801	 40.72935060	 -34.61994801
Co	 32.58348048	 40.72935060	 -32.58348048
Co	 34.61994801	 40.72935060	 -30.54701295
Co	 32.58348048	 40.72935060	 -28.51054542
Co	 34.61994801	 40.72935060	 -26.47407789
Co	 32.58348048	 40.72935060	 -24.43761036
Co	 34.61994801	 40.72935060	 -22.40114283
Co	 32.58348048	 40.72935060	 -20.36467530
Co	 34.61994801	 40.72935060	 -18.32820777
Co	 32.58348048	 40.72935060	 -16.29174024
Co	 34.61994801	 40.72935060	 -14.25527271
Co	 32.58348048	 40.72935060	 -12.21880518
Co	 34.61994801	 40.72935060	 -10.18233765
Co	 32.58348048	 40.72935060	 -8.14587012
Co	 34.61994801	 40.72935060	 -6.10940259
Co	 32.58348048	 40.72935060	 -4.07293506
Co	 34.61994801	 40.72935060	 -2.03646753
Co	 34.61994801	 40.72935060	 2.03646753
Co	 32.58348048	 40.72935060	 4.07293506
Co	 34.61994801	 40.72935060	 6.10940259
Co	 32.58348048	 40.72935060	 8.14587012
Co	 34.61994801	 40.72935060	 10.18233765
Co	 32.58348048	 40.72935060	 12.21880518
Co	 34.61994801	 40.72935060	 14.25527271
Co	 32.58348048	 40.72935060	 16.29174024
Co	 34.61994801	 40.72935060	 18.32820777
Co	 32.58348048	 40.72935060	 20.36467530
Co	 34.61994801	 40.72935060	 22.40114283
Co	 32.58348048	 40.72935060	 24.43761036
Co	 34.61994801	 40.72935060	 26.47407789
Co	 32.58348048	 40.72935060	 28.51054542
Co	 34.61994801	 40.72935060	 30.54701295
Co	 32.58348048	 40.72935060	 32.58348048
Co	 34.61994801	 40.72935060	 34.61994801
Co	 32.58348048	 40.72935060	 36.65641554
Co	 34.61994801	 40.72935060	 38.69288307
Co	 36.65641554	 40.72935060	 -40.72935060
Co	 38.69288307	 40.72935060	 -38.69288307
Co	 36.65641554	 40.72935060	 -36.65641554
Co	 38.69288307	 40.72935060	 -34.61994801
Co	 36.65641554	 40.72935060	 -32.58348048
Co	 38.69288307	 40.72935060	 -30.54701295
Co	 36.65641554	 40.72935060	 -28.51054542
Co	 38.69288307	 40.72935060	 -26.47407789
Co	 36.65641554	 40.72935060	 -24.43761036
Co	 38.69288307	 40.72935060	 -22.40114283
Co	 36.65641554	 40.72935060	 -20.36467530
Co	 38.69288307	 40.72935060	 -18.32820777
Co	 36.65641554	 40.72935060	 -16.29174024
Co	 38.69288307	 40.72935060	 -14.25527271
Co	 36.65641554	 40.72935060	 -12.21880518
Co	 38.69288307	 40.72935060	 -10.18233765
Co	 36.65641554	 40.72935060	 -8.14587012
Co	 38.69288307	 40.72935060	 -6.10940259
Co	 36.65641554	 40.72935060	 -4.07293506
Co	 38.69288307	 40.72935060	 -2.03646753
Co	 36.65641554	 40.72935060	 -0.00000000
Co	 38.69288307	 40.72935060	 2.03646753
Co	 36.65641554	 40.72935060	 4.07293506
Co	 38.69288307	 40.72935060	 6.10940259
Co	 36.65641554	 40.72935060	 8.14587012
Co	 38.69288307	 40.72935060	 10.18233765
Co	 36.65641554	 40.72935060	 12.21880518
Co	 38.69288307	 40.72935060	 14.25527271
Co	 36.65641554	 40.72935060	 16.29174024
Co	 38.69288307	 40.72935060	 18.32820777
Co	 36.65641554	 40.72935060	 20.36467530
Co	 38.69288307	 40.72935060	 22.40114283
Co	 36.65641554	 40.72935060	 24.43761036
Co	 38.69288307	 40.72935060	 26.47407789
Co	 36.65641554	 40.72935060	 28.51054542
Co	 38.69288307	 40.72935060	 30.54701295
Co	 36.65641554	 40.72935060	 32.58348048
Co	 38.69288307	 40.72935060	 34.61994801
Co	 36.65641554	 40.72935060	 36.65641554
Co	 38.69288307	 40.72935060	 38.69288307
Co	 -40.72935060	 40.72935060	 40.72935060
Co	 -36.65641554	 40.72935060	 40.72935060
Co	 -32.58348048	 40.72935060	 40.72935060
Co	 -28.51054542	 40.72935060	 40.72935060
Co	 -24.43761036	 40.72935060	 40.72935060
Co	 -20.36467530	 40.72935060	 40.72935060
Co	 -16.29174024	 40.72935060	 40.72935060
Co	 -12.21880518	 40.72935060	 40.72935060
Co	 -8.14587012	 40.72935060	 40.72935060
Co	 -4.07293506	 40.72935060	 40.72935060
Co	 -0.00000000	 40.72935060	 40.72935060
Co	 4.07293506	 40.72935060	 40.72935060
Co	 8.14587012	 40.72935060	 40.72935060
Co	 12.21880518	 40.72935060	 40.72935060
Co	 16.29174024	 40.72935060	 40.72935060
Co	 20.36467530	 40.72935060	 40.72935060
Co	 24.43761036	 40.72935060	 40.72935060
Co	 28.51054542	 40.72935060	 40.72935060
Co	 32.58348048	 40.72935060	 40.72935060
Co	 36.65641554	 40.72935060	 40.72935060
Co	 40.72935060	 -40.72935060	 -40.72935060
Co	 40.72935060	 -38.69288307	 -38.69288307
Co	 40.72935060	 -40.72935060	 -36.65641554
Co	 40.72935060	 -38.69288307	 -34.61994801
Co	 40.72935060	 -40.72935060	 -32.58348048
Co	 40.72935060	 -38.69288307	 -30.54701295
Co	 40.72935060	 -40.72935060	 -28.51054542
Co	 40.72935060	 -38.69288307	 -26.47407789
Co	 40.72935060	 -40.72935060	 -24.43761036
Co	 40.72935060	 -38.69288307	 -22.40114283
Co	 40.72935060	 -40.72935060	 -20.36467530
Co	 40.72935060	 -38.69288307	 -18.32820777
Co	 40.72935060	 -40.72935060	 -16.29174024
Co	 40.72935060	 -38.69288307	 -14.25527271
Co	 40.72935060	 -40.72935060	 -12.21880518
Co	 40.72935060	 -38.69288307	 -10.18233765
Co	 40.72935060	 -40.72935060	 -8.14587012
Co	 40.72935060	 -38.69288307	 -6.10940259
Co	 40.72935060	 -40.72935060	 -4.07293506
Co	 40.72935060	 -38.69288307	 -2.03646753
Co	 40.72935060	 -40.72935060	 -0.00000000
Co	 40.72935060	 -38.69288307	 2.03646753
Co	 40.72935060	 -40.72935060	 4.07293506
Co	 40.72935060	 -38.69288307	 6.10940259
Co	 40.72935060	 -40.72935060	 8.14587012
Co	 40.72935060	 -38.69288307	 10.18233765
Co	 40.72935060	 -40.72935060	 12.21880518
Co	 40.72935060	 -38.69288307	 14.25527271
Co	 40.72935060	 -40.72935060	 16.29174024
Co	 40.72935060	 -38.69288307	 18.32820777
Co	 40.72935060	 -40.72935060	 20.36467530
Co	 40.72935060	 -38.69288307	 22.40114283
Co	 40.72935060	 -40.72935060	 24.43761036
Co	 40.72935060	 -38.69288307	 26.47407789
Co	 40.72935060	 -40.72935060	 28.51054542
Co	 40.72935060	 -38.69288307	 30.54701295
Co	 40.72935060	 -40.72935060	 32.58348048
Co	 40.72935060	 -38.69288307	 34.61994801
Co	 40.72935060	 -40.72935060	 36.65641554
Co	 40.72935060	 -38.69288307	 38.69288307
Co	 40.72935060	 -36.65641554	 -40.72935060
Co	 40.72935060	 -34.61994801	 -38.69288307
Co	 40.72935060	 -36.65641554	 -36.65641554
Co	 40.72935060	 -34.61994801	 -34.61994801
Co	 40.72935060	 -36.65641554	 -32.58348048
Co	 40.72935060	 -34.61994801	 -30.54701295
Co	 40.72935060	 -36.65641554	 -28.51054542
Co	 40.72935060	 -34.61994801	 -26.47407789
Co	 40.72935060	 -36.65641554	 -24.43761036
Co	 40.72935060	 -34.61994801	 -22.40114283
Co	 40.72935060	 -36.65641554	 -20.36467530
Co	 40.72935060	 -34.61994801	 -18.32820777
Co	 40.72935060	 -36.65641554	 -16.29174024
Co	 40.72935060	 -34.61994801	 -14.25527271
Co	 40.72935060	 -36.65641554	 -12.21880518
Co	 40.72935060	 -34.61994801	 -10.18233765
Co	 40.72935060	 -36.65641554	 -8.14587012
Co	 40.72935060	 -34.61994801	 -6.10940259
Co	 40.72935060	 -36.65641554	 -4.07293506
Co	 40.72935060	 -34.61994801	 -2.03646753
Co	 40.72935060	 -36.65641554	 -0.00000000
Co	 40.72935060	 -34.61994801	 2.03646753
Co	 40.72935060	 -36.65641554	 4.07293506
Co	 40.72935060	 -34.61994801	 6.10940259
Co	 40.72935060	 -36.65641554	 8.14587012
Co	 40.72935060	 -34.61994801	 10.18233765
Co	 40.72935060	 -36.65641554	 12.21880518
Co	 40.72935060	 -34.61994801	 14.25527271
Co	 40.72935060	 -36.65641554	 16.29174024
Co	 40.72935060	 -34.61994801	 18.32820777
Co	 40.72935060	 -36.65641554	 20.36467530
Co	 40.72935060	 -34.61994801	 22.40114283
Co	 40.72935060	 -36.65641554	 24.43761036
Co	 40.72935060	 -34.61994801	 26.47407789
Co	 40.72935060	 -36.65641554	 28.51054542
Co	 40.72935060	 -34.61994801	 30.54701295
Co	 40.72935060	 -36.65641554	 32.58348048
Co	 40.72935060	 -34.61994801	 34.61994801
Co	 40.72935060	 -36.65641554	 36.65641554
Co	 40.72935060	 -34.61994801	 38.69288307
Co	 40.72935060	 -32.58348048	 -40.72935060
Co	 40.72935060	 -30.54701295	 -38.69288307
Co	 40.72935060	 -32.58348048	 -36.65641554
Co	 40.72935060	 -30.54701295	 -34.61994801
Co	 40.72935060	 -32.58348048	 -32.58348048
Co	 40.72935060	 -30.54701295	 -30.54701295
Co	 40.72935060	 -32.58348048	 -28.51054542
Co	 40.72935060	 -30.54701295	 -26.47407789
Co	 40.72935060	 -32.58348048	 -24.43761036
Co	 40.72935060	 -30.54701295	 -22.40114283
Co	 40.72935060	 -32.58348048	 -20.36467530
Co	 40.72935060	 -30.54701295	 -18.32820777
Co	 40.72935060	 -32.58348048	 -16.29174024
Co	 40.72935060	 -30.54701295	 -14.25527271
Co	 40.72935060	 -32.58348048	 -12.21880518
Co	 40.72935060	 -30.54701295	 -10.18233765
Co	 40.72935060	 -32.58348048	 -8.14587012
Co	 40.72935060	 -30.54701295	 -6.10940259
Co	 40.72935060	 -32.58348048	 -4.07293506
Co	 40.72935060	 -32.58348048	 4.07293506
Co	 40.72935060	 -30.54701295	 6.10940259
Co	 40.72935060	 -32.58348048	 8.14587012
Co	 40.72935060	 -30.54701295	 10.18233765
Co	 40.72935060	 -32.58348048	 12.21880518
Co	 40.72935060	 -30.54701295	 14.25527271
Co	 40.72935060	 -32.58348048	 16.29174024
Co	 40.72935060	 -30.54701295	 18.32820777
Co	 40.72935060	 -32.58348048	 20.36467530
Co	 40.72935060	 -30.54701295	 22.40114283
Co	 40.72935060	 -32.58348048	 24.43761036
Co	 40.72935060	 -30.54701295	 26.47407789
Co	 40.72935060	 -32.58348048	 28.51054542
Co	 40.72935060	 -30.54701295	 30.54701295
Co	 40.72935060	 -32.58348048	 32.58348048
Co	 40.72935060	 -30.54701295	 34.61994801
Co	 40.72935060	 -32.58348048	 36.65641554
Co	 40.72935060	 -30.54701295	 38.69288307
Co	 40.72935060	 -28.51054542	 -40.72935060
Co	 40.72935060	 -26.47407789	 -38.69288307
Co	 40.72935060	 -28.51054542	 -36.65641554
Co	 40.72935060	 -26.47407789	 -34.61994801
Co	 40.72935060	 -28.51054542	 -32.58348048
Co	 40.72935060	 -26.47407789	 -30.54701295
Co	 40.72935060	 -28.51054542	 -28.51054542
Co	 40.72935060	 -26.47407789	 -26.47407789
Co	 40.72935060	 -28.51054542	 -24.43761036
Co	 40.72935060	 -26.47407789	 -22.40114283
Co	 40.72935060	 -28.51054542	 -20.36467530
Co	 40.72935060	 -26.47407789	 -18.32820777
Co	 40.72935060	 -28.51054542	 -16.29174024
Co	 40.72935060	 -26.47407789	 -14.25527271
Co	 40.72935060	 -28.51054542	 -12.21880518
Co	 40.72935060	 -26.47407789	 -10.18233765
Co	 40.72935060	 -28.51054542	 -8.14587012
Co	 40.72935060	 -28.51054542	 8.14587012
Co	 40.72935060	 -26.47407789	 10.18233765
Co	 40.72935060	 -28.51054542	 12.21880518
Co	 40.72935060	 -26.47407789	 14.25527271
Co	 40.72935060	 -28.51054542	 16.29174024
Co	 40.72935060	 -26.47407789	 18.32820777
Co	 40.72935060	 -28.51054542	 20.36467530
Co	 40.72935060	 -26.47407789	 22.40114283
Co	 40.72935060	 -28.51054542	 24.43761036
Co	 40.72935060	 -26.47407789	 26.47407789
Co	 40.72935060	 -28.51054542	 28.51054542
Co	 40.72935060	 -26.47407789	 30.54701295
Co	 40.72935060	 -28.51054542	 32.58348048
Co	 40.72935060	 -26.47407789	 34.61994801
Co	 40.72935060	 -28.51054542	 36.65641554
Co	 40.72935060	 -26.47407789	 38.69288307
Co	 40.72935060	 -24.43761036	 -40.72935060
Co	 40.72935060	 -22.40114283	 -38.69288307
Co	 40.72935060	 -24.43761036	 -36.65641554
Co	 40.72935060	 -22.40114283	 -34.61994801
Co	 40.72935060	 -24.43761036	 -32.58348048
Co	 40.72935060	 -22.40114283	 -30.54701295
Co	 40.72935060	 -24.43761036	 -28.51054542
Co	 40.72935060	 -22.40114283	 -26.47407789
Co	 40.72935060	 -24.43761036	 -24.43761036
Co	 40.72935060	 -22.40114283	 -22.40114283
Co	 40.72935060	 -24.43761036	 -20.36467530
Co	 40.72935060	 -22.40114283	 -18.32820777
Co	 40.72935060	 -24.43761036	 -16.29174024
Co	 40.72935060	 -22.40114283	 -14.25527271
Co	 40.72935060	 -24.43761036	 -12.21880518
Co	 40.72935060	 -24.43761036	 12.21880518
Co	 40.72935060	 -22.40114283	 14.25527271
Co	 40.72935060	 -24.43761036	 16.29174024
Co	 40.72935060	 -22.40114283	 18.32820777
Co	 40.72935060	 -24.43761036	 20.36467530
Co	 40.72935060	 -22.40114283	 22.40114283
Co	 40.72935060	 -24.43761036	 24.43761036
Co	 40.72935060	 -22.40114283	 26.47407789
Co	 40.72935060	 -24.43761036	 28.51054542
Co	 40.72935060	 -22.40114283	 30.54701295
Co	 40.72935060	 -24.43761036	 32.58348048
Co	 40.72935060	 -22.40114283	 34.61994801
Co	 40.72935060	 -24.43761036	 36.65641554
Co	 40.72935060	 -22.40114283	 38.69288307
Co	 40.72935060	 -20.36467530	 -40.72935060
Co	 40.72935060	 -18.32820777	 -38.69288307
Co	 40.72935060	 -20.36467530	 -36.65641554
Co	 40.72935060	 -18.32820777	 -34.61994801
Co	 40.72935060	 -20.36467530	 -32.58348048
Co	 40.72935060	 -18.32820777	 -30.54701295
Co	 40.72935060	 -20.36467530	 -28.51054542
Co	 40.72935060	 -18.32820777	 -26.47407789
Co	 40.72935060	 -20.36467530	 -24.43761036
Co	 40.72935060	 -18.32820777	 -22.40114283
Co	 40.72935060	 -20.36467530	 -20.36467530
Co	 40.72935060	 -18.32820777	 -18.32820777
Co	 40.72935060	 -20.36467530	 -16.29174024
Co	 40.72935060	 -20.36467530	 16.29174024
Co	 40.72935060	 -18.32820777	 18.32820777
Co	 40.72935060	 -20.36467530	 20.36467530
Co	 40.72935060	 -18.32820777	 22.40114283
Co	 40.72935060	 -20.36467530	 24.43761036
Co	 40.72935060	 -18.32820777	 26.47407789
Co	 40.72935060	 -20.36467530	 28.51054542
Co	 40.72935060	 -18.32820777	 30.54701295
Co	 40.72935060	 -20.36467530	 32.58348048
Co	 40.72935060	 -18.32820777	 34.61994801
Co	 40.72935060	 -20.36467530	 36.65641554
Co	 40.72935060	 -18.32820777	 38.69288307
Co	 40.72935060	 -16.29174024	 -40.72935060
Co	 40.72935060	 -14.25527271	 -38.69288307
Co	 40.72935060	 -16.29174024	 -36.65641554
Co	 40.72935060	 -14.25527271	 -34.61994801
Co	 40.72935060	 -16.29174024	 -32.58348048
Co	 40.72935060	 -14.25527271	 -30.54701295
Co	 40.72935060	 -16.29174024	 -28.51054542
Co	 40.72935060	 -14.25527271	 -26.47407789
Co	 40.72935060	 -16.29174024	 -24.43761036
Co	 40.72935060	 -14.25527271	 -22.40114283
Co	 40.72935060	 -16.29174024	 -20.36467530
Co	 40.72935060	 -16.29174024	 20.36467530
Co	 40.72935060	 -14.25527271	 22.40114283
Co	 40.72935060	 -16.29174024	 24.43761036
Co	 40.72935060	 -14.25527271	 26.47407789
Co	 40.72935060	 -16.29174024	 28.51054542
Co	 40.72935060	 -14.25527271	 30.54701295
Co	 40.72935060	 -16.29174024	 32.58348048
Co	 40.72935060	 -14.25527271	 34.61994801
Co	 40.72935060	 -16.29174024	 36.65641554
Co	 40.72935060	 -14.25527271	 38.69288307
Co	 40.72935060	 -12.21880518	 -40.72935060
Co	 40.72935060	 -10.18233765	 -38.69288307
Co	 40.72935060	 -12.21880518	 -36.65641554
Co	 40.72935060	 -10.18233765	 -34.61994801
Co	 40.72935060	 -12.21880518	 -32.58348048
Co	 40.72935060	 -10.18233765	 -30.54701295
Co	 40.72935060	 -12.21880518	 -28.51054542
Co	 40.72935060	 -10.18233765	 -26.47407789
Co	 40.72935060	 -12.21880518	 -24.43761036
Co	 40.72935060	 -12.21880518	 24.43761036
Co	 40.72935060	 -10.18233765	 26.47407789
Co	 40.72935060	 -12.21880518	 28.51054542
Co	 40.72935060	 -10.18233765	 30.54701295
Co	 40.72935060	 -12.21880518	 32.58348048
Co	 40.72935060	 -10.18233765	 34.61994801
Co	 40.72935060	 -12.21880518	 36.65641554
Co	 40.72935060	 -10.18233765	 38.69288307
Co	 40.72935060	 -8.14587012	 -40.72935060
Co	 40.72935060	 -6.10940259	 -38.69288307
Co	 40.72935060	 -8.14587012	 -36.65641554
Co	 40.72935060	 -6.10940259	 -34.61994801
Co	 40.72935060	 -8.14587012	 -32.58348048
Co	 40.72935060	 -6.10940259	 -30.54701295
Co	 40.72935060	 -8.14587012	 -28.51054542
Co	 40.72935060	 -8.14587012	 28.51054542
Co	 40.72935060	 -6.10940259	 30.54701295
Co	 40.72935060	 -8.14587012	 32.58348048
Co	 40.72935060	 -6.10940259	 34.61994801
Co	 40.72935060	 -8.14587012	 36.65641554
Co	 40.72935060	 -6.10940259	 38.69288307
Co	 40.72935060	 -4.07293506	 -40.72935060
Co	 40.72935060	 -2.03646753	 -38.69288307
Co	 40.72935060	 -4.07293506	 -36.65641554
Co	 40.72935060	 -2.03646753	 -34.61994801
Co	 40.72935060	 -4.07293506	 -32.58348048
Co	 40.72935060	 -4.07293506	 32.58348048
Co	 40.72935060	 -2.03646753	 34.61994801
Co	 40.72935060	 -4.07293506	 36.65641554
Co	 40.72935060	 -2.03646753	 38.69288307
Co	 40.72935060	 -0.00000000	 -40.72935060
Co	 40.72935060	 2.03646753	 -38.69288307
Co	 40.72935060	 -0.00000000	 -36.65641554
Co	 40.72935060	 2.03646753	 -34.61994801
Co	 40.72935060	 2.03646753	 34.61994801
Co	 40.72935060	 -0.00000000	 36.65641554
Co	 40.72935060	 2.03646753	 38.69288307
Co	 40.72935060	 4.07293506	 -40.72935060
Co	 40.72935060	 6.10940259	 -38.69288307
Co	 40.72935060	 4.07293506	 -36.65641554
Co	 40.72935060	 6.10940259	 -34.61994801
Co	 40.72935060	 4.07293506	 -32.58348048
Co	 40.72935060	 6.10940259	 -30.54701295
Co	 40.72935060	 6.10940259	 30.54701295
Co	 40.72935060	 4.07293506	 32.58348048
Co	 40.72935060	 6.10940259	 34.61994801
Co	 40.72935060	 4.07293506	 36.65641554
Co	 40.72935060	 6.10940259	 38.69288307
Co	 40.72935060	 8.14587012	 -40.72935060
Co	 40.72935060	 10.18233765	 -38.69288307
Co	 40.72935060	 8.14587012	 -36.65641554
Co	 40.72935060	 10.18233765	 -34.61994801
Co	 40.72935060	 8.14587012	 -32.58348048
Co	 40.72935060	 10.18233765	 -30.54701295
Co	 40.72935060	 8.14587012	 -28.51054542
Co	 40.72935060	 10.18233765	 -26.47407789
Co	 40.72935060	 10.18233765	 26.47407789
Co	 40.72935060	 8.14587012	 28.51054542
Co	 40.72935060	 10.18233765	 30.54701295
Co	 40.72935060	 8.14587012	 32.58348048
Co	 40.72935060	 10.18233765	 34.61994801
Co	 40.72935060	 8.14587012	 36.65641554
Co	 40.72935060	 10.18233765	 38.69288307
Co	 40.72935060	 12.21880518	 -40.72935060
Co	 40.72935060	 14.25527271	 -38.69288307
Co	 40.72935060	 12.21880518	 -36.65641554
Co	 40.72935060	 14.25527271	 -34.61994801
Co	 40.72935060	 12.21880518	 -32.58348048
Co	 40.72935060	 14.25527271	 -30.54701295
Co	 40.72935060	 12.21880518	 -28.51054542
Co	 40.72935060	 14.25527271	 -26.47407789
Co	 40.72935060	 12.21880518	 -24.43761036
Co	 40.72935060	 14.25527271	 -22.40114283
Co	 40.72935060	 14.25527271	 22.40114283
Co	 40.72935060	 12.21880518	 24.43761036
Co	 40.72935060	 14.25527271	 26.47407789
Co	 40.72935060	 12.21880518	 28.51054542
Co	 40.72935060	 14.25527271	 30.54701295
Co	 40.72935060	 12.21880518	 32.58348048
Co	 40.72935060	 14.25527271	 34.61994801
Co	 40.72935060	 12.21880518	 36.65641554
Co	 40.72935060	 14.25527271	 38.69288307
Co	 40.72935060	 16.29174024	 -40.72935060
Co	 40.72935060	 18.32820777	 -38.69288307
Co	 40.72935060	 16.29174024	 -36.65641554
Co	 40.72935060	 18.32820777	 -34.61994801
Co	 40.72935060	 16.29174024	 -32.58348048
Co	 40.72935060	 18.32820777	 -30.54701295
Co	 40.72935060	 16.29174024	 -28.51054542
Co	 40.72935060	 18.32820777	 -26.47407789
Co	 40.72935060	 16.29174024	 -24.43761036
Co	 40.72935060	 18.32820777	 -22.40114283
Co	 40.72935060	 16.29174024	 -20.36467530
Co	 40.72935060	 18.32820777	 -18.32820777
Co	 40.72935060	 18.32820777	 18.32820777
Co	 40.72935060	 16.29174024	 20.36467530
Co	 40.72935060	 18.32820777	 22.40114283
Co	 40.72935060	 16.29174024	 24.43761036
Co	 40.72935060	 18.32820777	 26.47407789
Co	 40.72935060	 16.29174024	 28.51054542
Co	 40.72935060	 18.32820777	 30.54701295
Co	 40.72935060	 16.29174024	 32.58348048
Co	 40.72935060	 18.32820777	 34.61994801
Co	 40.72935060	 16.29174024	 36.65641554
Co	 40.72935060	 18.32820777	 38.69288307
Co	 40.72935060	 20.36467530	 -40.72935060
Co	 40.72935060	 22.40114283	 -38.69288307
Co	 40.72935060	 20.36467530	 -36.65641554
Co	 40.72935060	 22.40114283	 -34.61994801
Co	 40.72935060	 20.36467530	 -32.58348048
Co	 40.72935060	 22.40114283	 -30.54701295
Co	 40.72935060	 20.36467530	 -28.51054542
Co	 40.72935060	 22.40114283	 -26.47407789
Co	 40.72935060	 20.36467530	 -24.43761036
Co	 40.72935060	 22.40114283	 -22.40114283
Co	 40.72935060	 20.36467530	 -20.36467530
Co	 40.72935060	 22.40114283	 -18.32820777
Co	 40.72935060	 20.36467530	 -16.29174024
Co	 40.72935060	 22.40114283	 -14.25527271
Co	 40.72935060	 22.40114283	 14.25527271
Co	 40.72935060	 20.36467530	 16.29174024
Co	 40.72935060	 22.40114283	 18.32820777
Co	 40.72935060	 20.36467530	 20.36467530
Co	 40.72935060	 22.40114283	 22.40114283
Co	 40.72935060	 20.36467530	 24.43761036
Co	 40.72935060	 22.40114283	 26.47407789
Co	 40.72935060	 20.36467530	 28.51054542
Co	 40.72935060	 22.40114283	 30.54701295
Co	 40.72935060	 20.36467530	 32.58348048
Co	 40.72935060	 22.40114283	 34.61994801
Co	 40.72935060	 20.36467530	 36.65641554
Co	 40.72935060	 22.40114283	 38.69288307
Co	 40.72935060	 24.43761036	 -40.72935060
Co	 40.72935060	 26.47407789	 -38.69288307
Co	 40.72935060	 24.43761036	 -36.65641554
Co	 40.72935060	 26.47407789	 -34.61994801
Co	 40.72935060	 24.43761036	 -32.58348048
Co	 40.72935060	 26.47407789	 -30.54701295
Co	 40.72935060	 24.43761036	 -28.51054542
Co	 40.72935060	 26.47407789	 -26.47407789
Co	 40.72935060	 24.43761036	 -24.43761036
Co	 40.72935060	 26.47407789	 -22.40114283
Co	 40.72935060	 24.43761036	 -20.36467530
Co	 40.72935060	 26.47407789	 -18.32820777
Co	 40.72935060	 24.43761036	 -16.29174024
Co	 40.72935060	 26.47407789	 -14.25527271
Co	 40.72935060	 24.43761036	 -12.21880518
Co	 40.72935060	 26.47407789	 -10.18233765
Co	 40.72935060	 26.47407789	 10.18233765
Co	 40.72935060	 24.43761036	 12.21880518
Co	 40.72935060	 26.47407789	 14.25527271
Co	 40.72935060	 24.43761036	 16.29174024
Co	 40.72935060	 26.47407789	 18.32820777
Co	 40.72935060	 24.43761036	 20.36467530
Co	 40.72935060	 26.47407789	 22.40114283
Co	 40.72935060	 24.43761036	 24.43761036
Co	 40.72935060	 26.47407789	 26.47407789
Co	 40.72935060	 24.43761036	 28.51054542
Co	 40.72935060	 26.47407789	 30.54701295
Co	 40.72935060	 24.43761036	 32.58348048
Co	 40.72935060	 26.47407789	 34.61994801
Co	 40.72935060	 24.43761036	 36.65641554
Co	 40.72935060	 26.47407789	 38.69288307
Co	 40.72935060	 28.51054542	 -40.72935060
Co	 40.72935060	 30.54701295	 -38.69288307
Co	 40.72935060	 28.51054542	 -36.65641554
Co	 40.72935060	 30.54701295	 -34.61994801
Co	 40.72935060	 28.51054542	 -32.58348048
Co	 40.72935060	 30.54701295	 -30.54701295
Co	 40.72935060	 28.51054542	 -28.51054542
Co	 40.72935060	 30.54701295	 -26.47407789
Co	 40.72935060	 28.51054542	 -24.43761036
Co	 40.72935060	 30.54701295	 -22.40114283
Co	 40.72935060	 28.51054542	 -20.36467530
Co	 40.72935060	 30.54701295	 -18.32820777
Co	 40.72935060	 28.51054542	 -16.29174024
Co	 40.72935060	 30.54701295	 -14.25527271
Co	 40.72935060	 28.51054542	 -12.21880518
Co	 40.72935060	 30.54701295	 -10.18233765
Co	 40.72935060	 28.51054542	 -8.14587012
Co	 40.72935060	 30.54701295	 -6.10940259
Co	 40.72935060	 30.54701295	 6.10940259
Co	 40.72935060	 28.51054542	 8.14587012
Co	 40.72935060	 30.54701295	 10.18233765
Co	 40.72935060	 28.51054542	 12.21880518
Co	 40.72935060	 30.54701295	 14.25527271
Co	 40.72935060	 28.51054542	 16.29174024
Co	 40.72935060	 30.54701295	 18.32820777
Co	 40.72935060	 28.51054542	 20.36467530
Co	 40.72935060	 30.54701295	 22.40114283
Co	 40.72935060	 28.51054542	 24.43761036
Co	 40.72935060	 30.54701295	 26.47407789
Co	 40.72935060	 28.51054542	 28.51054542
Co	 40.72935060	 30.54701295	 30.54701295
Co	 40.72935060	 28.51054542	 32.58348048
Co	 40.72935060	 30.54701295	 34.61994801
Co	 40.72935060	 28.51054542	 36.65641554
Co	 40.72935060	 30.54701295	 38.69288307
Co	 40.72935060	 32.58348048	 -40.72935060
Co	 40.72935060	 34.61994801	 -38.69288307
Co	 40.72935060	 32.58348048	 -36.65641554
Co	 40.72935060	 34.61994801	 -34.61994801
Co	 40.72935060	 32.58348048	 -32.58348048
Co	 40.72935060	 34.61994801	 -30.54701295
Co	 40.72935060	 32.58348048	 -28.51054542
Co	 40.72935060	 34.61994801	 -26.47407789
Co	 40.72935060	 32.58348048	 -24.43761036
Co	 40.72935060	 34.61994801	 -22.40114283
Co	 40.72935060	 32.58348048	 -20.36467530
Co	 40.72935060	 34.61994801	 -18.32820777
Co	 40.72935060	 32.58348048	 -16.29174024
Co	 40.72935060	 34.61994801	 -14.25527271
Co	 40.72935060	 32.58348048	 -12.21880518
Co	 40.72935060	 34.61994801	 -10.18233765
Co	 40.72935060	 32.58348048	 -8.14587012
Co	 40.72935060	 34.61994801	 -6.10940259
Co	 40.72935060	 32.58348048	 -4.07293506
Co	 40.72935060	 34.61994801	 -2.03646753
Co	 40.72935060	 34.61994801	 2.03646753
Co	 40.72935060	 32.58348048	 4.07293506
Co	 40.72935060	 34.61994801	 6.10940259
Co	 40.72935060	 32.58348048	 8.14587012
Co	 40.72935060	 34.61994801	 10.18233765
Co	 40.72935060	 32.58348048	 12.21880518
Co	 40.72935060	 34.61994801	 14.25527271
Co	 40.72935060	 32.58348048	 16.29174024
Co	 40.72935060	 34.61994801	 18.32820777
Co	 40.72935060	 32.58348048	 20.36467530
Co	 40.72935060	 34.61994801	 22.40114283
Co	 40.72935060	 32.58348048	 24.43761036
Co	 40.72935060	 34.61994801	 26.47407789
Co	 40.72935060	 32.58348048	 28.51054542
Co	 40.72935060	 34.61994801	 30.54701295
Co	 40.72935060	 32.58348048	 32.58348048
Co	 40.72935060	 34.61994801	 34.61994801
Co	 40.72935060	 32.58348048	 36.65641554
Co	 40.72935060	 34.61994801	 38.69288307
Co	 40.72935060	 36.65641554	 -40.72935060
Co	 40.72935060	 38.69288307	 -38.69288307
Co	 40.72935060	 36.65641554	 -36.65641554
Co	 40.72935060	 38.69288307	 -34.61994801
Co	 40.72935060	 36.65641554	 -32.58348048
Co	 40.72935060	 38.69288307	 -30.54701295
Co	 40.72935060	 36.65641554	 -28.51054542
Co	 40.72935060	 38.69288307	 -26.47407789
Co	 40.72935060	 36.65641554	 -24.43761036
Co	 40.72935060	 38.69288307	 -22.40114283
Co	 40.72935060	 36.65641554	 -20.36467530
Co	 40.72935060	 38.69288307	 -18.32820777
Co	 40.72935060	 36.65641554	 -16.29174024
Co	 40.72935060	 38.69288307	 -14.25527271
Co	 40.72935060	 36.65641554	 -12.21880518
Co	 40.72935060	 38.69288307	 -10.18233765
Co	 40.72935060	 36.65641554	 -8.14587012
Co	 40.72935060	 38.69288307	 -6.10940259
Co	 40.72935060	 36.65641554	 -4.07293506
Co	 40.72935060	 38.69288307	 -2.03646753
Co	 40.72935060	 36.65641554	 -0.00000000
Co	 40.72935060	 38.69288307	 2.03646753
Co	 40.72935060	 36.65641554	 4.07293506
Co	 40.72935060	 38.69288307	 6.10940259
Co	 40.72935060	 36.65641554	 8.14587012
Co	 40.72935060	 38.69288307	 10.18233765
Co	 40.72935060	 36.65641554	 12.21880518
Co	 40.72935060	 38.69288307	 14.25527271
Co	 40.72935060	 36.65641554	 16.29174024
Co	 40.72935060	 38.69288307	 18.32820777
Co	 40.72935060	 36.65641554	 20.36467530
Co	 40.72935060	 38.69288307	 22.40114283
Co	 40.72935060	 36.65641554	 24.43761036
Co	 40.72935060	 38.69288307	 26.47407789
Co	 40.72935060	 36.65641554	 28.51054542
Co	 40.72935060	 38.69288307	 30.54701295
Co	 40.72935060	 36.65641554	 32.58348048
Co	 40.72935060	 38.69288307	 34.61994801
Co	 40.72935060	 36.65641554	 36.65641554
Co	 40.72935060	 38.69288307	 38.69288307
Co	 40.72935060	 -40.72935060	 40.72935060
Co	 40.72935060	 -36.65641554	 40.72935060
Co	 40.72935060	 -32.58348048	 40.72935060
Co	 40.72935060	 -28.51054542	 40.72935060
Co	 40.72935060	 -24.43761036	 40.72935060
Co	 40.72935060	 -20.36467530	 40.72935060
Co	 40.72935060	 -16.29174024	 40.72935060
Co	 40.72935060	 -12.21880518	 40.72935060
Co	 40.72935060	 -8.14587012	 40.72935060
Co	 40.72935060	 -4.07293506	 40.72935060
Co	 40.72935060	 -0.00000000	 40.72935060
Co	 40.72935060	 4.07293506	 40.72935060
Co	 40.72935060	 8.14587012	 40.72935060
Co	 40.72935060	 12.21880518	 40.72935060
Co	 40.72935060	 16.29174024	 40.72935060
Co	 40.72935060	 20.36467530	 40.72935060
Co	 40.72935060	 24.43761036	 40.72935060
Co	 40.72935060	 28.51054542	 40.72935060
Co	 40.72935060	 32.58348048	 40.72935060
Co	 40.72935060	 36.65641554	 40.72935060
Co	 40.72935060	 40.72935060	 -40.72935060
Co	 40.72935060	 40.72935060	 -36.65641554
Co	 40.72935060	 40.72935060	 -32.58348048
Co	 40.72935060	 40.72935060	 -28.51054542
Co	 40.72935060	 40.72935060	 -24.43761036
Co	 40.72935060	 40.72935060	 -20.36467530
Co	 40.72935060	 40.72935060	 -16.29174024
Co	 40.72935060	 40.72935060	 -12.21880518
Co	 40.72935060	 40.72935060	 -8.14587012
Co	 40.72935060	 40.72935060	 -4.07293506
Co	 40.72935060	 40.72935060	 -0.00000000
Co	 40.72935060	 40.72935060	 4.07293506
Co	 40.72935060	 40.72935060	 8.14587012
Co	 40.72935060	 40.72935060	 12.21880518
Co	 40.72935060	 40.72935060	 16.29174024
Co	 40.72935060	 40.72935060	 20.36467530
Co	 40.72935060	 40.72935060	 24.43761036
Co	 40.72935060	 40.72935060	 28.51054542
Co	 40.72935060	 40.72935060	 32.58348048
Co	 40.72935060	 40.72935060	 36.65641554
Co	 40.72935060	 40.72935060	 40.72935060
