4631 
{'Au': 1202, 'No': 3429}
Au	 -20.36467530	 -20.36467530	 -20.36467530
Au	 -20.36467530	 -18.32820777	 -18.32820777
Au	 -18.32820777	 -20.36467530	 -18.32820777
Au	 -18.32820777	 -18.32820777	 -20.36467530
Au	 -20.36467530	 -20.36467530	 -16.29174024
Au	 -20.36467530	 -18.32820777	 -14.25527271
Au	 -18.32820777	 -20.36467530	 -14.25527271
No	 -18.32820777	 -18.32820777	 -16.29174024
Au	 -20.36467530	 -20.36467530	 -12.21880518
Au	 -20.36467530	 -18.32820777	 -10.18233765
Au	 -18.32820777	 -20.36467530	 -10.18233765
No	 -18.32820777	 -18.32820777	 -12.21880518
Au	 -20.36467530	 -20.36467530	 -8.14587012
Au	 -20.36467530	 -18.32820777	 -6.10940259
Au	 -18.32820777	 -20.36467530	 -6.10940259
No	 -18.32820777	 -18.32820777	 -8.14587012
Au	 -20.36467530	 -20.36467530	 -4.07293506
Au	 -20.36467530	 -18.32820777	 -2.03646753
Au	 -18.32820777	 -20.36467530	 -2.03646753
No	 -18.32820777	 -18.32820777	 -4.07293506
Au	 -20.36467530	 -20.36467530	 -0.00000000
Au	 -20.36467530	 -18.32820777	 2.03646753
Au	 -18.32820777	 -20.36467530	 2.03646753
No	 -18.32820777	 -18.32820777	 -0.00000000
Au	 -20.36467530	 -20.36467530	 4.07293506
Au	 -20.36467530	 -18.32820777	 6.10940259
Au	 -18.32820777	 -20.36467530	 6.10940259
No	 -18.32820777	 -18.32820777	 4.07293506
Au	 -20.36467530	 -20.36467530	 8.14587012
Au	 -20.36467530	 -18.32820777	 10.18233765
Au	 -18.32820777	 -20.36467530	 10.18233765
No	 -18.32820777	 -18.32820777	 8.14587012
Au	 -20.36467530	 -20.36467530	 12.21880518
Au	 -20.36467530	 -18.32820777	 14.25527271
Au	 -18.32820777	 -20.36467530	 14.25527271
No	 -18.32820777	 -18.32820777	 12.21880518
Au	 -20.36467530	 -20.36467530	 16.29174024
Au	 -20.36467530	 -18.32820777	 18.32820777
Au	 -18.32820777	 -20.36467530	 18.32820777
No	 -18.32820777	 -18.32820777	 16.29174024
Au	 -20.36467530	 -16.29174024	 -20.36467530
Au	 -20.36467530	 -14.25527271	 -18.32820777
No	 -18.32820777	 -16.29174024	 -18.32820777
Au	 -18.32820777	 -14.25527271	 -20.36467530
Au	 -20.36467530	 -16.29174024	 -16.29174024
Au	 -20.36467530	 -14.25527271	 -14.25527271
No	 -18.32820777	 -16.29174024	 -14.25527271
No	 -18.32820777	 -14.25527271	 -16.29174024
Au	 -20.36467530	 -16.29174024	 -12.21880518
Au	 -20.36467530	 -14.25527271	 -10.18233765
No	 -18.32820777	 -16.29174024	 -10.18233765
No	 -18.32820777	 -14.25527271	 -12.21880518
Au	 -20.36467530	 -16.29174024	 -8.14587012
Au	 -20.36467530	 -14.25527271	 -6.10940259
No	 -18.32820777	 -16.29174024	 -6.10940259
No	 -18.32820777	 -14.25527271	 -8.14587012
Au	 -20.36467530	 -16.29174024	 -4.07293506
Au	 -20.36467530	 -14.25527271	 -2.03646753
No	 -18.32820777	 -16.29174024	 -2.03646753
No	 -18.32820777	 -14.25527271	 -4.07293506
Au	 -20.36467530	 -16.29174024	 -0.00000000
Au	 -20.36467530	 -14.25527271	 2.03646753
No	 -18.32820777	 -16.29174024	 2.03646753
No	 -18.32820777	 -14.25527271	 -0.00000000
Au	 -20.36467530	 -16.29174024	 4.07293506
Au	 -20.36467530	 -14.25527271	 6.10940259
No	 -18.32820777	 -16.29174024	 6.10940259
No	 -18.32820777	 -14.25527271	 4.07293506
Au	 -20.36467530	 -16.29174024	 8.14587012
Au	 -20.36467530	 -14.25527271	 10.18233765
No	 -18.32820777	 -16.29174024	 10.18233765
No	 -18.32820777	 -14.25527271	 8.14587012
Au	 -20.36467530	 -16.29174024	 12.21880518
Au	 -20.36467530	 -14.25527271	 14.25527271
No	 -18.32820777	 -16.29174024	 14.25527271
No	 -18.32820777	 -14.25527271	 12.21880518
Au	 -20.36467530	 -16.29174024	 16.29174024
Au	 -20.36467530	 -14.25527271	 18.32820777
No	 -18.32820777	 -16.29174024	 18.32820777
No	 -18.32820777	 -14.25527271	 16.29174024
Au	 -20.36467530	 -12.21880518	 -20.36467530
Au	 -20.36467530	 -10.18233765	 -18.32820777
No	 -18.32820777	 -12.21880518	 -18.32820777
Au	 -18.32820777	 -10.18233765	 -20.36467530
Au	 -20.36467530	 -12.21880518	 -16.29174024
Au	 -20.36467530	 -10.18233765	 -14.25527271
No	 -18.32820777	 -12.21880518	 -14.25527271
No	 -18.32820777	 -10.18233765	 -16.29174024
Au	 -20.36467530	 -12.21880518	 -12.21880518
Au	 -20.36467530	 -10.18233765	 -10.18233765
No	 -18.32820777	 -12.21880518	 -10.18233765
No	 -18.32820777	 -10.18233765	 -12.21880518
Au	 -20.36467530	 -12.21880518	 -8.14587012
Au	 -20.36467530	 -10.18233765	 -6.10940259
No	 -18.32820777	 -12.21880518	 -6.10940259
No	 -18.32820777	 -10.18233765	 -8.14587012
Au	 -20.36467530	 -12.21880518	 -4.07293506
Au	 -20.36467530	 -10.18233765	 -2.03646753
No	 -18.32820777	 -12.21880518	 -2.03646753
No	 -18.32820777	 -10.18233765	 -4.07293506
Au	 -20.36467530	 -12.21880518	 -0.00000000
Au	 -20.36467530	 -10.18233765	 2.03646753
No	 -18.32820777	 -12.21880518	 2.03646753
No	 -18.32820777	 -10.18233765	 -0.00000000
Au	 -20.36467530	 -12.21880518	 4.07293506
Au	 -20.36467530	 -10.18233765	 6.10940259
No	 -18.32820777	 -12.21880518	 6.10940259
No	 -18.32820777	 -10.18233765	 4.07293506
Au	 -20.36467530	 -12.21880518	 8.14587012
Au	 -20.36467530	 -10.18233765	 10.18233765
No	 -18.32820777	 -12.21880518	 10.18233765
No	 -18.32820777	 -10.18233765	 8.14587012
Au	 -20.36467530	 -12.21880518	 12.21880518
Au	 -20.36467530	 -10.18233765	 14.25527271
No	 -18.32820777	 -12.21880518	 14.25527271
No	 -18.32820777	 -10.18233765	 12.21880518
Au	 -20.36467530	 -12.21880518	 16.29174024
Au	 -20.36467530	 -10.18233765	 18.32820777
No	 -18.32820777	 -12.21880518	 18.32820777
No	 -18.32820777	 -10.18233765	 16.29174024
Au	 -20.36467530	 -8.14587012	 -20.36467530
Au	 -20.36467530	 -6.10940259	 -18.32820777
No	 -18.32820777	 -8.14587012	 -18.32820777
Au	 -18.32820777	 -6.10940259	 -20.36467530
Au	 -20.36467530	 -8.14587012	 -16.29174024
Au	 -20.36467530	 -6.10940259	 -14.25527271
No	 -18.32820777	 -8.14587012	 -14.25527271
No	 -18.32820777	 -6.10940259	 -16.29174024
Au	 -20.36467530	 -8.14587012	 -12.21880518
Au	 -20.36467530	 -6.10940259	 -10.18233765
No	 -18.32820777	 -8.14587012	 -10.18233765
No	 -18.32820777	 -6.10940259	 -12.21880518
Au	 -20.36467530	 -8.14587012	 -8.14587012
Au	 -20.36467530	 -6.10940259	 -6.10940259
No	 -18.32820777	 -8.14587012	 -6.10940259
No	 -18.32820777	 -6.10940259	 -8.14587012
Au	 -20.36467530	 -8.14587012	 -4.07293506
Au	 -20.36467530	 -6.10940259	 -2.03646753
No	 -18.32820777	 -8.14587012	 -2.03646753
No	 -18.32820777	 -6.10940259	 -4.07293506
Au	 -20.36467530	 -8.14587012	 -0.00000000
Au	 -20.36467530	 -6.10940259	 2.03646753
No	 -18.32820777	 -8.14587012	 2.03646753
No	 -18.32820777	 -6.10940259	 -0.00000000
Au	 -20.36467530	 -8.14587012	 4.07293506
Au	 -20.36467530	 -6.10940259	 6.10940259
No	 -18.32820777	 -8.14587012	 6.10940259
No	 -18.32820777	 -6.10940259	 4.07293506
Au	 -20.36467530	 -8.14587012	 8.14587012
Au	 -20.36467530	 -6.10940259	 10.18233765
No	 -18.32820777	 -8.14587012	 10.18233765
No	 -18.32820777	 -6.10940259	 8.14587012
Au	 -20.36467530	 -8.14587012	 12.21880518
Au	 -20.36467530	 -6.10940259	 14.25527271
No	 -18.32820777	 -8.14587012	 14.25527271
No	 -18.32820777	 -6.10940259	 12.21880518
Au	 -20.36467530	 -8.14587012	 16.29174024
Au	 -20.36467530	 -6.10940259	 18.32820777
No	 -18.32820777	 -8.14587012	 18.32820777
No	 -18.32820777	 -6.10940259	 16.29174024
Au	 -20.36467530	 -4.07293506	 -20.36467530
Au	 -20.36467530	 -2.03646753	 -18.32820777
No	 -18.32820777	 -4.07293506	 -18.32820777
Au	 -18.32820777	 -2.03646753	 -20.36467530
Au	 -20.36467530	 -4.07293506	 -16.29174024
Au	 -20.36467530	 -2.03646753	 -14.25527271
No	 -18.32820777	 -4.07293506	 -14.25527271
No	 -18.32820777	 -2.03646753	 -16.29174024
Au	 -20.36467530	 -4.07293506	 -12.21880518
Au	 -20.36467530	 -2.03646753	 -10.18233765
No	 -18.32820777	 -4.07293506	 -10.18233765
No	 -18.32820777	 -2.03646753	 -12.21880518
Au	 -20.36467530	 -4.07293506	 -8.14587012
Au	 -20.36467530	 -2.03646753	 -6.10940259
No	 -18.32820777	 -4.07293506	 -6.10940259
No	 -18.32820777	 -2.03646753	 -8.14587012
Au	 -20.36467530	 -4.07293506	 -4.07293506
Au	 -20.36467530	 -2.03646753	 -2.03646753
No	 -18.32820777	 -4.07293506	 -2.03646753
No	 -18.32820777	 -2.03646753	 -4.07293506
Au	 -20.36467530	 -4.07293506	 -0.00000000
Au	 -20.36467530	 -2.03646753	 2.03646753
No	 -18.32820777	 -4.07293506	 2.03646753
No	 -18.32820777	 -2.03646753	 -0.00000000
Au	 -20.36467530	 -4.07293506	 4.07293506
Au	 -20.36467530	 -2.03646753	 6.10940259
No	 -18.32820777	 -4.07293506	 6.10940259
No	 -18.32820777	 -2.03646753	 4.07293506
Au	 -20.36467530	 -4.07293506	 8.14587012
Au	 -20.36467530	 -2.03646753	 10.18233765
No	 -18.32820777	 -4.07293506	 10.18233765
No	 -18.32820777	 -2.03646753	 8.14587012
Au	 -20.36467530	 -4.07293506	 12.21880518
Au	 -20.36467530	 -2.03646753	 14.25527271
No	 -18.32820777	 -4.07293506	 14.25527271
No	 -18.32820777	 -2.03646753	 12.21880518
Au	 -20.36467530	 -4.07293506	 16.29174024
Au	 -20.36467530	 -2.03646753	 18.32820777
No	 -18.32820777	 -4.07293506	 18.32820777
No	 -18.32820777	 -2.03646753	 16.29174024
Au	 -20.36467530	 0.00000000	 -20.36467530
Au	 -20.36467530	 2.03646753	 -18.32820777
No	 -18.32820777	 0.00000000	 -18.32820777
Au	 -18.32820777	 2.03646753	 -20.36467530
Au	 -20.36467530	 0.00000000	 -16.29174024
Au	 -20.36467530	 2.03646753	 -14.25527271
No	 -18.32820777	 0.00000000	 -14.25527271
No	 -18.32820777	 2.03646753	 -16.29174024
Au	 -20.36467530	 0.00000000	 -12.21880518
Au	 -20.36467530	 2.03646753	 -10.18233765
No	 -18.32820777	 0.00000000	 -10.18233765
No	 -18.32820777	 2.03646753	 -12.21880518
Au	 -20.36467530	 0.00000000	 -8.14587012
Au	 -20.36467530	 2.03646753	 -6.10940259
No	 -18.32820777	 0.00000000	 -6.10940259
No	 -18.32820777	 2.03646753	 -8.14587012
Au	 -20.36467530	 0.00000000	 -4.07293506
Au	 -20.36467530	 2.03646753	 -2.03646753
No	 -18.32820777	 0.00000000	 -2.03646753
No	 -18.32820777	 2.03646753	 -4.07293506
Au	 -20.36467530	 0.00000000	 -0.00000000
Au	 -20.36467530	 2.03646753	 2.03646753
No	 -18.32820777	 0.00000000	 2.03646753
No	 -18.32820777	 2.03646753	 -0.00000000
Au	 -20.36467530	 0.00000000	 4.07293506
Au	 -20.36467530	 2.03646753	 6.10940259
No	 -18.32820777	 0.00000000	 6.10940259
No	 -18.32820777	 2.03646753	 4.07293506
Au	 -20.36467530	 0.00000000	 8.14587012
Au	 -20.36467530	 2.03646753	 10.18233765
No	 -18.32820777	 0.00000000	 10.18233765
No	 -18.32820777	 2.03646753	 8.14587012
Au	 -20.36467530	 0.00000000	 12.21880518
Au	 -20.36467530	 2.03646753	 14.25527271
No	 -18.32820777	 0.00000000	 14.25527271
No	 -18.32820777	 2.03646753	 12.21880518
Au	 -20.36467530	 0.00000000	 16.29174024
Au	 -20.36467530	 2.03646753	 18.32820777
No	 -18.32820777	 0.00000000	 18.32820777
No	 -18.32820777	 2.03646753	 16.29174024
Au	 -20.36467530	 4.07293506	 -20.36467530
Au	 -20.36467530	 6.10940259	 -18.32820777
No	 -18.32820777	 4.07293506	 -18.32820777
Au	 -18.32820777	 6.10940259	 -20.36467530
Au	 -20.36467530	 4.07293506	 -16.29174024
Au	 -20.36467530	 6.10940259	 -14.25527271
No	 -18.32820777	 4.07293506	 -14.25527271
No	 -18.32820777	 6.10940259	 -16.29174024
Au	 -20.36467530	 4.07293506	 -12.21880518
Au	 -20.36467530	 6.10940259	 -10.18233765
No	 -18.32820777	 4.07293506	 -10.18233765
No	 -18.32820777	 6.10940259	 -12.21880518
Au	 -20.36467530	 4.07293506	 -8.14587012
Au	 -20.36467530	 6.10940259	 -6.10940259
No	 -18.32820777	 4.07293506	 -6.10940259
No	 -18.32820777	 6.10940259	 -8.14587012
Au	 -20.36467530	 4.07293506	 -4.07293506
Au	 -20.36467530	 6.10940259	 -2.03646753
No	 -18.32820777	 4.07293506	 -2.03646753
No	 -18.32820777	 6.10940259	 -4.07293506
Au	 -20.36467530	 4.07293506	 -0.00000000
Au	 -20.36467530	 6.10940259	 2.03646753
No	 -18.32820777	 4.07293506	 2.03646753
No	 -18.32820777	 6.10940259	 -0.00000000
Au	 -20.36467530	 4.07293506	 4.07293506
Au	 -20.36467530	 6.10940259	 6.10940259
No	 -18.32820777	 4.07293506	 6.10940259
No	 -18.32820777	 6.10940259	 4.07293506
Au	 -20.36467530	 4.07293506	 8.14587012
Au	 -20.36467530	 6.10940259	 10.18233765
No	 -18.32820777	 4.07293506	 10.18233765
No	 -18.32820777	 6.10940259	 8.14587012
Au	 -20.36467530	 4.07293506	 12.21880518
Au	 -20.36467530	 6.10940259	 14.25527271
No	 -18.32820777	 4.07293506	 14.25527271
No	 -18.32820777	 6.10940259	 12.21880518
Au	 -20.36467530	 4.07293506	 16.29174024
Au	 -20.36467530	 6.10940259	 18.32820777
No	 -18.32820777	 4.07293506	 18.32820777
No	 -18.32820777	 6.10940259	 16.29174024
Au	 -20.36467530	 8.14587012	 -20.36467530
Au	 -20.36467530	 10.18233765	 -18.32820777
No	 -18.32820777	 8.14587012	 -18.32820777
Au	 -18.32820777	 10.18233765	 -20.36467530
Au	 -20.36467530	 8.14587012	 -16.29174024
Au	 -20.36467530	 10.18233765	 -14.25527271
No	 -18.32820777	 8.14587012	 -14.25527271
No	 -18.32820777	 10.18233765	 -16.29174024
Au	 -20.36467530	 8.14587012	 -12.21880518
Au	 -20.36467530	 10.18233765	 -10.18233765
No	 -18.32820777	 8.14587012	 -10.18233765
No	 -18.32820777	 10.18233765	 -12.21880518
Au	 -20.36467530	 8.14587012	 -8.14587012
Au	 -20.36467530	 10.18233765	 -6.10940259
No	 -18.32820777	 8.14587012	 -6.10940259
No	 -18.32820777	 10.18233765	 -8.14587012
Au	 -20.36467530	 8.14587012	 -4.07293506
Au	 -20.36467530	 10.18233765	 -2.03646753
No	 -18.32820777	 8.14587012	 -2.03646753
No	 -18.32820777	 10.18233765	 -4.07293506
Au	 -20.36467530	 8.14587012	 -0.00000000
Au	 -20.36467530	 10.18233765	 2.03646753
No	 -18.32820777	 8.14587012	 2.03646753
No	 -18.32820777	 10.18233765	 -0.00000000
Au	 -20.36467530	 8.14587012	 4.07293506
Au	 -20.36467530	 10.18233765	 6.10940259
No	 -18.32820777	 8.14587012	 6.10940259
No	 -18.32820777	 10.18233765	 4.07293506
Au	 -20.36467530	 8.14587012	 8.14587012
Au	 -20.36467530	 10.18233765	 10.18233765
No	 -18.32820777	 8.14587012	 10.18233765
No	 -18.32820777	 10.18233765	 8.14587012
Au	 -20.36467530	 8.14587012	 12.21880518
Au	 -20.36467530	 10.18233765	 14.25527271
No	 -18.32820777	 8.14587012	 14.25527271
No	 -18.32820777	 10.18233765	 12.21880518
Au	 -20.36467530	 8.14587012	 16.29174024
Au	 -20.36467530	 10.18233765	 18.32820777
No	 -18.32820777	 8.14587012	 18.32820777
No	 -18.32820777	 10.18233765	 16.29174024
Au	 -20.36467530	 12.21880518	 -20.36467530
Au	 -20.36467530	 14.25527271	 -18.32820777
No	 -18.32820777	 12.21880518	 -18.32820777
Au	 -18.32820777	 14.25527271	 -20.36467530
Au	 -20.36467530	 12.21880518	 -16.29174024
Au	 -20.36467530	 14.25527271	 -14.25527271
No	 -18.32820777	 12.21880518	 -14.25527271
No	 -18.32820777	 14.25527271	 -16.29174024
Au	 -20.36467530	 12.21880518	 -12.21880518
Au	 -20.36467530	 14.25527271	 -10.18233765
No	 -18.32820777	 12.21880518	 -10.18233765
No	 -18.32820777	 14.25527271	 -12.21880518
Au	 -20.36467530	 12.21880518	 -8.14587012
Au	 -20.36467530	 14.25527271	 -6.10940259
No	 -18.32820777	 12.21880518	 -6.10940259
No	 -18.32820777	 14.25527271	 -8.14587012
Au	 -20.36467530	 12.21880518	 -4.07293506
Au	 -20.36467530	 14.25527271	 -2.03646753
No	 -18.32820777	 12.21880518	 -2.03646753
No	 -18.32820777	 14.25527271	 -4.07293506
Au	 -20.36467530	 12.21880518	 -0.00000000
Au	 -20.36467530	 14.25527271	 2.03646753
No	 -18.32820777	 12.21880518	 2.03646753
No	 -18.32820777	 14.25527271	 -0.00000000
Au	 -20.36467530	 12.21880518	 4.07293506
Au	 -20.36467530	 14.25527271	 6.10940259
No	 -18.32820777	 12.21880518	 6.10940259
No	 -18.32820777	 14.25527271	 4.07293506
Au	 -20.36467530	 12.21880518	 8.14587012
Au	 -20.36467530	 14.25527271	 10.18233765
No	 -18.32820777	 12.21880518	 10.18233765
No	 -18.32820777	 14.25527271	 8.14587012
Au	 -20.36467530	 12.21880518	 12.21880518
Au	 -20.36467530	 14.25527271	 14.25527271
No	 -18.32820777	 12.21880518	 14.25527271
No	 -18.32820777	 14.25527271	 12.21880518
Au	 -20.36467530	 12.21880518	 16.29174024
Au	 -20.36467530	 14.25527271	 18.32820777
No	 -18.32820777	 12.21880518	 18.32820777
No	 -18.32820777	 14.25527271	 16.29174024
Au	 -20.36467530	 16.29174024	 -20.36467530
Au	 -20.36467530	 18.32820777	 -18.32820777
No	 -18.32820777	 16.29174024	 -18.32820777
Au	 -18.32820777	 18.32820777	 -20.36467530
Au	 -20.36467530	 16.29174024	 -16.29174024
Au	 -20.36467530	 18.32820777	 -14.25527271
No	 -18.32820777	 16.29174024	 -14.25527271
No	 -18.32820777	 18.32820777	 -16.29174024
Au	 -20.36467530	 16.29174024	 -12.21880518
Au	 -20.36467530	 18.32820777	 -10.18233765
No	 -18.32820777	 16.29174024	 -10.18233765
No	 -18.32820777	 18.32820777	 -12.21880518
Au	 -20.36467530	 16.29174024	 -8.14587012
Au	 -20.36467530	 18.32820777	 -6.10940259
No	 -18.32820777	 16.29174024	 -6.10940259
No	 -18.32820777	 18.32820777	 -8.14587012
Au	 -20.36467530	 16.29174024	 -4.07293506
Au	 -20.36467530	 18.32820777	 -2.03646753
No	 -18.32820777	 16.29174024	 -2.03646753
No	 -18.32820777	 18.32820777	 -4.07293506
Au	 -20.36467530	 16.29174024	 -0.00000000
Au	 -20.36467530	 18.32820777	 2.03646753
No	 -18.32820777	 16.29174024	 2.03646753
No	 -18.32820777	 18.32820777	 -0.00000000
Au	 -20.36467530	 16.29174024	 4.07293506
Au	 -20.36467530	 18.32820777	 6.10940259
No	 -18.32820777	 16.29174024	 6.10940259
No	 -18.32820777	 18.32820777	 4.07293506
Au	 -20.36467530	 16.29174024	 8.14587012
Au	 -20.36467530	 18.32820777	 10.18233765
No	 -18.32820777	 16.29174024	 10.18233765
No	 -18.32820777	 18.32820777	 8.14587012
Au	 -20.36467530	 16.29174024	 12.21880518
Au	 -20.36467530	 18.32820777	 14.25527271
No	 -18.32820777	 16.29174024	 14.25527271
No	 -18.32820777	 18.32820777	 12.21880518
Au	 -20.36467530	 16.29174024	 16.29174024
Au	 -20.36467530	 18.32820777	 18.32820777
No	 -18.32820777	 16.29174024	 18.32820777
No	 -18.32820777	 18.32820777	 16.29174024
Au	 -16.29174024	 -20.36467530	 -20.36467530
No	 -16.29174024	 -18.32820777	 -18.32820777
Au	 -14.25527271	 -20.36467530	 -18.32820777
Au	 -14.25527271	 -18.32820777	 -20.36467530
Au	 -16.29174024	 -20.36467530	 -16.29174024
No	 -16.29174024	 -18.32820777	 -14.25527271
Au	 -14.25527271	 -20.36467530	 -14.25527271
No	 -14.25527271	 -18.32820777	 -16.29174024
Au	 -16.29174024	 -20.36467530	 -12.21880518
No	 -16.29174024	 -18.32820777	 -10.18233765
Au	 -14.25527271	 -20.36467530	 -10.18233765
No	 -14.25527271	 -18.32820777	 -12.21880518
Au	 -16.29174024	 -20.36467530	 -8.14587012
No	 -16.29174024	 -18.32820777	 -6.10940259
Au	 -14.25527271	 -20.36467530	 -6.10940259
No	 -14.25527271	 -18.32820777	 -8.14587012
Au	 -16.29174024	 -20.36467530	 -4.07293506
No	 -16.29174024	 -18.32820777	 -2.03646753
Au	 -14.25527271	 -20.36467530	 -2.03646753
No	 -14.25527271	 -18.32820777	 -4.07293506
Au	 -16.29174024	 -20.36467530	 -0.00000000
No	 -16.29174024	 -18.32820777	 2.03646753
Au	 -14.25527271	 -20.36467530	 2.03646753
No	 -14.25527271	 -18.32820777	 -0.00000000
Au	 -16.29174024	 -20.36467530	 4.07293506
No	 -16.29174024	 -18.32820777	 6.10940259
Au	 -14.25527271	 -20.36467530	 6.10940259
No	 -14.25527271	 -18.32820777	 4.07293506
Au	 -16.29174024	 -20.36467530	 8.14587012
No	 -16.29174024	 -18.32820777	 10.18233765
Au	 -14.25527271	 -20.36467530	 10.18233765
No	 -14.25527271	 -18.32820777	 8.14587012
Au	 -16.29174024	 -20.36467530	 12.21880518
No	 -16.29174024	 -18.32820777	 14.25527271
Au	 -14.25527271	 -20.36467530	 14.25527271
No	 -14.25527271	 -18.32820777	 12.21880518
Au	 -16.29174024	 -20.36467530	 16.29174024
No	 -16.29174024	 -18.32820777	 18.32820777
Au	 -14.25527271	 -20.36467530	 18.32820777
No	 -14.25527271	 -18.32820777	 16.29174024
Au	 -16.29174024	 -16.29174024	 -20.36467530
No	 -16.29174024	 -14.25527271	 -18.32820777
No	 -14.25527271	 -16.29174024	 -18.32820777
Au	 -14.25527271	 -14.25527271	 -20.36467530
No	 -16.29174024	 -16.29174024	 -16.29174024
No	 -16.29174024	 -14.25527271	 -14.25527271
No	 -14.25527271	 -16.29174024	 -14.25527271
No	 -14.25527271	 -14.25527271	 -16.29174024
No	 -16.29174024	 -16.29174024	 -12.21880518
No	 -16.29174024	 -14.25527271	 -10.18233765
No	 -14.25527271	 -16.29174024	 -10.18233765
No	 -14.25527271	 -14.25527271	 -12.21880518
No	 -16.29174024	 -16.29174024	 -8.14587012
No	 -16.29174024	 -14.25527271	 -6.10940259
No	 -14.25527271	 -16.29174024	 -6.10940259
No	 -14.25527271	 -14.25527271	 -8.14587012
No	 -16.29174024	 -16.29174024	 -4.07293506
No	 -16.29174024	 -14.25527271	 -2.03646753
No	 -14.25527271	 -16.29174024	 -2.03646753
No	 -14.25527271	 -14.25527271	 -4.07293506
No	 -16.29174024	 -16.29174024	 -0.00000000
No	 -16.29174024	 -14.25527271	 2.03646753
No	 -14.25527271	 -16.29174024	 2.03646753
No	 -14.25527271	 -14.25527271	 -0.00000000
No	 -16.29174024	 -16.29174024	 4.07293506
No	 -16.29174024	 -14.25527271	 6.10940259
No	 -14.25527271	 -16.29174024	 6.10940259
No	 -14.25527271	 -14.25527271	 4.07293506
No	 -16.29174024	 -16.29174024	 8.14587012
No	 -16.29174024	 -14.25527271	 10.18233765
No	 -14.25527271	 -16.29174024	 10.18233765
No	 -14.25527271	 -14.25527271	 8.14587012
No	 -16.29174024	 -16.29174024	 12.21880518
No	 -16.29174024	 -14.25527271	 14.25527271
No	 -14.25527271	 -16.29174024	 14.25527271
No	 -14.25527271	 -14.25527271	 12.21880518
No	 -16.29174024	 -16.29174024	 16.29174024
No	 -16.29174024	 -14.25527271	 18.32820777
No	 -14.25527271	 -16.29174024	 18.32820777
No	 -14.25527271	 -14.25527271	 16.29174024
Au	 -16.29174024	 -12.21880518	 -20.36467530
No	 -16.29174024	 -10.18233765	 -18.32820777
No	 -14.25527271	 -12.21880518	 -18.32820777
Au	 -14.25527271	 -10.18233765	 -20.36467530
No	 -16.29174024	 -12.21880518	 -16.29174024
No	 -16.29174024	 -10.18233765	 -14.25527271
No	 -14.25527271	 -12.21880518	 -14.25527271
No	 -14.25527271	 -10.18233765	 -16.29174024
No	 -16.29174024	 -12.21880518	 -12.21880518
No	 -16.29174024	 -10.18233765	 -10.18233765
No	 -14.25527271	 -12.21880518	 -10.18233765
No	 -14.25527271	 -10.18233765	 -12.21880518
No	 -16.29174024	 -12.21880518	 -8.14587012
No	 -16.29174024	 -10.18233765	 -6.10940259
No	 -14.25527271	 -12.21880518	 -6.10940259
No	 -14.25527271	 -10.18233765	 -8.14587012
No	 -16.29174024	 -12.21880518	 -4.07293506
No	 -16.29174024	 -10.18233765	 -2.03646753
No	 -14.25527271	 -12.21880518	 -2.03646753
No	 -14.25527271	 -10.18233765	 -4.07293506
No	 -16.29174024	 -12.21880518	 -0.00000000
No	 -16.29174024	 -10.18233765	 2.03646753
No	 -14.25527271	 -12.21880518	 2.03646753
No	 -14.25527271	 -10.18233765	 -0.00000000
No	 -16.29174024	 -12.21880518	 4.07293506
No	 -16.29174024	 -10.18233765	 6.10940259
No	 -14.25527271	 -12.21880518	 6.10940259
No	 -14.25527271	 -10.18233765	 4.07293506
No	 -16.29174024	 -12.21880518	 8.14587012
No	 -16.29174024	 -10.18233765	 10.18233765
No	 -14.25527271	 -12.21880518	 10.18233765
No	 -14.25527271	 -10.18233765	 8.14587012
No	 -16.29174024	 -12.21880518	 12.21880518
No	 -16.29174024	 -10.18233765	 14.25527271
No	 -14.25527271	 -12.21880518	 14.25527271
No	 -14.25527271	 -10.18233765	 12.21880518
No	 -16.29174024	 -12.21880518	 16.29174024
No	 -16.29174024	 -10.18233765	 18.32820777
No	 -14.25527271	 -12.21880518	 18.32820777
No	 -14.25527271	 -10.18233765	 16.29174024
Au	 -16.29174024	 -8.14587012	 -20.36467530
No	 -16.29174024	 -6.10940259	 -18.32820777
No	 -14.25527271	 -8.14587012	 -18.32820777
Au	 -14.25527271	 -6.10940259	 -20.36467530
No	 -16.29174024	 -8.14587012	 -16.29174024
No	 -16.29174024	 -6.10940259	 -14.25527271
No	 -14.25527271	 -8.14587012	 -14.25527271
No	 -14.25527271	 -6.10940259	 -16.29174024
No	 -16.29174024	 -8.14587012	 -12.21880518
No	 -16.29174024	 -6.10940259	 -10.18233765
No	 -14.25527271	 -8.14587012	 -10.18233765
No	 -14.25527271	 -6.10940259	 -12.21880518
No	 -16.29174024	 -8.14587012	 -8.14587012
No	 -16.29174024	 -6.10940259	 -6.10940259
No	 -14.25527271	 -8.14587012	 -6.10940259
No	 -14.25527271	 -6.10940259	 -8.14587012
No	 -16.29174024	 -8.14587012	 -4.07293506
No	 -16.29174024	 -6.10940259	 -2.03646753
No	 -14.25527271	 -8.14587012	 -2.03646753
No	 -14.25527271	 -6.10940259	 -4.07293506
No	 -16.29174024	 -8.14587012	 -0.00000000
No	 -16.29174024	 -6.10940259	 2.03646753
No	 -14.25527271	 -8.14587012	 2.03646753
No	 -14.25527271	 -6.10940259	 -0.00000000
No	 -16.29174024	 -8.14587012	 4.07293506
No	 -16.29174024	 -6.10940259	 6.10940259
No	 -14.25527271	 -8.14587012	 6.10940259
No	 -14.25527271	 -6.10940259	 4.07293506
No	 -16.29174024	 -8.14587012	 8.14587012
No	 -16.29174024	 -6.10940259	 10.18233765
No	 -14.25527271	 -8.14587012	 10.18233765
No	 -14.25527271	 -6.10940259	 8.14587012
No	 -16.29174024	 -8.14587012	 12.21880518
No	 -16.29174024	 -6.10940259	 14.25527271
No	 -14.25527271	 -8.14587012	 14.25527271
No	 -14.25527271	 -6.10940259	 12.21880518
No	 -16.29174024	 -8.14587012	 16.29174024
No	 -16.29174024	 -6.10940259	 18.32820777
No	 -14.25527271	 -8.14587012	 18.32820777
No	 -14.25527271	 -6.10940259	 16.29174024
Au	 -16.29174024	 -4.07293506	 -20.36467530
No	 -16.29174024	 -2.03646753	 -18.32820777
No	 -14.25527271	 -4.07293506	 -18.32820777
Au	 -14.25527271	 -2.03646753	 -20.36467530
No	 -16.29174024	 -4.07293506	 -16.29174024
No	 -16.29174024	 -2.03646753	 -14.25527271
No	 -14.25527271	 -4.07293506	 -14.25527271
No	 -14.25527271	 -2.03646753	 -16.29174024
No	 -16.29174024	 -4.07293506	 -12.21880518
No	 -16.29174024	 -2.03646753	 -10.18233765
No	 -14.25527271	 -4.07293506	 -10.18233765
No	 -14.25527271	 -2.03646753	 -12.21880518
No	 -16.29174024	 -4.07293506	 -8.14587012
No	 -16.29174024	 -2.03646753	 -6.10940259
No	 -14.25527271	 -4.07293506	 -6.10940259
No	 -14.25527271	 -2.03646753	 -8.14587012
No	 -16.29174024	 -4.07293506	 -4.07293506
No	 -16.29174024	 -2.03646753	 -2.03646753
No	 -14.25527271	 -4.07293506	 -2.03646753
No	 -14.25527271	 -2.03646753	 -4.07293506
No	 -16.29174024	 -4.07293506	 -0.00000000
No	 -16.29174024	 -2.03646753	 2.03646753
No	 -14.25527271	 -4.07293506	 2.03646753
No	 -14.25527271	 -2.03646753	 -0.00000000
No	 -16.29174024	 -4.07293506	 4.07293506
No	 -16.29174024	 -2.03646753	 6.10940259
No	 -14.25527271	 -4.07293506	 6.10940259
No	 -14.25527271	 -2.03646753	 4.07293506
No	 -16.29174024	 -4.07293506	 8.14587012
No	 -16.29174024	 -2.03646753	 10.18233765
No	 -14.25527271	 -4.07293506	 10.18233765
No	 -14.25527271	 -2.03646753	 8.14587012
No	 -16.29174024	 -4.07293506	 12.21880518
No	 -16.29174024	 -2.03646753	 14.25527271
No	 -14.25527271	 -4.07293506	 14.25527271
No	 -14.25527271	 -2.03646753	 12.21880518
No	 -16.29174024	 -4.07293506	 16.29174024
No	 -16.29174024	 -2.03646753	 18.32820777
No	 -14.25527271	 -4.07293506	 18.32820777
No	 -14.25527271	 -2.03646753	 16.29174024
Au	 -16.29174024	 0.00000000	 -20.36467530
No	 -16.29174024	 2.03646753	 -18.32820777
No	 -14.25527271	 0.00000000	 -18.32820777
Au	 -14.25527271	 2.03646753	 -20.36467530
No	 -16.29174024	 0.00000000	 -16.29174024
No	 -16.29174024	 2.03646753	 -14.25527271
No	 -14.25527271	 0.00000000	 -14.25527271
No	 -14.25527271	 2.03646753	 -16.29174024
No	 -16.29174024	 0.00000000	 -12.21880518
No	 -16.29174024	 2.03646753	 -10.18233765
No	 -14.25527271	 0.00000000	 -10.18233765
No	 -14.25527271	 2.03646753	 -12.21880518
No	 -16.29174024	 0.00000000	 -8.14587012
No	 -16.29174024	 2.03646753	 -6.10940259
No	 -14.25527271	 0.00000000	 -6.10940259
No	 -14.25527271	 2.03646753	 -8.14587012
No	 -16.29174024	 0.00000000	 -4.07293506
No	 -16.29174024	 2.03646753	 -2.03646753
No	 -14.25527271	 0.00000000	 -2.03646753
No	 -14.25527271	 2.03646753	 -4.07293506
No	 -16.29174024	 0.00000000	 -0.00000000
No	 -16.29174024	 2.03646753	 2.03646753
No	 -14.25527271	 0.00000000	 2.03646753
No	 -14.25527271	 2.03646753	 -0.00000000
No	 -16.29174024	 0.00000000	 4.07293506
No	 -16.29174024	 2.03646753	 6.10940259
No	 -14.25527271	 0.00000000	 6.10940259
No	 -14.25527271	 2.03646753	 4.07293506
No	 -16.29174024	 0.00000000	 8.14587012
No	 -16.29174024	 2.03646753	 10.18233765
No	 -14.25527271	 0.00000000	 10.18233765
No	 -14.25527271	 2.03646753	 8.14587012
No	 -16.29174024	 0.00000000	 12.21880518
No	 -16.29174024	 2.03646753	 14.25527271
No	 -14.25527271	 0.00000000	 14.25527271
No	 -14.25527271	 2.03646753	 12.21880518
No	 -16.29174024	 0.00000000	 16.29174024
No	 -16.29174024	 2.03646753	 18.32820777
No	 -14.25527271	 0.00000000	 18.32820777
No	 -14.25527271	 2.03646753	 16.29174024
Au	 -16.29174024	 4.07293506	 -20.36467530
No	 -16.29174024	 6.10940259	 -18.32820777
No	 -14.25527271	 4.07293506	 -18.32820777
Au	 -14.25527271	 6.10940259	 -20.36467530
No	 -16.29174024	 4.07293506	 -16.29174024
No	 -16.29174024	 6.10940259	 -14.25527271
No	 -14.25527271	 4.07293506	 -14.25527271
No	 -14.25527271	 6.10940259	 -16.29174024
No	 -16.29174024	 4.07293506	 -12.21880518
No	 -16.29174024	 6.10940259	 -10.18233765
No	 -14.25527271	 4.07293506	 -10.18233765
No	 -14.25527271	 6.10940259	 -12.21880518
No	 -16.29174024	 4.07293506	 -8.14587012
No	 -16.29174024	 6.10940259	 -6.10940259
No	 -14.25527271	 4.07293506	 -6.10940259
No	 -14.25527271	 6.10940259	 -8.14587012
No	 -16.29174024	 4.07293506	 -4.07293506
No	 -16.29174024	 6.10940259	 -2.03646753
No	 -14.25527271	 4.07293506	 -2.03646753
No	 -14.25527271	 6.10940259	 -4.07293506
No	 -16.29174024	 4.07293506	 -0.00000000
No	 -16.29174024	 6.10940259	 2.03646753
No	 -14.25527271	 4.07293506	 2.03646753
No	 -14.25527271	 6.10940259	 -0.00000000
No	 -16.29174024	 4.07293506	 4.07293506
No	 -16.29174024	 6.10940259	 6.10940259
No	 -14.25527271	 4.07293506	 6.10940259
No	 -14.25527271	 6.10940259	 4.07293506
No	 -16.29174024	 4.07293506	 8.14587012
No	 -16.29174024	 6.10940259	 10.18233765
No	 -14.25527271	 4.07293506	 10.18233765
No	 -14.25527271	 6.10940259	 8.14587012
No	 -16.29174024	 4.07293506	 12.21880518
No	 -16.29174024	 6.10940259	 14.25527271
No	 -14.25527271	 4.07293506	 14.25527271
No	 -14.25527271	 6.10940259	 12.21880518
No	 -16.29174024	 4.07293506	 16.29174024
No	 -16.29174024	 6.10940259	 18.32820777
No	 -14.25527271	 4.07293506	 18.32820777
No	 -14.25527271	 6.10940259	 16.29174024
Au	 -16.29174024	 8.14587012	 -20.36467530
No	 -16.29174024	 10.18233765	 -18.32820777
No	 -14.25527271	 8.14587012	 -18.32820777
Au	 -14.25527271	 10.18233765	 -20.36467530
No	 -16.29174024	 8.14587012	 -16.29174024
No	 -16.29174024	 10.18233765	 -14.25527271
No	 -14.25527271	 8.14587012	 -14.25527271
No	 -14.25527271	 10.18233765	 -16.29174024
No	 -16.29174024	 8.14587012	 -12.21880518
No	 -16.29174024	 10.18233765	 -10.18233765
No	 -14.25527271	 8.14587012	 -10.18233765
No	 -14.25527271	 10.18233765	 -12.21880518
No	 -16.29174024	 8.14587012	 -8.14587012
No	 -16.29174024	 10.18233765	 -6.10940259
No	 -14.25527271	 8.14587012	 -6.10940259
No	 -14.25527271	 10.18233765	 -8.14587012
No	 -16.29174024	 8.14587012	 -4.07293506
No	 -16.29174024	 10.18233765	 -2.03646753
No	 -14.25527271	 8.14587012	 -2.03646753
No	 -14.25527271	 10.18233765	 -4.07293506
No	 -16.29174024	 8.14587012	 -0.00000000
No	 -16.29174024	 10.18233765	 2.03646753
No	 -14.25527271	 8.14587012	 2.03646753
No	 -14.25527271	 10.18233765	 -0.00000000
No	 -16.29174024	 8.14587012	 4.07293506
No	 -16.29174024	 10.18233765	 6.10940259
No	 -14.25527271	 8.14587012	 6.10940259
No	 -14.25527271	 10.18233765	 4.07293506
No	 -16.29174024	 8.14587012	 8.14587012
No	 -16.29174024	 10.18233765	 10.18233765
No	 -14.25527271	 8.14587012	 10.18233765
No	 -14.25527271	 10.18233765	 8.14587012
No	 -16.29174024	 8.14587012	 12.21880518
No	 -16.29174024	 10.18233765	 14.25527271
No	 -14.25527271	 8.14587012	 14.25527271
No	 -14.25527271	 10.18233765	 12.21880518
No	 -16.29174024	 8.14587012	 16.29174024
No	 -16.29174024	 10.18233765	 18.32820777
No	 -14.25527271	 8.14587012	 18.32820777
No	 -14.25527271	 10.18233765	 16.29174024
Au	 -16.29174024	 12.21880518	 -20.36467530
No	 -16.29174024	 14.25527271	 -18.32820777
No	 -14.25527271	 12.21880518	 -18.32820777
Au	 -14.25527271	 14.25527271	 -20.36467530
No	 -16.29174024	 12.21880518	 -16.29174024
No	 -16.29174024	 14.25527271	 -14.25527271
No	 -14.25527271	 12.21880518	 -14.25527271
No	 -14.25527271	 14.25527271	 -16.29174024
No	 -16.29174024	 12.21880518	 -12.21880518
No	 -16.29174024	 14.25527271	 -10.18233765
No	 -14.25527271	 12.21880518	 -10.18233765
No	 -14.25527271	 14.25527271	 -12.21880518
No	 -16.29174024	 12.21880518	 -8.14587012
No	 -16.29174024	 14.25527271	 -6.10940259
No	 -14.25527271	 12.21880518	 -6.10940259
No	 -14.25527271	 14.25527271	 -8.14587012
No	 -16.29174024	 12.21880518	 -4.07293506
No	 -16.29174024	 14.25527271	 -2.03646753
No	 -14.25527271	 12.21880518	 -2.03646753
No	 -14.25527271	 14.25527271	 -4.07293506
No	 -16.29174024	 12.21880518	 -0.00000000
No	 -16.29174024	 14.25527271	 2.03646753
No	 -14.25527271	 12.21880518	 2.03646753
No	 -14.25527271	 14.25527271	 -0.00000000
No	 -16.29174024	 12.21880518	 4.07293506
No	 -16.29174024	 14.25527271	 6.10940259
No	 -14.25527271	 12.21880518	 6.10940259
No	 -14.25527271	 14.25527271	 4.07293506
No	 -16.29174024	 12.21880518	 8.14587012
No	 -16.29174024	 14.25527271	 10.18233765
No	 -14.25527271	 12.21880518	 10.18233765
No	 -14.25527271	 14.25527271	 8.14587012
No	 -16.29174024	 12.21880518	 12.21880518
No	 -16.29174024	 14.25527271	 14.25527271
No	 -14.25527271	 12.21880518	 14.25527271
No	 -14.25527271	 14.25527271	 12.21880518
No	 -16.29174024	 12.21880518	 16.29174024
No	 -16.29174024	 14.25527271	 18.32820777
No	 -14.25527271	 12.21880518	 18.32820777
No	 -14.25527271	 14.25527271	 16.29174024
Au	 -16.29174024	 16.29174024	 -20.36467530
No	 -16.29174024	 18.32820777	 -18.32820777
No	 -14.25527271	 16.29174024	 -18.32820777
Au	 -14.25527271	 18.32820777	 -20.36467530
No	 -16.29174024	 16.29174024	 -16.29174024
No	 -16.29174024	 18.32820777	 -14.25527271
No	 -14.25527271	 16.29174024	 -14.25527271
No	 -14.25527271	 18.32820777	 -16.29174024
No	 -16.29174024	 16.29174024	 -12.21880518
No	 -16.29174024	 18.32820777	 -10.18233765
No	 -14.25527271	 16.29174024	 -10.18233765
No	 -14.25527271	 18.32820777	 -12.21880518
No	 -16.29174024	 16.29174024	 -8.14587012
No	 -16.29174024	 18.32820777	 -6.10940259
No	 -14.25527271	 16.29174024	 -6.10940259
No	 -14.25527271	 18.32820777	 -8.14587012
No	 -16.29174024	 16.29174024	 -4.07293506
No	 -16.29174024	 18.32820777	 -2.03646753
No	 -14.25527271	 16.29174024	 -2.03646753
No	 -14.25527271	 18.32820777	 -4.07293506
No	 -16.29174024	 16.29174024	 -0.00000000
No	 -16.29174024	 18.32820777	 2.03646753
No	 -14.25527271	 16.29174024	 2.03646753
No	 -14.25527271	 18.32820777	 -0.00000000
No	 -16.29174024	 16.29174024	 4.07293506
No	 -16.29174024	 18.32820777	 6.10940259
No	 -14.25527271	 16.29174024	 6.10940259
No	 -14.25527271	 18.32820777	 4.07293506
No	 -16.29174024	 16.29174024	 8.14587012
No	 -16.29174024	 18.32820777	 10.18233765
No	 -14.25527271	 16.29174024	 10.18233765
No	 -14.25527271	 18.32820777	 8.14587012
No	 -16.29174024	 16.29174024	 12.21880518
No	 -16.29174024	 18.32820777	 14.25527271
No	 -14.25527271	 16.29174024	 14.25527271
No	 -14.25527271	 18.32820777	 12.21880518
No	 -16.29174024	 16.29174024	 16.29174024
No	 -16.29174024	 18.32820777	 18.32820777
No	 -14.25527271	 16.29174024	 18.32820777
No	 -14.25527271	 18.32820777	 16.29174024
Au	 -12.21880518	 -20.36467530	 -20.36467530
No	 -12.21880518	 -18.32820777	 -18.32820777
Au	 -10.18233765	 -20.36467530	 -18.32820777
Au	 -10.18233765	 -18.32820777	 -20.36467530
Au	 -12.21880518	 -20.36467530	 -16.29174024
No	 -12.21880518	 -18.32820777	 -14.25527271
Au	 -10.18233765	 -20.36467530	 -14.25527271
No	 -10.18233765	 -18.32820777	 -16.29174024
Au	 -12.21880518	 -20.36467530	 -12.21880518
No	 -12.21880518	 -18.32820777	 -10.18233765
Au	 -10.18233765	 -20.36467530	 -10.18233765
No	 -10.18233765	 -18.32820777	 -12.21880518
Au	 -12.21880518	 -20.36467530	 -8.14587012
No	 -12.21880518	 -18.32820777	 -6.10940259
Au	 -10.18233765	 -20.36467530	 -6.10940259
No	 -10.18233765	 -18.32820777	 -8.14587012
Au	 -12.21880518	 -20.36467530	 -4.07293506
No	 -12.21880518	 -18.32820777	 -2.03646753
Au	 -10.18233765	 -20.36467530	 -2.03646753
No	 -10.18233765	 -18.32820777	 -4.07293506
Au	 -12.21880518	 -20.36467530	 -0.00000000
No	 -12.21880518	 -18.32820777	 2.03646753
Au	 -10.18233765	 -20.36467530	 2.03646753
No	 -10.18233765	 -18.32820777	 -0.00000000
Au	 -12.21880518	 -20.36467530	 4.07293506
No	 -12.21880518	 -18.32820777	 6.10940259
Au	 -10.18233765	 -20.36467530	 6.10940259
No	 -10.18233765	 -18.32820777	 4.07293506
Au	 -12.21880518	 -20.36467530	 8.14587012
No	 -12.21880518	 -18.32820777	 10.18233765
Au	 -10.18233765	 -20.36467530	 10.18233765
No	 -10.18233765	 -18.32820777	 8.14587012
Au	 -12.21880518	 -20.36467530	 12.21880518
No	 -12.21880518	 -18.32820777	 14.25527271
Au	 -10.18233765	 -20.36467530	 14.25527271
No	 -10.18233765	 -18.32820777	 12.21880518
Au	 -12.21880518	 -20.36467530	 16.29174024
No	 -12.21880518	 -18.32820777	 18.32820777
Au	 -10.18233765	 -20.36467530	 18.32820777
No	 -10.18233765	 -18.32820777	 16.29174024
Au	 -12.21880518	 -16.29174024	 -20.36467530
No	 -12.21880518	 -14.25527271	 -18.32820777
No	 -10.18233765	 -16.29174024	 -18.32820777
Au	 -10.18233765	 -14.25527271	 -20.36467530
No	 -12.21880518	 -16.29174024	 -16.29174024
No	 -12.21880518	 -14.25527271	 -14.25527271
No	 -10.18233765	 -16.29174024	 -14.25527271
No	 -10.18233765	 -14.25527271	 -16.29174024
No	 -12.21880518	 -16.29174024	 -12.21880518
No	 -12.21880518	 -14.25527271	 -10.18233765
No	 -10.18233765	 -16.29174024	 -10.18233765
No	 -10.18233765	 -14.25527271	 -12.21880518
No	 -12.21880518	 -16.29174024	 -8.14587012
No	 -12.21880518	 -14.25527271	 -6.10940259
No	 -10.18233765	 -16.29174024	 -6.10940259
No	 -10.18233765	 -14.25527271	 -8.14587012
No	 -12.21880518	 -16.29174024	 -4.07293506
No	 -12.21880518	 -14.25527271	 -2.03646753
No	 -10.18233765	 -16.29174024	 -2.03646753
No	 -10.18233765	 -14.25527271	 -4.07293506
No	 -12.21880518	 -16.29174024	 -0.00000000
No	 -12.21880518	 -14.25527271	 2.03646753
No	 -10.18233765	 -16.29174024	 2.03646753
No	 -10.18233765	 -14.25527271	 -0.00000000
No	 -12.21880518	 -16.29174024	 4.07293506
No	 -12.21880518	 -14.25527271	 6.10940259
No	 -10.18233765	 -16.29174024	 6.10940259
No	 -10.18233765	 -14.25527271	 4.07293506
No	 -12.21880518	 -16.29174024	 8.14587012
No	 -12.21880518	 -14.25527271	 10.18233765
No	 -10.18233765	 -16.29174024	 10.18233765
No	 -10.18233765	 -14.25527271	 8.14587012
No	 -12.21880518	 -16.29174024	 12.21880518
No	 -12.21880518	 -14.25527271	 14.25527271
No	 -10.18233765	 -16.29174024	 14.25527271
No	 -10.18233765	 -14.25527271	 12.21880518
No	 -12.21880518	 -16.29174024	 16.29174024
No	 -12.21880518	 -14.25527271	 18.32820777
No	 -10.18233765	 -16.29174024	 18.32820777
No	 -10.18233765	 -14.25527271	 16.29174024
Au	 -12.21880518	 -12.21880518	 -20.36467530
No	 -12.21880518	 -10.18233765	 -18.32820777
No	 -10.18233765	 -12.21880518	 -18.32820777
Au	 -10.18233765	 -10.18233765	 -20.36467530
No	 -12.21880518	 -12.21880518	 -16.29174024
No	 -12.21880518	 -10.18233765	 -14.25527271
No	 -10.18233765	 -12.21880518	 -14.25527271
No	 -10.18233765	 -10.18233765	 -16.29174024
No	 -12.21880518	 -12.21880518	 -12.21880518
No	 -12.21880518	 -10.18233765	 -10.18233765
No	 -10.18233765	 -12.21880518	 -10.18233765
No	 -10.18233765	 -10.18233765	 -12.21880518
No	 -12.21880518	 -12.21880518	 -8.14587012
No	 -12.21880518	 -10.18233765	 -6.10940259
No	 -10.18233765	 -12.21880518	 -6.10940259
No	 -10.18233765	 -10.18233765	 -8.14587012
No	 -12.21880518	 -12.21880518	 -4.07293506
No	 -12.21880518	 -10.18233765	 -2.03646753
No	 -10.18233765	 -12.21880518	 -2.03646753
No	 -10.18233765	 -10.18233765	 -4.07293506
No	 -12.21880518	 -12.21880518	 -0.00000000
No	 -12.21880518	 -10.18233765	 2.03646753
No	 -10.18233765	 -12.21880518	 2.03646753
No	 -10.18233765	 -10.18233765	 -0.00000000
No	 -12.21880518	 -12.21880518	 4.07293506
No	 -12.21880518	 -10.18233765	 6.10940259
No	 -10.18233765	 -12.21880518	 6.10940259
No	 -10.18233765	 -10.18233765	 4.07293506
No	 -12.21880518	 -12.21880518	 8.14587012
No	 -12.21880518	 -10.18233765	 10.18233765
No	 -10.18233765	 -12.21880518	 10.18233765
No	 -10.18233765	 -10.18233765	 8.14587012
No	 -12.21880518	 -12.21880518	 12.21880518
No	 -12.21880518	 -10.18233765	 14.25527271
No	 -10.18233765	 -12.21880518	 14.25527271
No	 -10.18233765	 -10.18233765	 12.21880518
No	 -12.21880518	 -12.21880518	 16.29174024
No	 -12.21880518	 -10.18233765	 18.32820777
No	 -10.18233765	 -12.21880518	 18.32820777
No	 -10.18233765	 -10.18233765	 16.29174024
Au	 -12.21880518	 -8.14587012	 -20.36467530
No	 -12.21880518	 -6.10940259	 -18.32820777
No	 -10.18233765	 -8.14587012	 -18.32820777
Au	 -10.18233765	 -6.10940259	 -20.36467530
No	 -12.21880518	 -8.14587012	 -16.29174024
No	 -12.21880518	 -6.10940259	 -14.25527271
No	 -10.18233765	 -8.14587012	 -14.25527271
No	 -10.18233765	 -6.10940259	 -16.29174024
No	 -12.21880518	 -8.14587012	 -12.21880518
No	 -12.21880518	 -6.10940259	 -10.18233765
No	 -10.18233765	 -8.14587012	 -10.18233765
No	 -10.18233765	 -6.10940259	 -12.21880518
No	 -12.21880518	 -8.14587012	 -8.14587012
No	 -12.21880518	 -6.10940259	 -6.10940259
No	 -10.18233765	 -8.14587012	 -6.10940259
No	 -10.18233765	 -6.10940259	 -8.14587012
No	 -12.21880518	 -8.14587012	 -4.07293506
No	 -12.21880518	 -6.10940259	 -2.03646753
No	 -10.18233765	 -8.14587012	 -2.03646753
No	 -10.18233765	 -6.10940259	 -4.07293506
No	 -12.21880518	 -8.14587012	 -0.00000000
No	 -12.21880518	 -6.10940259	 2.03646753
No	 -10.18233765	 -8.14587012	 2.03646753
No	 -10.18233765	 -6.10940259	 -0.00000000
No	 -12.21880518	 -8.14587012	 4.07293506
No	 -12.21880518	 -6.10940259	 6.10940259
No	 -10.18233765	 -8.14587012	 6.10940259
No	 -10.18233765	 -6.10940259	 4.07293506
No	 -12.21880518	 -8.14587012	 8.14587012
No	 -12.21880518	 -6.10940259	 10.18233765
No	 -10.18233765	 -8.14587012	 10.18233765
No	 -10.18233765	 -6.10940259	 8.14587012
No	 -12.21880518	 -8.14587012	 12.21880518
No	 -12.21880518	 -6.10940259	 14.25527271
No	 -10.18233765	 -8.14587012	 14.25527271
No	 -10.18233765	 -6.10940259	 12.21880518
No	 -12.21880518	 -8.14587012	 16.29174024
No	 -12.21880518	 -6.10940259	 18.32820777
No	 -10.18233765	 -8.14587012	 18.32820777
No	 -10.18233765	 -6.10940259	 16.29174024
Au	 -12.21880518	 -4.07293506	 -20.36467530
No	 -12.21880518	 -2.03646753	 -18.32820777
No	 -10.18233765	 -4.07293506	 -18.32820777
Au	 -10.18233765	 -2.03646753	 -20.36467530
No	 -12.21880518	 -4.07293506	 -16.29174024
No	 -12.21880518	 -2.03646753	 -14.25527271
No	 -10.18233765	 -4.07293506	 -14.25527271
No	 -10.18233765	 -2.03646753	 -16.29174024
No	 -12.21880518	 -4.07293506	 -12.21880518
No	 -12.21880518	 -2.03646753	 -10.18233765
No	 -10.18233765	 -4.07293506	 -10.18233765
No	 -10.18233765	 -2.03646753	 -12.21880518
No	 -12.21880518	 -4.07293506	 -8.14587012
No	 -12.21880518	 -2.03646753	 -6.10940259
No	 -10.18233765	 -4.07293506	 -6.10940259
No	 -10.18233765	 -2.03646753	 -8.14587012
No	 -12.21880518	 -4.07293506	 -4.07293506
No	 -12.21880518	 -2.03646753	 -2.03646753
No	 -10.18233765	 -4.07293506	 -2.03646753
No	 -10.18233765	 -2.03646753	 -4.07293506
No	 -12.21880518	 -4.07293506	 -0.00000000
No	 -12.21880518	 -2.03646753	 2.03646753
No	 -10.18233765	 -4.07293506	 2.03646753
No	 -10.18233765	 -2.03646753	 -0.00000000
No	 -12.21880518	 -4.07293506	 4.07293506
No	 -12.21880518	 -2.03646753	 6.10940259
No	 -10.18233765	 -4.07293506	 6.10940259
No	 -10.18233765	 -2.03646753	 4.07293506
No	 -12.21880518	 -4.07293506	 8.14587012
No	 -12.21880518	 -2.03646753	 10.18233765
No	 -10.18233765	 -4.07293506	 10.18233765
No	 -10.18233765	 -2.03646753	 8.14587012
No	 -12.21880518	 -4.07293506	 12.21880518
No	 -12.21880518	 -2.03646753	 14.25527271
No	 -10.18233765	 -4.07293506	 14.25527271
No	 -10.18233765	 -2.03646753	 12.21880518
No	 -12.21880518	 -4.07293506	 16.29174024
No	 -12.21880518	 -2.03646753	 18.32820777
No	 -10.18233765	 -4.07293506	 18.32820777
No	 -10.18233765	 -2.03646753	 16.29174024
Au	 -12.21880518	 0.00000000	 -20.36467530
No	 -12.21880518	 2.03646753	 -18.32820777
No	 -10.18233765	 0.00000000	 -18.32820777
Au	 -10.18233765	 2.03646753	 -20.36467530
No	 -12.21880518	 0.00000000	 -16.29174024
No	 -12.21880518	 2.03646753	 -14.25527271
No	 -10.18233765	 0.00000000	 -14.25527271
No	 -10.18233765	 2.03646753	 -16.29174024
No	 -12.21880518	 0.00000000	 -12.21880518
No	 -12.21880518	 2.03646753	 -10.18233765
No	 -10.18233765	 0.00000000	 -10.18233765
No	 -10.18233765	 2.03646753	 -12.21880518
No	 -12.21880518	 0.00000000	 -8.14587012
No	 -12.21880518	 2.03646753	 -6.10940259
No	 -10.18233765	 0.00000000	 -6.10940259
No	 -10.18233765	 2.03646753	 -8.14587012
No	 -12.21880518	 0.00000000	 -4.07293506
No	 -12.21880518	 2.03646753	 -2.03646753
No	 -10.18233765	 0.00000000	 -2.03646753
No	 -10.18233765	 2.03646753	 -4.07293506
No	 -12.21880518	 0.00000000	 -0.00000000
No	 -12.21880518	 2.03646753	 2.03646753
No	 -10.18233765	 0.00000000	 2.03646753
No	 -10.18233765	 2.03646753	 -0.00000000
No	 -12.21880518	 0.00000000	 4.07293506
No	 -12.21880518	 2.03646753	 6.10940259
No	 -10.18233765	 0.00000000	 6.10940259
No	 -10.18233765	 2.03646753	 4.07293506
No	 -12.21880518	 0.00000000	 8.14587012
No	 -12.21880518	 2.03646753	 10.18233765
No	 -10.18233765	 0.00000000	 10.18233765
No	 -10.18233765	 2.03646753	 8.14587012
No	 -12.21880518	 0.00000000	 12.21880518
No	 -12.21880518	 2.03646753	 14.25527271
No	 -10.18233765	 0.00000000	 14.25527271
No	 -10.18233765	 2.03646753	 12.21880518
No	 -12.21880518	 0.00000000	 16.29174024
No	 -12.21880518	 2.03646753	 18.32820777
No	 -10.18233765	 0.00000000	 18.32820777
No	 -10.18233765	 2.03646753	 16.29174024
Au	 -12.21880518	 4.07293506	 -20.36467530
No	 -12.21880518	 6.10940259	 -18.32820777
No	 -10.18233765	 4.07293506	 -18.32820777
Au	 -10.18233765	 6.10940259	 -20.36467530
No	 -12.21880518	 4.07293506	 -16.29174024
No	 -12.21880518	 6.10940259	 -14.25527271
No	 -10.18233765	 4.07293506	 -14.25527271
No	 -10.18233765	 6.10940259	 -16.29174024
No	 -12.21880518	 4.07293506	 -12.21880518
No	 -12.21880518	 6.10940259	 -10.18233765
No	 -10.18233765	 4.07293506	 -10.18233765
No	 -10.18233765	 6.10940259	 -12.21880518
No	 -12.21880518	 4.07293506	 -8.14587012
No	 -12.21880518	 6.10940259	 -6.10940259
No	 -10.18233765	 4.07293506	 -6.10940259
No	 -10.18233765	 6.10940259	 -8.14587012
No	 -12.21880518	 4.07293506	 -4.07293506
No	 -12.21880518	 6.10940259	 -2.03646753
No	 -10.18233765	 4.07293506	 -2.03646753
No	 -10.18233765	 6.10940259	 -4.07293506
No	 -12.21880518	 4.07293506	 -0.00000000
No	 -12.21880518	 6.10940259	 2.03646753
No	 -10.18233765	 4.07293506	 2.03646753
No	 -10.18233765	 6.10940259	 -0.00000000
No	 -12.21880518	 4.07293506	 4.07293506
No	 -12.21880518	 6.10940259	 6.10940259
No	 -10.18233765	 4.07293506	 6.10940259
No	 -10.18233765	 6.10940259	 4.07293506
No	 -12.21880518	 4.07293506	 8.14587012
No	 -12.21880518	 6.10940259	 10.18233765
No	 -10.18233765	 4.07293506	 10.18233765
No	 -10.18233765	 6.10940259	 8.14587012
No	 -12.21880518	 4.07293506	 12.21880518
No	 -12.21880518	 6.10940259	 14.25527271
No	 -10.18233765	 4.07293506	 14.25527271
No	 -10.18233765	 6.10940259	 12.21880518
No	 -12.21880518	 4.07293506	 16.29174024
No	 -12.21880518	 6.10940259	 18.32820777
No	 -10.18233765	 4.07293506	 18.32820777
No	 -10.18233765	 6.10940259	 16.29174024
Au	 -12.21880518	 8.14587012	 -20.36467530
No	 -12.21880518	 10.18233765	 -18.32820777
No	 -10.18233765	 8.14587012	 -18.32820777
Au	 -10.18233765	 10.18233765	 -20.36467530
No	 -12.21880518	 8.14587012	 -16.29174024
No	 -12.21880518	 10.18233765	 -14.25527271
No	 -10.18233765	 8.14587012	 -14.25527271
No	 -10.18233765	 10.18233765	 -16.29174024
No	 -12.21880518	 8.14587012	 -12.21880518
No	 -12.21880518	 10.18233765	 -10.18233765
No	 -10.18233765	 8.14587012	 -10.18233765
No	 -10.18233765	 10.18233765	 -12.21880518
No	 -12.21880518	 8.14587012	 -8.14587012
No	 -12.21880518	 10.18233765	 -6.10940259
No	 -10.18233765	 8.14587012	 -6.10940259
No	 -10.18233765	 10.18233765	 -8.14587012
No	 -12.21880518	 8.14587012	 -4.07293506
No	 -12.21880518	 10.18233765	 -2.03646753
No	 -10.18233765	 8.14587012	 -2.03646753
No	 -10.18233765	 10.18233765	 -4.07293506
No	 -12.21880518	 8.14587012	 -0.00000000
No	 -12.21880518	 10.18233765	 2.03646753
No	 -10.18233765	 8.14587012	 2.03646753
No	 -10.18233765	 10.18233765	 -0.00000000
No	 -12.21880518	 8.14587012	 4.07293506
No	 -12.21880518	 10.18233765	 6.10940259
No	 -10.18233765	 8.14587012	 6.10940259
No	 -10.18233765	 10.18233765	 4.07293506
No	 -12.21880518	 8.14587012	 8.14587012
No	 -12.21880518	 10.18233765	 10.18233765
No	 -10.18233765	 8.14587012	 10.18233765
No	 -10.18233765	 10.18233765	 8.14587012
No	 -12.21880518	 8.14587012	 12.21880518
No	 -12.21880518	 10.18233765	 14.25527271
No	 -10.18233765	 8.14587012	 14.25527271
No	 -10.18233765	 10.18233765	 12.21880518
No	 -12.21880518	 8.14587012	 16.29174024
No	 -12.21880518	 10.18233765	 18.32820777
No	 -10.18233765	 8.14587012	 18.32820777
No	 -10.18233765	 10.18233765	 16.29174024
Au	 -12.21880518	 12.21880518	 -20.36467530
No	 -12.21880518	 14.25527271	 -18.32820777
No	 -10.18233765	 12.21880518	 -18.32820777
Au	 -10.18233765	 14.25527271	 -20.36467530
No	 -12.21880518	 12.21880518	 -16.29174024
No	 -12.21880518	 14.25527271	 -14.25527271
No	 -10.18233765	 12.21880518	 -14.25527271
No	 -10.18233765	 14.25527271	 -16.29174024
No	 -12.21880518	 12.21880518	 -12.21880518
No	 -12.21880518	 14.25527271	 -10.18233765
No	 -10.18233765	 12.21880518	 -10.18233765
No	 -10.18233765	 14.25527271	 -12.21880518
No	 -12.21880518	 12.21880518	 -8.14587012
No	 -12.21880518	 14.25527271	 -6.10940259
No	 -10.18233765	 12.21880518	 -6.10940259
No	 -10.18233765	 14.25527271	 -8.14587012
No	 -12.21880518	 12.21880518	 -4.07293506
No	 -12.21880518	 14.25527271	 -2.03646753
No	 -10.18233765	 12.21880518	 -2.03646753
No	 -10.18233765	 14.25527271	 -4.07293506
No	 -12.21880518	 12.21880518	 -0.00000000
No	 -12.21880518	 14.25527271	 2.03646753
No	 -10.18233765	 12.21880518	 2.03646753
No	 -10.18233765	 14.25527271	 -0.00000000
No	 -12.21880518	 12.21880518	 4.07293506
No	 -12.21880518	 14.25527271	 6.10940259
No	 -10.18233765	 12.21880518	 6.10940259
No	 -10.18233765	 14.25527271	 4.07293506
No	 -12.21880518	 12.21880518	 8.14587012
No	 -12.21880518	 14.25527271	 10.18233765
No	 -10.18233765	 12.21880518	 10.18233765
No	 -10.18233765	 14.25527271	 8.14587012
No	 -12.21880518	 12.21880518	 12.21880518
No	 -12.21880518	 14.25527271	 14.25527271
No	 -10.18233765	 12.21880518	 14.25527271
No	 -10.18233765	 14.25527271	 12.21880518
No	 -12.21880518	 12.21880518	 16.29174024
No	 -12.21880518	 14.25527271	 18.32820777
No	 -10.18233765	 12.21880518	 18.32820777
No	 -10.18233765	 14.25527271	 16.29174024
Au	 -12.21880518	 16.29174024	 -20.36467530
No	 -12.21880518	 18.32820777	 -18.32820777
No	 -10.18233765	 16.29174024	 -18.32820777
Au	 -10.18233765	 18.32820777	 -20.36467530
No	 -12.21880518	 16.29174024	 -16.29174024
No	 -12.21880518	 18.32820777	 -14.25527271
No	 -10.18233765	 16.29174024	 -14.25527271
No	 -10.18233765	 18.32820777	 -16.29174024
No	 -12.21880518	 16.29174024	 -12.21880518
No	 -12.21880518	 18.32820777	 -10.18233765
No	 -10.18233765	 16.29174024	 -10.18233765
No	 -10.18233765	 18.32820777	 -12.21880518
No	 -12.21880518	 16.29174024	 -8.14587012
No	 -12.21880518	 18.32820777	 -6.10940259
No	 -10.18233765	 16.29174024	 -6.10940259
No	 -10.18233765	 18.32820777	 -8.14587012
No	 -12.21880518	 16.29174024	 -4.07293506
No	 -12.21880518	 18.32820777	 -2.03646753
No	 -10.18233765	 16.29174024	 -2.03646753
No	 -10.18233765	 18.32820777	 -4.07293506
No	 -12.21880518	 16.29174024	 -0.00000000
No	 -12.21880518	 18.32820777	 2.03646753
No	 -10.18233765	 16.29174024	 2.03646753
No	 -10.18233765	 18.32820777	 -0.00000000
No	 -12.21880518	 16.29174024	 4.07293506
No	 -12.21880518	 18.32820777	 6.10940259
No	 -10.18233765	 16.29174024	 6.10940259
No	 -10.18233765	 18.32820777	 4.07293506
No	 -12.21880518	 16.29174024	 8.14587012
No	 -12.21880518	 18.32820777	 10.18233765
No	 -10.18233765	 16.29174024	 10.18233765
No	 -10.18233765	 18.32820777	 8.14587012
No	 -12.21880518	 16.29174024	 12.21880518
No	 -12.21880518	 18.32820777	 14.25527271
No	 -10.18233765	 16.29174024	 14.25527271
No	 -10.18233765	 18.32820777	 12.21880518
No	 -12.21880518	 16.29174024	 16.29174024
No	 -12.21880518	 18.32820777	 18.32820777
No	 -10.18233765	 16.29174024	 18.32820777
No	 -10.18233765	 18.32820777	 16.29174024
Au	 -8.14587012	 -20.36467530	 -20.36467530
No	 -8.14587012	 -18.32820777	 -18.32820777
Au	 -6.10940259	 -20.36467530	 -18.32820777
Au	 -6.10940259	 -18.32820777	 -20.36467530
Au	 -8.14587012	 -20.36467530	 -16.29174024
No	 -8.14587012	 -18.32820777	 -14.25527271
Au	 -6.10940259	 -20.36467530	 -14.25527271
No	 -6.10940259	 -18.32820777	 -16.29174024
Au	 -8.14587012	 -20.36467530	 -12.21880518
No	 -8.14587012	 -18.32820777	 -10.18233765
Au	 -6.10940259	 -20.36467530	 -10.18233765
No	 -6.10940259	 -18.32820777	 -12.21880518
Au	 -8.14587012	 -20.36467530	 -8.14587012
No	 -8.14587012	 -18.32820777	 -6.10940259
Au	 -6.10940259	 -20.36467530	 -6.10940259
No	 -6.10940259	 -18.32820777	 -8.14587012
Au	 -8.14587012	 -20.36467530	 -4.07293506
No	 -8.14587012	 -18.32820777	 -2.03646753
Au	 -6.10940259	 -20.36467530	 -2.03646753
No	 -6.10940259	 -18.32820777	 -4.07293506
Au	 -8.14587012	 -20.36467530	 -0.00000000
No	 -8.14587012	 -18.32820777	 2.03646753
Au	 -6.10940259	 -20.36467530	 2.03646753
No	 -6.10940259	 -18.32820777	 -0.00000000
Au	 -8.14587012	 -20.36467530	 4.07293506
No	 -8.14587012	 -18.32820777	 6.10940259
Au	 -6.10940259	 -20.36467530	 6.10940259
No	 -6.10940259	 -18.32820777	 4.07293506
Au	 -8.14587012	 -20.36467530	 8.14587012
No	 -8.14587012	 -18.32820777	 10.18233765
Au	 -6.10940259	 -20.36467530	 10.18233765
No	 -6.10940259	 -18.32820777	 8.14587012
Au	 -8.14587012	 -20.36467530	 12.21880518
No	 -8.14587012	 -18.32820777	 14.25527271
Au	 -6.10940259	 -20.36467530	 14.25527271
No	 -6.10940259	 -18.32820777	 12.21880518
Au	 -8.14587012	 -20.36467530	 16.29174024
No	 -8.14587012	 -18.32820777	 18.32820777
Au	 -6.10940259	 -20.36467530	 18.32820777
No	 -6.10940259	 -18.32820777	 16.29174024
Au	 -8.14587012	 -16.29174024	 -20.36467530
No	 -8.14587012	 -14.25527271	 -18.32820777
No	 -6.10940259	 -16.29174024	 -18.32820777
Au	 -6.10940259	 -14.25527271	 -20.36467530
No	 -8.14587012	 -16.29174024	 -16.29174024
No	 -8.14587012	 -14.25527271	 -14.25527271
No	 -6.10940259	 -16.29174024	 -14.25527271
No	 -6.10940259	 -14.25527271	 -16.29174024
No	 -8.14587012	 -16.29174024	 -12.21880518
No	 -8.14587012	 -14.25527271	 -10.18233765
No	 -6.10940259	 -16.29174024	 -10.18233765
No	 -6.10940259	 -14.25527271	 -12.21880518
No	 -8.14587012	 -16.29174024	 -8.14587012
No	 -8.14587012	 -14.25527271	 -6.10940259
No	 -6.10940259	 -16.29174024	 -6.10940259
No	 -6.10940259	 -14.25527271	 -8.14587012
No	 -8.14587012	 -16.29174024	 -4.07293506
No	 -8.14587012	 -14.25527271	 -2.03646753
No	 -6.10940259	 -16.29174024	 -2.03646753
No	 -6.10940259	 -14.25527271	 -4.07293506
No	 -8.14587012	 -16.29174024	 -0.00000000
No	 -8.14587012	 -14.25527271	 2.03646753
No	 -6.10940259	 -16.29174024	 2.03646753
No	 -6.10940259	 -14.25527271	 -0.00000000
No	 -8.14587012	 -16.29174024	 4.07293506
No	 -8.14587012	 -14.25527271	 6.10940259
No	 -6.10940259	 -16.29174024	 6.10940259
No	 -6.10940259	 -14.25527271	 4.07293506
No	 -8.14587012	 -16.29174024	 8.14587012
No	 -8.14587012	 -14.25527271	 10.18233765
No	 -6.10940259	 -16.29174024	 10.18233765
No	 -6.10940259	 -14.25527271	 8.14587012
No	 -8.14587012	 -16.29174024	 12.21880518
No	 -8.14587012	 -14.25527271	 14.25527271
No	 -6.10940259	 -16.29174024	 14.25527271
No	 -6.10940259	 -14.25527271	 12.21880518
No	 -8.14587012	 -16.29174024	 16.29174024
No	 -8.14587012	 -14.25527271	 18.32820777
No	 -6.10940259	 -16.29174024	 18.32820777
No	 -6.10940259	 -14.25527271	 16.29174024
Au	 -8.14587012	 -12.21880518	 -20.36467530
No	 -8.14587012	 -10.18233765	 -18.32820777
No	 -6.10940259	 -12.21880518	 -18.32820777
Au	 -6.10940259	 -10.18233765	 -20.36467530
No	 -8.14587012	 -12.21880518	 -16.29174024
No	 -8.14587012	 -10.18233765	 -14.25527271
No	 -6.10940259	 -12.21880518	 -14.25527271
No	 -6.10940259	 -10.18233765	 -16.29174024
No	 -8.14587012	 -12.21880518	 -12.21880518
No	 -8.14587012	 -10.18233765	 -10.18233765
No	 -6.10940259	 -12.21880518	 -10.18233765
No	 -6.10940259	 -10.18233765	 -12.21880518
No	 -8.14587012	 -12.21880518	 -8.14587012
No	 -8.14587012	 -10.18233765	 -6.10940259
No	 -6.10940259	 -12.21880518	 -6.10940259
No	 -6.10940259	 -10.18233765	 -8.14587012
No	 -8.14587012	 -12.21880518	 -4.07293506
No	 -8.14587012	 -10.18233765	 -2.03646753
No	 -6.10940259	 -12.21880518	 -2.03646753
No	 -6.10940259	 -10.18233765	 -4.07293506
No	 -8.14587012	 -12.21880518	 -0.00000000
No	 -8.14587012	 -10.18233765	 2.03646753
No	 -6.10940259	 -12.21880518	 2.03646753
No	 -6.10940259	 -10.18233765	 -0.00000000
No	 -8.14587012	 -12.21880518	 4.07293506
No	 -8.14587012	 -10.18233765	 6.10940259
No	 -6.10940259	 -12.21880518	 6.10940259
No	 -6.10940259	 -10.18233765	 4.07293506
No	 -8.14587012	 -12.21880518	 8.14587012
No	 -8.14587012	 -10.18233765	 10.18233765
No	 -6.10940259	 -12.21880518	 10.18233765
No	 -6.10940259	 -10.18233765	 8.14587012
No	 -8.14587012	 -12.21880518	 12.21880518
No	 -8.14587012	 -10.18233765	 14.25527271
No	 -6.10940259	 -12.21880518	 14.25527271
No	 -6.10940259	 -10.18233765	 12.21880518
No	 -8.14587012	 -12.21880518	 16.29174024
No	 -8.14587012	 -10.18233765	 18.32820777
No	 -6.10940259	 -12.21880518	 18.32820777
No	 -6.10940259	 -10.18233765	 16.29174024
Au	 -8.14587012	 -8.14587012	 -20.36467530
No	 -8.14587012	 -6.10940259	 -18.32820777
No	 -6.10940259	 -8.14587012	 -18.32820777
Au	 -6.10940259	 -6.10940259	 -20.36467530
No	 -8.14587012	 -8.14587012	 -16.29174024
No	 -8.14587012	 -6.10940259	 -14.25527271
No	 -6.10940259	 -8.14587012	 -14.25527271
No	 -6.10940259	 -6.10940259	 -16.29174024
No	 -8.14587012	 -8.14587012	 -12.21880518
No	 -8.14587012	 -6.10940259	 -10.18233765
No	 -6.10940259	 -8.14587012	 -10.18233765
No	 -6.10940259	 -6.10940259	 -12.21880518
No	 -8.14587012	 -8.14587012	 -8.14587012
No	 -8.14587012	 -6.10940259	 -6.10940259
No	 -6.10940259	 -8.14587012	 -6.10940259
No	 -6.10940259	 -6.10940259	 -8.14587012
No	 -8.14587012	 -8.14587012	 -4.07293506
No	 -8.14587012	 -6.10940259	 -2.03646753
No	 -6.10940259	 -8.14587012	 -2.03646753
No	 -6.10940259	 -6.10940259	 -4.07293506
No	 -8.14587012	 -8.14587012	 -0.00000000
No	 -8.14587012	 -6.10940259	 2.03646753
No	 -6.10940259	 -8.14587012	 2.03646753
No	 -6.10940259	 -6.10940259	 -0.00000000
No	 -8.14587012	 -8.14587012	 4.07293506
No	 -8.14587012	 -6.10940259	 6.10940259
No	 -6.10940259	 -8.14587012	 6.10940259
No	 -6.10940259	 -6.10940259	 4.07293506
No	 -8.14587012	 -8.14587012	 8.14587012
No	 -8.14587012	 -6.10940259	 10.18233765
No	 -6.10940259	 -8.14587012	 10.18233765
No	 -6.10940259	 -6.10940259	 8.14587012
No	 -8.14587012	 -8.14587012	 12.21880518
No	 -8.14587012	 -6.10940259	 14.25527271
No	 -6.10940259	 -8.14587012	 14.25527271
No	 -6.10940259	 -6.10940259	 12.21880518
No	 -8.14587012	 -8.14587012	 16.29174024
No	 -8.14587012	 -6.10940259	 18.32820777
No	 -6.10940259	 -8.14587012	 18.32820777
No	 -6.10940259	 -6.10940259	 16.29174024
Au	 -8.14587012	 -4.07293506	 -20.36467530
No	 -8.14587012	 -2.03646753	 -18.32820777
No	 -6.10940259	 -4.07293506	 -18.32820777
Au	 -6.10940259	 -2.03646753	 -20.36467530
No	 -8.14587012	 -4.07293506	 -16.29174024
No	 -8.14587012	 -2.03646753	 -14.25527271
No	 -6.10940259	 -4.07293506	 -14.25527271
No	 -6.10940259	 -2.03646753	 -16.29174024
No	 -8.14587012	 -4.07293506	 -12.21880518
No	 -8.14587012	 -2.03646753	 -10.18233765
No	 -6.10940259	 -4.07293506	 -10.18233765
No	 -6.10940259	 -2.03646753	 -12.21880518
No	 -8.14587012	 -4.07293506	 -8.14587012
No	 -8.14587012	 -2.03646753	 -6.10940259
No	 -6.10940259	 -4.07293506	 -6.10940259
No	 -6.10940259	 -2.03646753	 -8.14587012
No	 -8.14587012	 -4.07293506	 -4.07293506
No	 -8.14587012	 -2.03646753	 -2.03646753
No	 -6.10940259	 -4.07293506	 -2.03646753
No	 -6.10940259	 -2.03646753	 -4.07293506
No	 -8.14587012	 -4.07293506	 -0.00000000
No	 -8.14587012	 -2.03646753	 2.03646753
No	 -6.10940259	 -4.07293506	 2.03646753
No	 -6.10940259	 -2.03646753	 -0.00000000
No	 -8.14587012	 -4.07293506	 4.07293506
No	 -8.14587012	 -2.03646753	 6.10940259
No	 -6.10940259	 -4.07293506	 6.10940259
No	 -6.10940259	 -2.03646753	 4.07293506
No	 -8.14587012	 -4.07293506	 8.14587012
No	 -8.14587012	 -2.03646753	 10.18233765
No	 -6.10940259	 -4.07293506	 10.18233765
No	 -6.10940259	 -2.03646753	 8.14587012
No	 -8.14587012	 -4.07293506	 12.21880518
No	 -8.14587012	 -2.03646753	 14.25527271
No	 -6.10940259	 -4.07293506	 14.25527271
No	 -6.10940259	 -2.03646753	 12.21880518
No	 -8.14587012	 -4.07293506	 16.29174024
No	 -8.14587012	 -2.03646753	 18.32820777
No	 -6.10940259	 -4.07293506	 18.32820777
No	 -6.10940259	 -2.03646753	 16.29174024
Au	 -8.14587012	 0.00000000	 -20.36467530
No	 -8.14587012	 2.03646753	 -18.32820777
No	 -6.10940259	 0.00000000	 -18.32820777
Au	 -6.10940259	 2.03646753	 -20.36467530
No	 -8.14587012	 0.00000000	 -16.29174024
No	 -8.14587012	 2.03646753	 -14.25527271
No	 -6.10940259	 0.00000000	 -14.25527271
No	 -6.10940259	 2.03646753	 -16.29174024
No	 -8.14587012	 0.00000000	 -12.21880518
No	 -8.14587012	 2.03646753	 -10.18233765
No	 -6.10940259	 0.00000000	 -10.18233765
No	 -6.10940259	 2.03646753	 -12.21880518
No	 -8.14587012	 0.00000000	 -8.14587012
No	 -8.14587012	 2.03646753	 -6.10940259
No	 -6.10940259	 0.00000000	 -6.10940259
No	 -6.10940259	 2.03646753	 -8.14587012
No	 -8.14587012	 0.00000000	 -4.07293506
No	 -8.14587012	 2.03646753	 -2.03646753
No	 -6.10940259	 0.00000000	 -2.03646753
No	 -6.10940259	 2.03646753	 -4.07293506
No	 -8.14587012	 0.00000000	 -0.00000000
No	 -8.14587012	 2.03646753	 2.03646753
No	 -6.10940259	 0.00000000	 2.03646753
No	 -6.10940259	 2.03646753	 -0.00000000
No	 -8.14587012	 0.00000000	 4.07293506
No	 -8.14587012	 2.03646753	 6.10940259
No	 -6.10940259	 0.00000000	 6.10940259
No	 -6.10940259	 2.03646753	 4.07293506
No	 -8.14587012	 0.00000000	 8.14587012
No	 -8.14587012	 2.03646753	 10.18233765
No	 -6.10940259	 0.00000000	 10.18233765
No	 -6.10940259	 2.03646753	 8.14587012
No	 -8.14587012	 0.00000000	 12.21880518
No	 -8.14587012	 2.03646753	 14.25527271
No	 -6.10940259	 0.00000000	 14.25527271
No	 -6.10940259	 2.03646753	 12.21880518
No	 -8.14587012	 0.00000000	 16.29174024
No	 -8.14587012	 2.03646753	 18.32820777
No	 -6.10940259	 0.00000000	 18.32820777
No	 -6.10940259	 2.03646753	 16.29174024
Au	 -8.14587012	 4.07293506	 -20.36467530
No	 -8.14587012	 6.10940259	 -18.32820777
No	 -6.10940259	 4.07293506	 -18.32820777
Au	 -6.10940259	 6.10940259	 -20.36467530
No	 -8.14587012	 4.07293506	 -16.29174024
No	 -8.14587012	 6.10940259	 -14.25527271
No	 -6.10940259	 4.07293506	 -14.25527271
No	 -6.10940259	 6.10940259	 -16.29174024
No	 -8.14587012	 4.07293506	 -12.21880518
No	 -8.14587012	 6.10940259	 -10.18233765
No	 -6.10940259	 4.07293506	 -10.18233765
No	 -6.10940259	 6.10940259	 -12.21880518
No	 -8.14587012	 4.07293506	 -8.14587012
No	 -8.14587012	 6.10940259	 -6.10940259
No	 -6.10940259	 4.07293506	 -6.10940259
No	 -6.10940259	 6.10940259	 -8.14587012
No	 -8.14587012	 4.07293506	 -4.07293506
No	 -8.14587012	 6.10940259	 -2.03646753
No	 -6.10940259	 4.07293506	 -2.03646753
No	 -6.10940259	 6.10940259	 -4.07293506
No	 -8.14587012	 4.07293506	 -0.00000000
No	 -8.14587012	 6.10940259	 2.03646753
No	 -6.10940259	 4.07293506	 2.03646753
No	 -6.10940259	 6.10940259	 -0.00000000
No	 -8.14587012	 4.07293506	 4.07293506
No	 -8.14587012	 6.10940259	 6.10940259
No	 -6.10940259	 4.07293506	 6.10940259
No	 -6.10940259	 6.10940259	 4.07293506
No	 -8.14587012	 4.07293506	 8.14587012
No	 -8.14587012	 6.10940259	 10.18233765
No	 -6.10940259	 4.07293506	 10.18233765
No	 -6.10940259	 6.10940259	 8.14587012
No	 -8.14587012	 4.07293506	 12.21880518
No	 -8.14587012	 6.10940259	 14.25527271
No	 -6.10940259	 4.07293506	 14.25527271
No	 -6.10940259	 6.10940259	 12.21880518
No	 -8.14587012	 4.07293506	 16.29174024
No	 -8.14587012	 6.10940259	 18.32820777
No	 -6.10940259	 4.07293506	 18.32820777
No	 -6.10940259	 6.10940259	 16.29174024
Au	 -8.14587012	 8.14587012	 -20.36467530
No	 -8.14587012	 10.18233765	 -18.32820777
No	 -6.10940259	 8.14587012	 -18.32820777
Au	 -6.10940259	 10.18233765	 -20.36467530
No	 -8.14587012	 8.14587012	 -16.29174024
No	 -8.14587012	 10.18233765	 -14.25527271
No	 -6.10940259	 8.14587012	 -14.25527271
No	 -6.10940259	 10.18233765	 -16.29174024
No	 -8.14587012	 8.14587012	 -12.21880518
No	 -8.14587012	 10.18233765	 -10.18233765
No	 -6.10940259	 8.14587012	 -10.18233765
No	 -6.10940259	 10.18233765	 -12.21880518
No	 -8.14587012	 8.14587012	 -8.14587012
No	 -8.14587012	 10.18233765	 -6.10940259
No	 -6.10940259	 8.14587012	 -6.10940259
No	 -6.10940259	 10.18233765	 -8.14587012
No	 -8.14587012	 8.14587012	 -4.07293506
No	 -8.14587012	 10.18233765	 -2.03646753
No	 -6.10940259	 8.14587012	 -2.03646753
No	 -6.10940259	 10.18233765	 -4.07293506
No	 -8.14587012	 8.14587012	 -0.00000000
No	 -8.14587012	 10.18233765	 2.03646753
No	 -6.10940259	 8.14587012	 2.03646753
No	 -6.10940259	 10.18233765	 -0.00000000
No	 -8.14587012	 8.14587012	 4.07293506
No	 -8.14587012	 10.18233765	 6.10940259
No	 -6.10940259	 8.14587012	 6.10940259
No	 -6.10940259	 10.18233765	 4.07293506
No	 -8.14587012	 8.14587012	 8.14587012
No	 -8.14587012	 10.18233765	 10.18233765
No	 -6.10940259	 8.14587012	 10.18233765
No	 -6.10940259	 10.18233765	 8.14587012
No	 -8.14587012	 8.14587012	 12.21880518
No	 -8.14587012	 10.18233765	 14.25527271
No	 -6.10940259	 8.14587012	 14.25527271
No	 -6.10940259	 10.18233765	 12.21880518
No	 -8.14587012	 8.14587012	 16.29174024
No	 -8.14587012	 10.18233765	 18.32820777
No	 -6.10940259	 8.14587012	 18.32820777
No	 -6.10940259	 10.18233765	 16.29174024
Au	 -8.14587012	 12.21880518	 -20.36467530
No	 -8.14587012	 14.25527271	 -18.32820777
No	 -6.10940259	 12.21880518	 -18.32820777
Au	 -6.10940259	 14.25527271	 -20.36467530
No	 -8.14587012	 12.21880518	 -16.29174024
No	 -8.14587012	 14.25527271	 -14.25527271
No	 -6.10940259	 12.21880518	 -14.25527271
No	 -6.10940259	 14.25527271	 -16.29174024
No	 -8.14587012	 12.21880518	 -12.21880518
No	 -8.14587012	 14.25527271	 -10.18233765
No	 -6.10940259	 12.21880518	 -10.18233765
No	 -6.10940259	 14.25527271	 -12.21880518
No	 -8.14587012	 12.21880518	 -8.14587012
No	 -8.14587012	 14.25527271	 -6.10940259
No	 -6.10940259	 12.21880518	 -6.10940259
No	 -6.10940259	 14.25527271	 -8.14587012
No	 -8.14587012	 12.21880518	 -4.07293506
No	 -8.14587012	 14.25527271	 -2.03646753
No	 -6.10940259	 12.21880518	 -2.03646753
No	 -6.10940259	 14.25527271	 -4.07293506
No	 -8.14587012	 12.21880518	 -0.00000000
No	 -8.14587012	 14.25527271	 2.03646753
No	 -6.10940259	 12.21880518	 2.03646753
No	 -6.10940259	 14.25527271	 -0.00000000
No	 -8.14587012	 12.21880518	 4.07293506
No	 -8.14587012	 14.25527271	 6.10940259
No	 -6.10940259	 12.21880518	 6.10940259
No	 -6.10940259	 14.25527271	 4.07293506
No	 -8.14587012	 12.21880518	 8.14587012
No	 -8.14587012	 14.25527271	 10.18233765
No	 -6.10940259	 12.21880518	 10.18233765
No	 -6.10940259	 14.25527271	 8.14587012
No	 -8.14587012	 12.21880518	 12.21880518
No	 -8.14587012	 14.25527271	 14.25527271
No	 -6.10940259	 12.21880518	 14.25527271
No	 -6.10940259	 14.25527271	 12.21880518
No	 -8.14587012	 12.21880518	 16.29174024
No	 -8.14587012	 14.25527271	 18.32820777
No	 -6.10940259	 12.21880518	 18.32820777
No	 -6.10940259	 14.25527271	 16.29174024
Au	 -8.14587012	 16.29174024	 -20.36467530
No	 -8.14587012	 18.32820777	 -18.32820777
No	 -6.10940259	 16.29174024	 -18.32820777
Au	 -6.10940259	 18.32820777	 -20.36467530
No	 -8.14587012	 16.29174024	 -16.29174024
No	 -8.14587012	 18.32820777	 -14.25527271
No	 -6.10940259	 16.29174024	 -14.25527271
No	 -6.10940259	 18.32820777	 -16.29174024
No	 -8.14587012	 16.29174024	 -12.21880518
No	 -8.14587012	 18.32820777	 -10.18233765
No	 -6.10940259	 16.29174024	 -10.18233765
No	 -6.10940259	 18.32820777	 -12.21880518
No	 -8.14587012	 16.29174024	 -8.14587012
No	 -8.14587012	 18.32820777	 -6.10940259
No	 -6.10940259	 16.29174024	 -6.10940259
No	 -6.10940259	 18.32820777	 -8.14587012
No	 -8.14587012	 16.29174024	 -4.07293506
No	 -8.14587012	 18.32820777	 -2.03646753
No	 -6.10940259	 16.29174024	 -2.03646753
No	 -6.10940259	 18.32820777	 -4.07293506
No	 -8.14587012	 16.29174024	 -0.00000000
No	 -8.14587012	 18.32820777	 2.03646753
No	 -6.10940259	 16.29174024	 2.03646753
No	 -6.10940259	 18.32820777	 -0.00000000
No	 -8.14587012	 16.29174024	 4.07293506
No	 -8.14587012	 18.32820777	 6.10940259
No	 -6.10940259	 16.29174024	 6.10940259
No	 -6.10940259	 18.32820777	 4.07293506
No	 -8.14587012	 16.29174024	 8.14587012
No	 -8.14587012	 18.32820777	 10.18233765
No	 -6.10940259	 16.29174024	 10.18233765
No	 -6.10940259	 18.32820777	 8.14587012
No	 -8.14587012	 16.29174024	 12.21880518
No	 -8.14587012	 18.32820777	 14.25527271
No	 -6.10940259	 16.29174024	 14.25527271
No	 -6.10940259	 18.32820777	 12.21880518
No	 -8.14587012	 16.29174024	 16.29174024
No	 -8.14587012	 18.32820777	 18.32820777
No	 -6.10940259	 16.29174024	 18.32820777
No	 -6.10940259	 18.32820777	 16.29174024
Au	 -4.07293506	 -20.36467530	 -20.36467530
No	 -4.07293506	 -18.32820777	 -18.32820777
Au	 -2.03646753	 -20.36467530	 -18.32820777
Au	 -2.03646753	 -18.32820777	 -20.36467530
Au	 -4.07293506	 -20.36467530	 -16.29174024
No	 -4.07293506	 -18.32820777	 -14.25527271
Au	 -2.03646753	 -20.36467530	 -14.25527271
No	 -2.03646753	 -18.32820777	 -16.29174024
Au	 -4.07293506	 -20.36467530	 -12.21880518
No	 -4.07293506	 -18.32820777	 -10.18233765
Au	 -2.03646753	 -20.36467530	 -10.18233765
No	 -2.03646753	 -18.32820777	 -12.21880518
Au	 -4.07293506	 -20.36467530	 -8.14587012
No	 -4.07293506	 -18.32820777	 -6.10940259
Au	 -2.03646753	 -20.36467530	 -6.10940259
No	 -2.03646753	 -18.32820777	 -8.14587012
Au	 -4.07293506	 -20.36467530	 -4.07293506
No	 -4.07293506	 -18.32820777	 -2.03646753
Au	 -2.03646753	 -20.36467530	 -2.03646753
No	 -2.03646753	 -18.32820777	 -4.07293506
Au	 -4.07293506	 -20.36467530	 -0.00000000
No	 -4.07293506	 -18.32820777	 2.03646753
Au	 -2.03646753	 -20.36467530	 2.03646753
No	 -2.03646753	 -18.32820777	 -0.00000000
Au	 -4.07293506	 -20.36467530	 4.07293506
No	 -4.07293506	 -18.32820777	 6.10940259
Au	 -2.03646753	 -20.36467530	 6.10940259
No	 -2.03646753	 -18.32820777	 4.07293506
Au	 -4.07293506	 -20.36467530	 8.14587012
No	 -4.07293506	 -18.32820777	 10.18233765
Au	 -2.03646753	 -20.36467530	 10.18233765
No	 -2.03646753	 -18.32820777	 8.14587012
Au	 -4.07293506	 -20.36467530	 12.21880518
No	 -4.07293506	 -18.32820777	 14.25527271
Au	 -2.03646753	 -20.36467530	 14.25527271
No	 -2.03646753	 -18.32820777	 12.21880518
Au	 -4.07293506	 -20.36467530	 16.29174024
No	 -4.07293506	 -18.32820777	 18.32820777
Au	 -2.03646753	 -20.36467530	 18.32820777
No	 -2.03646753	 -18.32820777	 16.29174024
Au	 -4.07293506	 -16.29174024	 -20.36467530
No	 -4.07293506	 -14.25527271	 -18.32820777
No	 -2.03646753	 -16.29174024	 -18.32820777
Au	 -2.03646753	 -14.25527271	 -20.36467530
No	 -4.07293506	 -16.29174024	 -16.29174024
No	 -4.07293506	 -14.25527271	 -14.25527271
No	 -2.03646753	 -16.29174024	 -14.25527271
No	 -2.03646753	 -14.25527271	 -16.29174024
No	 -4.07293506	 -16.29174024	 -12.21880518
No	 -4.07293506	 -14.25527271	 -10.18233765
No	 -2.03646753	 -16.29174024	 -10.18233765
No	 -2.03646753	 -14.25527271	 -12.21880518
No	 -4.07293506	 -16.29174024	 -8.14587012
No	 -4.07293506	 -14.25527271	 -6.10940259
No	 -2.03646753	 -16.29174024	 -6.10940259
No	 -2.03646753	 -14.25527271	 -8.14587012
No	 -4.07293506	 -16.29174024	 -4.07293506
No	 -4.07293506	 -14.25527271	 -2.03646753
No	 -2.03646753	 -16.29174024	 -2.03646753
No	 -2.03646753	 -14.25527271	 -4.07293506
No	 -4.07293506	 -16.29174024	 -0.00000000
No	 -4.07293506	 -14.25527271	 2.03646753
No	 -2.03646753	 -16.29174024	 2.03646753
No	 -2.03646753	 -14.25527271	 -0.00000000
No	 -4.07293506	 -16.29174024	 4.07293506
No	 -4.07293506	 -14.25527271	 6.10940259
No	 -2.03646753	 -16.29174024	 6.10940259
No	 -2.03646753	 -14.25527271	 4.07293506
No	 -4.07293506	 -16.29174024	 8.14587012
No	 -4.07293506	 -14.25527271	 10.18233765
No	 -2.03646753	 -16.29174024	 10.18233765
No	 -2.03646753	 -14.25527271	 8.14587012
No	 -4.07293506	 -16.29174024	 12.21880518
No	 -4.07293506	 -14.25527271	 14.25527271
No	 -2.03646753	 -16.29174024	 14.25527271
No	 -2.03646753	 -14.25527271	 12.21880518
No	 -4.07293506	 -16.29174024	 16.29174024
No	 -4.07293506	 -14.25527271	 18.32820777
No	 -2.03646753	 -16.29174024	 18.32820777
No	 -2.03646753	 -14.25527271	 16.29174024
Au	 -4.07293506	 -12.21880518	 -20.36467530
No	 -4.07293506	 -10.18233765	 -18.32820777
No	 -2.03646753	 -12.21880518	 -18.32820777
Au	 -2.03646753	 -10.18233765	 -20.36467530
No	 -4.07293506	 -12.21880518	 -16.29174024
No	 -4.07293506	 -10.18233765	 -14.25527271
No	 -2.03646753	 -12.21880518	 -14.25527271
No	 -2.03646753	 -10.18233765	 -16.29174024
No	 -4.07293506	 -12.21880518	 -12.21880518
No	 -4.07293506	 -10.18233765	 -10.18233765
No	 -2.03646753	 -12.21880518	 -10.18233765
No	 -2.03646753	 -10.18233765	 -12.21880518
No	 -4.07293506	 -12.21880518	 -8.14587012
No	 -4.07293506	 -10.18233765	 -6.10940259
No	 -2.03646753	 -12.21880518	 -6.10940259
No	 -2.03646753	 -10.18233765	 -8.14587012
No	 -4.07293506	 -12.21880518	 -4.07293506
No	 -4.07293506	 -10.18233765	 -2.03646753
No	 -2.03646753	 -12.21880518	 -2.03646753
No	 -2.03646753	 -10.18233765	 -4.07293506
No	 -4.07293506	 -12.21880518	 -0.00000000
No	 -4.07293506	 -10.18233765	 2.03646753
No	 -2.03646753	 -12.21880518	 2.03646753
No	 -2.03646753	 -10.18233765	 -0.00000000
No	 -4.07293506	 -12.21880518	 4.07293506
No	 -4.07293506	 -10.18233765	 6.10940259
No	 -2.03646753	 -12.21880518	 6.10940259
No	 -2.03646753	 -10.18233765	 4.07293506
No	 -4.07293506	 -12.21880518	 8.14587012
No	 -4.07293506	 -10.18233765	 10.18233765
No	 -2.03646753	 -12.21880518	 10.18233765
No	 -2.03646753	 -10.18233765	 8.14587012
No	 -4.07293506	 -12.21880518	 12.21880518
No	 -4.07293506	 -10.18233765	 14.25527271
No	 -2.03646753	 -12.21880518	 14.25527271
No	 -2.03646753	 -10.18233765	 12.21880518
No	 -4.07293506	 -12.21880518	 16.29174024
No	 -4.07293506	 -10.18233765	 18.32820777
No	 -2.03646753	 -12.21880518	 18.32820777
No	 -2.03646753	 -10.18233765	 16.29174024
Au	 -4.07293506	 -8.14587012	 -20.36467530
No	 -4.07293506	 -6.10940259	 -18.32820777
No	 -2.03646753	 -8.14587012	 -18.32820777
Au	 -2.03646753	 -6.10940259	 -20.36467530
No	 -4.07293506	 -8.14587012	 -16.29174024
No	 -4.07293506	 -6.10940259	 -14.25527271
No	 -2.03646753	 -8.14587012	 -14.25527271
No	 -2.03646753	 -6.10940259	 -16.29174024
No	 -4.07293506	 -8.14587012	 -12.21880518
No	 -4.07293506	 -6.10940259	 -10.18233765
No	 -2.03646753	 -8.14587012	 -10.18233765
No	 -2.03646753	 -6.10940259	 -12.21880518
No	 -4.07293506	 -8.14587012	 -8.14587012
No	 -4.07293506	 -6.10940259	 -6.10940259
No	 -2.03646753	 -8.14587012	 -6.10940259
No	 -2.03646753	 -6.10940259	 -8.14587012
No	 -4.07293506	 -8.14587012	 -4.07293506
No	 -4.07293506	 -6.10940259	 -2.03646753
No	 -2.03646753	 -8.14587012	 -2.03646753
No	 -2.03646753	 -6.10940259	 -4.07293506
No	 -4.07293506	 -8.14587012	 -0.00000000
No	 -4.07293506	 -6.10940259	 2.03646753
No	 -2.03646753	 -8.14587012	 2.03646753
No	 -2.03646753	 -6.10940259	 -0.00000000
No	 -4.07293506	 -8.14587012	 4.07293506
No	 -4.07293506	 -6.10940259	 6.10940259
No	 -2.03646753	 -8.14587012	 6.10940259
No	 -2.03646753	 -6.10940259	 4.07293506
No	 -4.07293506	 -8.14587012	 8.14587012
No	 -4.07293506	 -6.10940259	 10.18233765
No	 -2.03646753	 -8.14587012	 10.18233765
No	 -2.03646753	 -6.10940259	 8.14587012
No	 -4.07293506	 -8.14587012	 12.21880518
No	 -4.07293506	 -6.10940259	 14.25527271
No	 -2.03646753	 -8.14587012	 14.25527271
No	 -2.03646753	 -6.10940259	 12.21880518
No	 -4.07293506	 -8.14587012	 16.29174024
No	 -4.07293506	 -6.10940259	 18.32820777
No	 -2.03646753	 -8.14587012	 18.32820777
No	 -2.03646753	 -6.10940259	 16.29174024
Au	 -4.07293506	 -4.07293506	 -20.36467530
No	 -4.07293506	 -2.03646753	 -18.32820777
No	 -2.03646753	 -4.07293506	 -18.32820777
Au	 -2.03646753	 -2.03646753	 -20.36467530
No	 -4.07293506	 -4.07293506	 -16.29174024
No	 -4.07293506	 -2.03646753	 -14.25527271
No	 -2.03646753	 -4.07293506	 -14.25527271
No	 -2.03646753	 -2.03646753	 -16.29174024
No	 -4.07293506	 -4.07293506	 -12.21880518
No	 -4.07293506	 -2.03646753	 -10.18233765
No	 -2.03646753	 -4.07293506	 -10.18233765
No	 -2.03646753	 -2.03646753	 -12.21880518
No	 -4.07293506	 -4.07293506	 -8.14587012
No	 -4.07293506	 -2.03646753	 -6.10940259
No	 -2.03646753	 -4.07293506	 -6.10940259
No	 -2.03646753	 -2.03646753	 -8.14587012
No	 -4.07293506	 -4.07293506	 -4.07293506
No	 -4.07293506	 -2.03646753	 -2.03646753
No	 -2.03646753	 -4.07293506	 -2.03646753
No	 -2.03646753	 -2.03646753	 -4.07293506
No	 -4.07293506	 -4.07293506	 -0.00000000
No	 -4.07293506	 -2.03646753	 2.03646753
No	 -2.03646753	 -4.07293506	 2.03646753
No	 -2.03646753	 -2.03646753	 -0.00000000
No	 -4.07293506	 -4.07293506	 4.07293506
No	 -4.07293506	 -2.03646753	 6.10940259
No	 -2.03646753	 -4.07293506	 6.10940259
No	 -2.03646753	 -2.03646753	 4.07293506
No	 -4.07293506	 -4.07293506	 8.14587012
No	 -4.07293506	 -2.03646753	 10.18233765
No	 -2.03646753	 -4.07293506	 10.18233765
No	 -2.03646753	 -2.03646753	 8.14587012
No	 -4.07293506	 -4.07293506	 12.21880518
No	 -4.07293506	 -2.03646753	 14.25527271
No	 -2.03646753	 -4.07293506	 14.25527271
No	 -2.03646753	 -2.03646753	 12.21880518
No	 -4.07293506	 -4.07293506	 16.29174024
No	 -4.07293506	 -2.03646753	 18.32820777
No	 -2.03646753	 -4.07293506	 18.32820777
No	 -2.03646753	 -2.03646753	 16.29174024
Au	 -4.07293506	 0.00000000	 -20.36467530
No	 -4.07293506	 2.03646753	 -18.32820777
No	 -2.03646753	 0.00000000	 -18.32820777
Au	 -2.03646753	 2.03646753	 -20.36467530
No	 -4.07293506	 0.00000000	 -16.29174024
No	 -4.07293506	 2.03646753	 -14.25527271
No	 -2.03646753	 0.00000000	 -14.25527271
No	 -2.03646753	 2.03646753	 -16.29174024
No	 -4.07293506	 0.00000000	 -12.21880518
No	 -4.07293506	 2.03646753	 -10.18233765
No	 -2.03646753	 0.00000000	 -10.18233765
No	 -2.03646753	 2.03646753	 -12.21880518
No	 -4.07293506	 0.00000000	 -8.14587012
No	 -4.07293506	 2.03646753	 -6.10940259
No	 -2.03646753	 0.00000000	 -6.10940259
No	 -2.03646753	 2.03646753	 -8.14587012
No	 -4.07293506	 0.00000000	 -4.07293506
No	 -4.07293506	 2.03646753	 -2.03646753
No	 -2.03646753	 0.00000000	 -2.03646753
No	 -2.03646753	 2.03646753	 -4.07293506
No	 -4.07293506	 0.00000000	 -0.00000000
No	 -4.07293506	 2.03646753	 2.03646753
No	 -2.03646753	 0.00000000	 2.03646753
No	 -2.03646753	 2.03646753	 -0.00000000
No	 -4.07293506	 0.00000000	 4.07293506
No	 -4.07293506	 2.03646753	 6.10940259
No	 -2.03646753	 0.00000000	 6.10940259
No	 -2.03646753	 2.03646753	 4.07293506
No	 -4.07293506	 0.00000000	 8.14587012
No	 -4.07293506	 2.03646753	 10.18233765
No	 -2.03646753	 0.00000000	 10.18233765
No	 -2.03646753	 2.03646753	 8.14587012
No	 -4.07293506	 0.00000000	 12.21880518
No	 -4.07293506	 2.03646753	 14.25527271
No	 -2.03646753	 0.00000000	 14.25527271
No	 -2.03646753	 2.03646753	 12.21880518
No	 -4.07293506	 0.00000000	 16.29174024
No	 -4.07293506	 2.03646753	 18.32820777
No	 -2.03646753	 0.00000000	 18.32820777
No	 -2.03646753	 2.03646753	 16.29174024
Au	 -4.07293506	 4.07293506	 -20.36467530
No	 -4.07293506	 6.10940259	 -18.32820777
No	 -2.03646753	 4.07293506	 -18.32820777
Au	 -2.03646753	 6.10940259	 -20.36467530
No	 -4.07293506	 4.07293506	 -16.29174024
No	 -4.07293506	 6.10940259	 -14.25527271
No	 -2.03646753	 4.07293506	 -14.25527271
No	 -2.03646753	 6.10940259	 -16.29174024
No	 -4.07293506	 4.07293506	 -12.21880518
No	 -4.07293506	 6.10940259	 -10.18233765
No	 -2.03646753	 4.07293506	 -10.18233765
No	 -2.03646753	 6.10940259	 -12.21880518
No	 -4.07293506	 4.07293506	 -8.14587012
No	 -4.07293506	 6.10940259	 -6.10940259
No	 -2.03646753	 4.07293506	 -6.10940259
No	 -2.03646753	 6.10940259	 -8.14587012
No	 -4.07293506	 4.07293506	 -4.07293506
No	 -4.07293506	 6.10940259	 -2.03646753
No	 -2.03646753	 4.07293506	 -2.03646753
No	 -2.03646753	 6.10940259	 -4.07293506
No	 -4.07293506	 4.07293506	 -0.00000000
No	 -4.07293506	 6.10940259	 2.03646753
No	 -2.03646753	 4.07293506	 2.03646753
No	 -2.03646753	 6.10940259	 -0.00000000
No	 -4.07293506	 4.07293506	 4.07293506
No	 -4.07293506	 6.10940259	 6.10940259
No	 -2.03646753	 4.07293506	 6.10940259
No	 -2.03646753	 6.10940259	 4.07293506
No	 -4.07293506	 4.07293506	 8.14587012
No	 -4.07293506	 6.10940259	 10.18233765
No	 -2.03646753	 4.07293506	 10.18233765
No	 -2.03646753	 6.10940259	 8.14587012
No	 -4.07293506	 4.07293506	 12.21880518
No	 -4.07293506	 6.10940259	 14.25527271
No	 -2.03646753	 4.07293506	 14.25527271
No	 -2.03646753	 6.10940259	 12.21880518
No	 -4.07293506	 4.07293506	 16.29174024
No	 -4.07293506	 6.10940259	 18.32820777
No	 -2.03646753	 4.07293506	 18.32820777
No	 -2.03646753	 6.10940259	 16.29174024
Au	 -4.07293506	 8.14587012	 -20.36467530
No	 -4.07293506	 10.18233765	 -18.32820777
No	 -2.03646753	 8.14587012	 -18.32820777
Au	 -2.03646753	 10.18233765	 -20.36467530
No	 -4.07293506	 8.14587012	 -16.29174024
No	 -4.07293506	 10.18233765	 -14.25527271
No	 -2.03646753	 8.14587012	 -14.25527271
No	 -2.03646753	 10.18233765	 -16.29174024
No	 -4.07293506	 8.14587012	 -12.21880518
No	 -4.07293506	 10.18233765	 -10.18233765
No	 -2.03646753	 8.14587012	 -10.18233765
No	 -2.03646753	 10.18233765	 -12.21880518
No	 -4.07293506	 8.14587012	 -8.14587012
No	 -4.07293506	 10.18233765	 -6.10940259
No	 -2.03646753	 8.14587012	 -6.10940259
No	 -2.03646753	 10.18233765	 -8.14587012
No	 -4.07293506	 8.14587012	 -4.07293506
No	 -4.07293506	 10.18233765	 -2.03646753
No	 -2.03646753	 8.14587012	 -2.03646753
No	 -2.03646753	 10.18233765	 -4.07293506
No	 -4.07293506	 8.14587012	 -0.00000000
No	 -4.07293506	 10.18233765	 2.03646753
No	 -2.03646753	 8.14587012	 2.03646753
No	 -2.03646753	 10.18233765	 -0.00000000
No	 -4.07293506	 8.14587012	 4.07293506
No	 -4.07293506	 10.18233765	 6.10940259
No	 -2.03646753	 8.14587012	 6.10940259
No	 -2.03646753	 10.18233765	 4.07293506
No	 -4.07293506	 8.14587012	 8.14587012
No	 -4.07293506	 10.18233765	 10.18233765
No	 -2.03646753	 8.14587012	 10.18233765
No	 -2.03646753	 10.18233765	 8.14587012
No	 -4.07293506	 8.14587012	 12.21880518
No	 -4.07293506	 10.18233765	 14.25527271
No	 -2.03646753	 8.14587012	 14.25527271
No	 -2.03646753	 10.18233765	 12.21880518
No	 -4.07293506	 8.14587012	 16.29174024
No	 -4.07293506	 10.18233765	 18.32820777
No	 -2.03646753	 8.14587012	 18.32820777
No	 -2.03646753	 10.18233765	 16.29174024
Au	 -4.07293506	 12.21880518	 -20.36467530
No	 -4.07293506	 14.25527271	 -18.32820777
No	 -2.03646753	 12.21880518	 -18.32820777
Au	 -2.03646753	 14.25527271	 -20.36467530
No	 -4.07293506	 12.21880518	 -16.29174024
No	 -4.07293506	 14.25527271	 -14.25527271
No	 -2.03646753	 12.21880518	 -14.25527271
No	 -2.03646753	 14.25527271	 -16.29174024
No	 -4.07293506	 12.21880518	 -12.21880518
No	 -4.07293506	 14.25527271	 -10.18233765
No	 -2.03646753	 12.21880518	 -10.18233765
No	 -2.03646753	 14.25527271	 -12.21880518
No	 -4.07293506	 12.21880518	 -8.14587012
No	 -4.07293506	 14.25527271	 -6.10940259
No	 -2.03646753	 12.21880518	 -6.10940259
No	 -2.03646753	 14.25527271	 -8.14587012
No	 -4.07293506	 12.21880518	 -4.07293506
No	 -4.07293506	 14.25527271	 -2.03646753
No	 -2.03646753	 12.21880518	 -2.03646753
No	 -2.03646753	 14.25527271	 -4.07293506
No	 -4.07293506	 12.21880518	 -0.00000000
No	 -4.07293506	 14.25527271	 2.03646753
No	 -2.03646753	 12.21880518	 2.03646753
No	 -2.03646753	 14.25527271	 -0.00000000
No	 -4.07293506	 12.21880518	 4.07293506
No	 -4.07293506	 14.25527271	 6.10940259
No	 -2.03646753	 12.21880518	 6.10940259
No	 -2.03646753	 14.25527271	 4.07293506
No	 -4.07293506	 12.21880518	 8.14587012
No	 -4.07293506	 14.25527271	 10.18233765
No	 -2.03646753	 12.21880518	 10.18233765
No	 -2.03646753	 14.25527271	 8.14587012
No	 -4.07293506	 12.21880518	 12.21880518
No	 -4.07293506	 14.25527271	 14.25527271
No	 -2.03646753	 12.21880518	 14.25527271
No	 -2.03646753	 14.25527271	 12.21880518
No	 -4.07293506	 12.21880518	 16.29174024
No	 -4.07293506	 14.25527271	 18.32820777
No	 -2.03646753	 12.21880518	 18.32820777
No	 -2.03646753	 14.25527271	 16.29174024
Au	 -4.07293506	 16.29174024	 -20.36467530
No	 -4.07293506	 18.32820777	 -18.32820777
No	 -2.03646753	 16.29174024	 -18.32820777
Au	 -2.03646753	 18.32820777	 -20.36467530
No	 -4.07293506	 16.29174024	 -16.29174024
No	 -4.07293506	 18.32820777	 -14.25527271
No	 -2.03646753	 16.29174024	 -14.25527271
No	 -2.03646753	 18.32820777	 -16.29174024
No	 -4.07293506	 16.29174024	 -12.21880518
No	 -4.07293506	 18.32820777	 -10.18233765
No	 -2.03646753	 16.29174024	 -10.18233765
No	 -2.03646753	 18.32820777	 -12.21880518
No	 -4.07293506	 16.29174024	 -8.14587012
No	 -4.07293506	 18.32820777	 -6.10940259
No	 -2.03646753	 16.29174024	 -6.10940259
No	 -2.03646753	 18.32820777	 -8.14587012
No	 -4.07293506	 16.29174024	 -4.07293506
No	 -4.07293506	 18.32820777	 -2.03646753
No	 -2.03646753	 16.29174024	 -2.03646753
No	 -2.03646753	 18.32820777	 -4.07293506
No	 -4.07293506	 16.29174024	 -0.00000000
No	 -4.07293506	 18.32820777	 2.03646753
No	 -2.03646753	 16.29174024	 2.03646753
No	 -2.03646753	 18.32820777	 -0.00000000
No	 -4.07293506	 16.29174024	 4.07293506
No	 -4.07293506	 18.32820777	 6.10940259
No	 -2.03646753	 16.29174024	 6.10940259
No	 -2.03646753	 18.32820777	 4.07293506
No	 -4.07293506	 16.29174024	 8.14587012
No	 -4.07293506	 18.32820777	 10.18233765
No	 -2.03646753	 16.29174024	 10.18233765
No	 -2.03646753	 18.32820777	 8.14587012
No	 -4.07293506	 16.29174024	 12.21880518
No	 -4.07293506	 18.32820777	 14.25527271
No	 -2.03646753	 16.29174024	 14.25527271
No	 -2.03646753	 18.32820777	 12.21880518
No	 -4.07293506	 16.29174024	 16.29174024
No	 -4.07293506	 18.32820777	 18.32820777
No	 -2.03646753	 16.29174024	 18.32820777
No	 -2.03646753	 18.32820777	 16.29174024
Au	 0.00000000	 -20.36467530	 -20.36467530
No	 0.00000000	 -18.32820777	 -18.32820777
Au	 2.03646753	 -20.36467530	 -18.32820777
Au	 2.03646753	 -18.32820777	 -20.36467530
Au	 0.00000000	 -20.36467530	 -16.29174024
No	 0.00000000	 -18.32820777	 -14.25527271
Au	 2.03646753	 -20.36467530	 -14.25527271
No	 2.03646753	 -18.32820777	 -16.29174024
Au	 0.00000000	 -20.36467530	 -12.21880518
No	 0.00000000	 -18.32820777	 -10.18233765
Au	 2.03646753	 -20.36467530	 -10.18233765
No	 2.03646753	 -18.32820777	 -12.21880518
Au	 0.00000000	 -20.36467530	 -8.14587012
No	 0.00000000	 -18.32820777	 -6.10940259
Au	 2.03646753	 -20.36467530	 -6.10940259
No	 2.03646753	 -18.32820777	 -8.14587012
Au	 0.00000000	 -20.36467530	 -4.07293506
No	 0.00000000	 -18.32820777	 -2.03646753
Au	 2.03646753	 -20.36467530	 -2.03646753
No	 2.03646753	 -18.32820777	 -4.07293506
Au	 0.00000000	 -20.36467530	 -0.00000000
No	 0.00000000	 -18.32820777	 2.03646753
Au	 2.03646753	 -20.36467530	 2.03646753
No	 2.03646753	 -18.32820777	 -0.00000000
Au	 0.00000000	 -20.36467530	 4.07293506
No	 0.00000000	 -18.32820777	 6.10940259
Au	 2.03646753	 -20.36467530	 6.10940259
No	 2.03646753	 -18.32820777	 4.07293506
Au	 0.00000000	 -20.36467530	 8.14587012
No	 0.00000000	 -18.32820777	 10.18233765
Au	 2.03646753	 -20.36467530	 10.18233765
No	 2.03646753	 -18.32820777	 8.14587012
Au	 0.00000000	 -20.36467530	 12.21880518
No	 0.00000000	 -18.32820777	 14.25527271
Au	 2.03646753	 -20.36467530	 14.25527271
No	 2.03646753	 -18.32820777	 12.21880518
Au	 0.00000000	 -20.36467530	 16.29174024
No	 0.00000000	 -18.32820777	 18.32820777
Au	 2.03646753	 -20.36467530	 18.32820777
No	 2.03646753	 -18.32820777	 16.29174024
Au	 0.00000000	 -16.29174024	 -20.36467530
No	 0.00000000	 -14.25527271	 -18.32820777
No	 2.03646753	 -16.29174024	 -18.32820777
Au	 2.03646753	 -14.25527271	 -20.36467530
No	 0.00000000	 -16.29174024	 -16.29174024
No	 0.00000000	 -14.25527271	 -14.25527271
No	 2.03646753	 -16.29174024	 -14.25527271
No	 2.03646753	 -14.25527271	 -16.29174024
No	 0.00000000	 -16.29174024	 -12.21880518
No	 0.00000000	 -14.25527271	 -10.18233765
No	 2.03646753	 -16.29174024	 -10.18233765
No	 2.03646753	 -14.25527271	 -12.21880518
No	 0.00000000	 -16.29174024	 -8.14587012
No	 0.00000000	 -14.25527271	 -6.10940259
No	 2.03646753	 -16.29174024	 -6.10940259
No	 2.03646753	 -14.25527271	 -8.14587012
No	 0.00000000	 -16.29174024	 -4.07293506
No	 0.00000000	 -14.25527271	 -2.03646753
No	 2.03646753	 -16.29174024	 -2.03646753
No	 2.03646753	 -14.25527271	 -4.07293506
No	 0.00000000	 -16.29174024	 -0.00000000
No	 0.00000000	 -14.25527271	 2.03646753
No	 2.03646753	 -16.29174024	 2.03646753
No	 2.03646753	 -14.25527271	 -0.00000000
No	 0.00000000	 -16.29174024	 4.07293506
No	 0.00000000	 -14.25527271	 6.10940259
No	 2.03646753	 -16.29174024	 6.10940259
No	 2.03646753	 -14.25527271	 4.07293506
No	 0.00000000	 -16.29174024	 8.14587012
No	 0.00000000	 -14.25527271	 10.18233765
No	 2.03646753	 -16.29174024	 10.18233765
No	 2.03646753	 -14.25527271	 8.14587012
No	 0.00000000	 -16.29174024	 12.21880518
No	 0.00000000	 -14.25527271	 14.25527271
No	 2.03646753	 -16.29174024	 14.25527271
No	 2.03646753	 -14.25527271	 12.21880518
No	 0.00000000	 -16.29174024	 16.29174024
No	 0.00000000	 -14.25527271	 18.32820777
No	 2.03646753	 -16.29174024	 18.32820777
No	 2.03646753	 -14.25527271	 16.29174024
Au	 0.00000000	 -12.21880518	 -20.36467530
No	 0.00000000	 -10.18233765	 -18.32820777
No	 2.03646753	 -12.21880518	 -18.32820777
Au	 2.03646753	 -10.18233765	 -20.36467530
No	 0.00000000	 -12.21880518	 -16.29174024
No	 0.00000000	 -10.18233765	 -14.25527271
No	 2.03646753	 -12.21880518	 -14.25527271
No	 2.03646753	 -10.18233765	 -16.29174024
No	 0.00000000	 -12.21880518	 -12.21880518
No	 0.00000000	 -10.18233765	 -10.18233765
No	 2.03646753	 -12.21880518	 -10.18233765
No	 2.03646753	 -10.18233765	 -12.21880518
No	 0.00000000	 -12.21880518	 -8.14587012
No	 0.00000000	 -10.18233765	 -6.10940259
No	 2.03646753	 -12.21880518	 -6.10940259
No	 2.03646753	 -10.18233765	 -8.14587012
No	 0.00000000	 -12.21880518	 -4.07293506
No	 0.00000000	 -10.18233765	 -2.03646753
No	 2.03646753	 -12.21880518	 -2.03646753
No	 2.03646753	 -10.18233765	 -4.07293506
No	 0.00000000	 -12.21880518	 -0.00000000
No	 0.00000000	 -10.18233765	 2.03646753
No	 2.03646753	 -12.21880518	 2.03646753
No	 2.03646753	 -10.18233765	 -0.00000000
No	 0.00000000	 -12.21880518	 4.07293506
No	 0.00000000	 -10.18233765	 6.10940259
No	 2.03646753	 -12.21880518	 6.10940259
No	 2.03646753	 -10.18233765	 4.07293506
No	 0.00000000	 -12.21880518	 8.14587012
No	 0.00000000	 -10.18233765	 10.18233765
No	 2.03646753	 -12.21880518	 10.18233765
No	 2.03646753	 -10.18233765	 8.14587012
No	 0.00000000	 -12.21880518	 12.21880518
No	 0.00000000	 -10.18233765	 14.25527271
No	 2.03646753	 -12.21880518	 14.25527271
No	 2.03646753	 -10.18233765	 12.21880518
No	 0.00000000	 -12.21880518	 16.29174024
No	 0.00000000	 -10.18233765	 18.32820777
No	 2.03646753	 -12.21880518	 18.32820777
No	 2.03646753	 -10.18233765	 16.29174024
Au	 0.00000000	 -8.14587012	 -20.36467530
No	 0.00000000	 -6.10940259	 -18.32820777
No	 2.03646753	 -8.14587012	 -18.32820777
Au	 2.03646753	 -6.10940259	 -20.36467530
No	 0.00000000	 -8.14587012	 -16.29174024
No	 0.00000000	 -6.10940259	 -14.25527271
No	 2.03646753	 -8.14587012	 -14.25527271
No	 2.03646753	 -6.10940259	 -16.29174024
No	 0.00000000	 -8.14587012	 -12.21880518
No	 0.00000000	 -6.10940259	 -10.18233765
No	 2.03646753	 -8.14587012	 -10.18233765
No	 2.03646753	 -6.10940259	 -12.21880518
No	 0.00000000	 -8.14587012	 -8.14587012
No	 0.00000000	 -6.10940259	 -6.10940259
No	 2.03646753	 -8.14587012	 -6.10940259
No	 2.03646753	 -6.10940259	 -8.14587012
No	 0.00000000	 -8.14587012	 -4.07293506
No	 0.00000000	 -6.10940259	 -2.03646753
No	 2.03646753	 -8.14587012	 -2.03646753
No	 2.03646753	 -6.10940259	 -4.07293506
No	 0.00000000	 -8.14587012	 -0.00000000
No	 0.00000000	 -6.10940259	 2.03646753
No	 2.03646753	 -8.14587012	 2.03646753
No	 2.03646753	 -6.10940259	 -0.00000000
No	 0.00000000	 -8.14587012	 4.07293506
No	 0.00000000	 -6.10940259	 6.10940259
No	 2.03646753	 -8.14587012	 6.10940259
No	 2.03646753	 -6.10940259	 4.07293506
No	 0.00000000	 -8.14587012	 8.14587012
No	 0.00000000	 -6.10940259	 10.18233765
No	 2.03646753	 -8.14587012	 10.18233765
No	 2.03646753	 -6.10940259	 8.14587012
No	 0.00000000	 -8.14587012	 12.21880518
No	 0.00000000	 -6.10940259	 14.25527271
No	 2.03646753	 -8.14587012	 14.25527271
No	 2.03646753	 -6.10940259	 12.21880518
No	 0.00000000	 -8.14587012	 16.29174024
No	 0.00000000	 -6.10940259	 18.32820777
No	 2.03646753	 -8.14587012	 18.32820777
No	 2.03646753	 -6.10940259	 16.29174024
Au	 0.00000000	 -4.07293506	 -20.36467530
No	 0.00000000	 -2.03646753	 -18.32820777
No	 2.03646753	 -4.07293506	 -18.32820777
Au	 2.03646753	 -2.03646753	 -20.36467530
No	 0.00000000	 -4.07293506	 -16.29174024
No	 0.00000000	 -2.03646753	 -14.25527271
No	 2.03646753	 -4.07293506	 -14.25527271
No	 2.03646753	 -2.03646753	 -16.29174024
No	 0.00000000	 -4.07293506	 -12.21880518
No	 0.00000000	 -2.03646753	 -10.18233765
No	 2.03646753	 -4.07293506	 -10.18233765
No	 2.03646753	 -2.03646753	 -12.21880518
No	 0.00000000	 -4.07293506	 -8.14587012
No	 0.00000000	 -2.03646753	 -6.10940259
No	 2.03646753	 -4.07293506	 -6.10940259
No	 2.03646753	 -2.03646753	 -8.14587012
No	 0.00000000	 -4.07293506	 -4.07293506
No	 0.00000000	 -2.03646753	 -2.03646753
No	 2.03646753	 -4.07293506	 -2.03646753
No	 2.03646753	 -2.03646753	 -4.07293506
No	 0.00000000	 -4.07293506	 -0.00000000
No	 0.00000000	 -2.03646753	 2.03646753
No	 2.03646753	 -4.07293506	 2.03646753
No	 2.03646753	 -2.03646753	 -0.00000000
No	 0.00000000	 -4.07293506	 4.07293506
No	 0.00000000	 -2.03646753	 6.10940259
No	 2.03646753	 -4.07293506	 6.10940259
No	 2.03646753	 -2.03646753	 4.07293506
No	 0.00000000	 -4.07293506	 8.14587012
No	 0.00000000	 -2.03646753	 10.18233765
No	 2.03646753	 -4.07293506	 10.18233765
No	 2.03646753	 -2.03646753	 8.14587012
No	 0.00000000	 -4.07293506	 12.21880518
No	 0.00000000	 -2.03646753	 14.25527271
No	 2.03646753	 -4.07293506	 14.25527271
No	 2.03646753	 -2.03646753	 12.21880518
No	 0.00000000	 -4.07293506	 16.29174024
No	 0.00000000	 -2.03646753	 18.32820777
No	 2.03646753	 -4.07293506	 18.32820777
No	 2.03646753	 -2.03646753	 16.29174024
Au	 0.00000000	 0.00000000	 -20.36467530
No	 0.00000000	 2.03646753	 -18.32820777
No	 2.03646753	 0.00000000	 -18.32820777
Au	 2.03646753	 2.03646753	 -20.36467530
No	 0.00000000	 0.00000000	 -16.29174024
No	 0.00000000	 2.03646753	 -14.25527271
No	 2.03646753	 0.00000000	 -14.25527271
No	 2.03646753	 2.03646753	 -16.29174024
No	 0.00000000	 0.00000000	 -12.21880518
No	 0.00000000	 2.03646753	 -10.18233765
No	 2.03646753	 0.00000000	 -10.18233765
No	 2.03646753	 2.03646753	 -12.21880518
No	 0.00000000	 0.00000000	 -8.14587012
No	 0.00000000	 2.03646753	 -6.10940259
No	 2.03646753	 0.00000000	 -6.10940259
No	 2.03646753	 2.03646753	 -8.14587012
No	 0.00000000	 0.00000000	 -4.07293506
No	 0.00000000	 2.03646753	 -2.03646753
No	 2.03646753	 0.00000000	 -2.03646753
No	 2.03646753	 2.03646753	 -4.07293506
No	 0.00000000	 0.00000000	 -0.00000000
No	 0.00000000	 2.03646753	 2.03646753
No	 2.03646753	 0.00000000	 2.03646753
No	 2.03646753	 2.03646753	 -0.00000000
No	 0.00000000	 0.00000000	 4.07293506
No	 0.00000000	 2.03646753	 6.10940259
No	 2.03646753	 0.00000000	 6.10940259
No	 2.03646753	 2.03646753	 4.07293506
No	 0.00000000	 0.00000000	 8.14587012
No	 0.00000000	 2.03646753	 10.18233765
No	 2.03646753	 0.00000000	 10.18233765
No	 2.03646753	 2.03646753	 8.14587012
No	 0.00000000	 0.00000000	 12.21880518
No	 0.00000000	 2.03646753	 14.25527271
No	 2.03646753	 0.00000000	 14.25527271
No	 2.03646753	 2.03646753	 12.21880518
No	 0.00000000	 0.00000000	 16.29174024
No	 0.00000000	 2.03646753	 18.32820777
No	 2.03646753	 0.00000000	 18.32820777
No	 2.03646753	 2.03646753	 16.29174024
Au	 0.00000000	 4.07293506	 -20.36467530
No	 0.00000000	 6.10940259	 -18.32820777
No	 2.03646753	 4.07293506	 -18.32820777
Au	 2.03646753	 6.10940259	 -20.36467530
No	 0.00000000	 4.07293506	 -16.29174024
No	 0.00000000	 6.10940259	 -14.25527271
No	 2.03646753	 4.07293506	 -14.25527271
No	 2.03646753	 6.10940259	 -16.29174024
No	 0.00000000	 4.07293506	 -12.21880518
No	 0.00000000	 6.10940259	 -10.18233765
No	 2.03646753	 4.07293506	 -10.18233765
No	 2.03646753	 6.10940259	 -12.21880518
No	 0.00000000	 4.07293506	 -8.14587012
No	 0.00000000	 6.10940259	 -6.10940259
No	 2.03646753	 4.07293506	 -6.10940259
No	 2.03646753	 6.10940259	 -8.14587012
No	 0.00000000	 4.07293506	 -4.07293506
No	 0.00000000	 6.10940259	 -2.03646753
No	 2.03646753	 4.07293506	 -2.03646753
No	 2.03646753	 6.10940259	 -4.07293506
No	 0.00000000	 4.07293506	 -0.00000000
No	 0.00000000	 6.10940259	 2.03646753
No	 2.03646753	 4.07293506	 2.03646753
No	 2.03646753	 6.10940259	 -0.00000000
No	 0.00000000	 4.07293506	 4.07293506
No	 0.00000000	 6.10940259	 6.10940259
No	 2.03646753	 4.07293506	 6.10940259
No	 2.03646753	 6.10940259	 4.07293506
No	 0.00000000	 4.07293506	 8.14587012
No	 0.00000000	 6.10940259	 10.18233765
No	 2.03646753	 4.07293506	 10.18233765
No	 2.03646753	 6.10940259	 8.14587012
No	 0.00000000	 4.07293506	 12.21880518
No	 0.00000000	 6.10940259	 14.25527271
No	 2.03646753	 4.07293506	 14.25527271
No	 2.03646753	 6.10940259	 12.21880518
No	 0.00000000	 4.07293506	 16.29174024
No	 0.00000000	 6.10940259	 18.32820777
No	 2.03646753	 4.07293506	 18.32820777
No	 2.03646753	 6.10940259	 16.29174024
Au	 0.00000000	 8.14587012	 -20.36467530
No	 0.00000000	 10.18233765	 -18.32820777
No	 2.03646753	 8.14587012	 -18.32820777
Au	 2.03646753	 10.18233765	 -20.36467530
No	 0.00000000	 8.14587012	 -16.29174024
No	 0.00000000	 10.18233765	 -14.25527271
No	 2.03646753	 8.14587012	 -14.25527271
No	 2.03646753	 10.18233765	 -16.29174024
No	 0.00000000	 8.14587012	 -12.21880518
No	 0.00000000	 10.18233765	 -10.18233765
No	 2.03646753	 8.14587012	 -10.18233765
No	 2.03646753	 10.18233765	 -12.21880518
No	 0.00000000	 8.14587012	 -8.14587012
No	 0.00000000	 10.18233765	 -6.10940259
No	 2.03646753	 8.14587012	 -6.10940259
No	 2.03646753	 10.18233765	 -8.14587012
No	 0.00000000	 8.14587012	 -4.07293506
No	 0.00000000	 10.18233765	 -2.03646753
No	 2.03646753	 8.14587012	 -2.03646753
No	 2.03646753	 10.18233765	 -4.07293506
No	 0.00000000	 8.14587012	 -0.00000000
No	 0.00000000	 10.18233765	 2.03646753
No	 2.03646753	 8.14587012	 2.03646753
No	 2.03646753	 10.18233765	 -0.00000000
No	 0.00000000	 8.14587012	 4.07293506
No	 0.00000000	 10.18233765	 6.10940259
No	 2.03646753	 8.14587012	 6.10940259
No	 2.03646753	 10.18233765	 4.07293506
No	 0.00000000	 8.14587012	 8.14587012
No	 0.00000000	 10.18233765	 10.18233765
No	 2.03646753	 8.14587012	 10.18233765
No	 2.03646753	 10.18233765	 8.14587012
No	 0.00000000	 8.14587012	 12.21880518
No	 0.00000000	 10.18233765	 14.25527271
No	 2.03646753	 8.14587012	 14.25527271
No	 2.03646753	 10.18233765	 12.21880518
No	 0.00000000	 8.14587012	 16.29174024
No	 0.00000000	 10.18233765	 18.32820777
No	 2.03646753	 8.14587012	 18.32820777
No	 2.03646753	 10.18233765	 16.29174024
Au	 0.00000000	 12.21880518	 -20.36467530
No	 0.00000000	 14.25527271	 -18.32820777
No	 2.03646753	 12.21880518	 -18.32820777
Au	 2.03646753	 14.25527271	 -20.36467530
No	 0.00000000	 12.21880518	 -16.29174024
No	 0.00000000	 14.25527271	 -14.25527271
No	 2.03646753	 12.21880518	 -14.25527271
No	 2.03646753	 14.25527271	 -16.29174024
No	 0.00000000	 12.21880518	 -12.21880518
No	 0.00000000	 14.25527271	 -10.18233765
No	 2.03646753	 12.21880518	 -10.18233765
No	 2.03646753	 14.25527271	 -12.21880518
No	 0.00000000	 12.21880518	 -8.14587012
No	 0.00000000	 14.25527271	 -6.10940259
No	 2.03646753	 12.21880518	 -6.10940259
No	 2.03646753	 14.25527271	 -8.14587012
No	 0.00000000	 12.21880518	 -4.07293506
No	 0.00000000	 14.25527271	 -2.03646753
No	 2.03646753	 12.21880518	 -2.03646753
No	 2.03646753	 14.25527271	 -4.07293506
No	 0.00000000	 12.21880518	 -0.00000000
No	 0.00000000	 14.25527271	 2.03646753
No	 2.03646753	 12.21880518	 2.03646753
No	 2.03646753	 14.25527271	 -0.00000000
No	 0.00000000	 12.21880518	 4.07293506
No	 0.00000000	 14.25527271	 6.10940259
No	 2.03646753	 12.21880518	 6.10940259
No	 2.03646753	 14.25527271	 4.07293506
No	 0.00000000	 12.21880518	 8.14587012
No	 0.00000000	 14.25527271	 10.18233765
No	 2.03646753	 12.21880518	 10.18233765
No	 2.03646753	 14.25527271	 8.14587012
No	 0.00000000	 12.21880518	 12.21880518
No	 0.00000000	 14.25527271	 14.25527271
No	 2.03646753	 12.21880518	 14.25527271
No	 2.03646753	 14.25527271	 12.21880518
No	 0.00000000	 12.21880518	 16.29174024
No	 0.00000000	 14.25527271	 18.32820777
No	 2.03646753	 12.21880518	 18.32820777
No	 2.03646753	 14.25527271	 16.29174024
Au	 0.00000000	 16.29174024	 -20.36467530
No	 0.00000000	 18.32820777	 -18.32820777
No	 2.03646753	 16.29174024	 -18.32820777
Au	 2.03646753	 18.32820777	 -20.36467530
No	 0.00000000	 16.29174024	 -16.29174024
No	 0.00000000	 18.32820777	 -14.25527271
No	 2.03646753	 16.29174024	 -14.25527271
No	 2.03646753	 18.32820777	 -16.29174024
No	 0.00000000	 16.29174024	 -12.21880518
No	 0.00000000	 18.32820777	 -10.18233765
No	 2.03646753	 16.29174024	 -10.18233765
No	 2.03646753	 18.32820777	 -12.21880518
No	 0.00000000	 16.29174024	 -8.14587012
No	 0.00000000	 18.32820777	 -6.10940259
No	 2.03646753	 16.29174024	 -6.10940259
No	 2.03646753	 18.32820777	 -8.14587012
No	 0.00000000	 16.29174024	 -4.07293506
No	 0.00000000	 18.32820777	 -2.03646753
No	 2.03646753	 16.29174024	 -2.03646753
No	 2.03646753	 18.32820777	 -4.07293506
No	 0.00000000	 16.29174024	 -0.00000000
No	 0.00000000	 18.32820777	 2.03646753
No	 2.03646753	 16.29174024	 2.03646753
No	 2.03646753	 18.32820777	 -0.00000000
No	 0.00000000	 16.29174024	 4.07293506
No	 0.00000000	 18.32820777	 6.10940259
No	 2.03646753	 16.29174024	 6.10940259
No	 2.03646753	 18.32820777	 4.07293506
No	 0.00000000	 16.29174024	 8.14587012
No	 0.00000000	 18.32820777	 10.18233765
No	 2.03646753	 16.29174024	 10.18233765
No	 2.03646753	 18.32820777	 8.14587012
No	 0.00000000	 16.29174024	 12.21880518
No	 0.00000000	 18.32820777	 14.25527271
No	 2.03646753	 16.29174024	 14.25527271
No	 2.03646753	 18.32820777	 12.21880518
No	 0.00000000	 16.29174024	 16.29174024
No	 0.00000000	 18.32820777	 18.32820777
No	 2.03646753	 16.29174024	 18.32820777
No	 2.03646753	 18.32820777	 16.29174024
Au	 4.07293506	 -20.36467530	 -20.36467530
No	 4.07293506	 -18.32820777	 -18.32820777
Au	 6.10940259	 -20.36467530	 -18.32820777
Au	 6.10940259	 -18.32820777	 -20.36467530
Au	 4.07293506	 -20.36467530	 -16.29174024
No	 4.07293506	 -18.32820777	 -14.25527271
Au	 6.10940259	 -20.36467530	 -14.25527271
No	 6.10940259	 -18.32820777	 -16.29174024
Au	 4.07293506	 -20.36467530	 -12.21880518
No	 4.07293506	 -18.32820777	 -10.18233765
Au	 6.10940259	 -20.36467530	 -10.18233765
No	 6.10940259	 -18.32820777	 -12.21880518
Au	 4.07293506	 -20.36467530	 -8.14587012
No	 4.07293506	 -18.32820777	 -6.10940259
Au	 6.10940259	 -20.36467530	 -6.10940259
No	 6.10940259	 -18.32820777	 -8.14587012
Au	 4.07293506	 -20.36467530	 -4.07293506
No	 4.07293506	 -18.32820777	 -2.03646753
Au	 6.10940259	 -20.36467530	 -2.03646753
No	 6.10940259	 -18.32820777	 -4.07293506
Au	 4.07293506	 -20.36467530	 -0.00000000
No	 4.07293506	 -18.32820777	 2.03646753
Au	 6.10940259	 -20.36467530	 2.03646753
No	 6.10940259	 -18.32820777	 -0.00000000
Au	 4.07293506	 -20.36467530	 4.07293506
No	 4.07293506	 -18.32820777	 6.10940259
Au	 6.10940259	 -20.36467530	 6.10940259
No	 6.10940259	 -18.32820777	 4.07293506
Au	 4.07293506	 -20.36467530	 8.14587012
No	 4.07293506	 -18.32820777	 10.18233765
Au	 6.10940259	 -20.36467530	 10.18233765
No	 6.10940259	 -18.32820777	 8.14587012
Au	 4.07293506	 -20.36467530	 12.21880518
No	 4.07293506	 -18.32820777	 14.25527271
Au	 6.10940259	 -20.36467530	 14.25527271
No	 6.10940259	 -18.32820777	 12.21880518
Au	 4.07293506	 -20.36467530	 16.29174024
No	 4.07293506	 -18.32820777	 18.32820777
Au	 6.10940259	 -20.36467530	 18.32820777
No	 6.10940259	 -18.32820777	 16.29174024
Au	 4.07293506	 -16.29174024	 -20.36467530
No	 4.07293506	 -14.25527271	 -18.32820777
No	 6.10940259	 -16.29174024	 -18.32820777
Au	 6.10940259	 -14.25527271	 -20.36467530
No	 4.07293506	 -16.29174024	 -16.29174024
No	 4.07293506	 -14.25527271	 -14.25527271
No	 6.10940259	 -16.29174024	 -14.25527271
No	 6.10940259	 -14.25527271	 -16.29174024
No	 4.07293506	 -16.29174024	 -12.21880518
No	 4.07293506	 -14.25527271	 -10.18233765
No	 6.10940259	 -16.29174024	 -10.18233765
No	 6.10940259	 -14.25527271	 -12.21880518
No	 4.07293506	 -16.29174024	 -8.14587012
No	 4.07293506	 -14.25527271	 -6.10940259
No	 6.10940259	 -16.29174024	 -6.10940259
No	 6.10940259	 -14.25527271	 -8.14587012
No	 4.07293506	 -16.29174024	 -4.07293506
No	 4.07293506	 -14.25527271	 -2.03646753
No	 6.10940259	 -16.29174024	 -2.03646753
No	 6.10940259	 -14.25527271	 -4.07293506
No	 4.07293506	 -16.29174024	 -0.00000000
No	 4.07293506	 -14.25527271	 2.03646753
No	 6.10940259	 -16.29174024	 2.03646753
No	 6.10940259	 -14.25527271	 -0.00000000
No	 4.07293506	 -16.29174024	 4.07293506
No	 4.07293506	 -14.25527271	 6.10940259
No	 6.10940259	 -16.29174024	 6.10940259
No	 6.10940259	 -14.25527271	 4.07293506
No	 4.07293506	 -16.29174024	 8.14587012
No	 4.07293506	 -14.25527271	 10.18233765
No	 6.10940259	 -16.29174024	 10.18233765
No	 6.10940259	 -14.25527271	 8.14587012
No	 4.07293506	 -16.29174024	 12.21880518
No	 4.07293506	 -14.25527271	 14.25527271
No	 6.10940259	 -16.29174024	 14.25527271
No	 6.10940259	 -14.25527271	 12.21880518
No	 4.07293506	 -16.29174024	 16.29174024
No	 4.07293506	 -14.25527271	 18.32820777
No	 6.10940259	 -16.29174024	 18.32820777
No	 6.10940259	 -14.25527271	 16.29174024
Au	 4.07293506	 -12.21880518	 -20.36467530
No	 4.07293506	 -10.18233765	 -18.32820777
No	 6.10940259	 -12.21880518	 -18.32820777
Au	 6.10940259	 -10.18233765	 -20.36467530
No	 4.07293506	 -12.21880518	 -16.29174024
No	 4.07293506	 -10.18233765	 -14.25527271
No	 6.10940259	 -12.21880518	 -14.25527271
No	 6.10940259	 -10.18233765	 -16.29174024
No	 4.07293506	 -12.21880518	 -12.21880518
No	 4.07293506	 -10.18233765	 -10.18233765
No	 6.10940259	 -12.21880518	 -10.18233765
No	 6.10940259	 -10.18233765	 -12.21880518
No	 4.07293506	 -12.21880518	 -8.14587012
No	 4.07293506	 -10.18233765	 -6.10940259
No	 6.10940259	 -12.21880518	 -6.10940259
No	 6.10940259	 -10.18233765	 -8.14587012
No	 4.07293506	 -12.21880518	 -4.07293506
No	 4.07293506	 -10.18233765	 -2.03646753
No	 6.10940259	 -12.21880518	 -2.03646753
No	 6.10940259	 -10.18233765	 -4.07293506
No	 4.07293506	 -12.21880518	 -0.00000000
No	 4.07293506	 -10.18233765	 2.03646753
No	 6.10940259	 -12.21880518	 2.03646753
No	 6.10940259	 -10.18233765	 -0.00000000
No	 4.07293506	 -12.21880518	 4.07293506
No	 4.07293506	 -10.18233765	 6.10940259
No	 6.10940259	 -12.21880518	 6.10940259
No	 6.10940259	 -10.18233765	 4.07293506
No	 4.07293506	 -12.21880518	 8.14587012
No	 4.07293506	 -10.18233765	 10.18233765
No	 6.10940259	 -12.21880518	 10.18233765
No	 6.10940259	 -10.18233765	 8.14587012
No	 4.07293506	 -12.21880518	 12.21880518
No	 4.07293506	 -10.18233765	 14.25527271
No	 6.10940259	 -12.21880518	 14.25527271
No	 6.10940259	 -10.18233765	 12.21880518
No	 4.07293506	 -12.21880518	 16.29174024
No	 4.07293506	 -10.18233765	 18.32820777
No	 6.10940259	 -12.21880518	 18.32820777
No	 6.10940259	 -10.18233765	 16.29174024
Au	 4.07293506	 -8.14587012	 -20.36467530
No	 4.07293506	 -6.10940259	 -18.32820777
No	 6.10940259	 -8.14587012	 -18.32820777
Au	 6.10940259	 -6.10940259	 -20.36467530
No	 4.07293506	 -8.14587012	 -16.29174024
No	 4.07293506	 -6.10940259	 -14.25527271
No	 6.10940259	 -8.14587012	 -14.25527271
No	 6.10940259	 -6.10940259	 -16.29174024
No	 4.07293506	 -8.14587012	 -12.21880518
No	 4.07293506	 -6.10940259	 -10.18233765
No	 6.10940259	 -8.14587012	 -10.18233765
No	 6.10940259	 -6.10940259	 -12.21880518
No	 4.07293506	 -8.14587012	 -8.14587012
No	 4.07293506	 -6.10940259	 -6.10940259
No	 6.10940259	 -8.14587012	 -6.10940259
No	 6.10940259	 -6.10940259	 -8.14587012
No	 4.07293506	 -8.14587012	 -4.07293506
No	 4.07293506	 -6.10940259	 -2.03646753
No	 6.10940259	 -8.14587012	 -2.03646753
No	 6.10940259	 -6.10940259	 -4.07293506
No	 4.07293506	 -8.14587012	 -0.00000000
No	 4.07293506	 -6.10940259	 2.03646753
No	 6.10940259	 -8.14587012	 2.03646753
No	 6.10940259	 -6.10940259	 -0.00000000
No	 4.07293506	 -8.14587012	 4.07293506
No	 4.07293506	 -6.10940259	 6.10940259
No	 6.10940259	 -8.14587012	 6.10940259
No	 6.10940259	 -6.10940259	 4.07293506
No	 4.07293506	 -8.14587012	 8.14587012
No	 4.07293506	 -6.10940259	 10.18233765
No	 6.10940259	 -8.14587012	 10.18233765
No	 6.10940259	 -6.10940259	 8.14587012
No	 4.07293506	 -8.14587012	 12.21880518
No	 4.07293506	 -6.10940259	 14.25527271
No	 6.10940259	 -8.14587012	 14.25527271
No	 6.10940259	 -6.10940259	 12.21880518
No	 4.07293506	 -8.14587012	 16.29174024
No	 4.07293506	 -6.10940259	 18.32820777
No	 6.10940259	 -8.14587012	 18.32820777
No	 6.10940259	 -6.10940259	 16.29174024
Au	 4.07293506	 -4.07293506	 -20.36467530
No	 4.07293506	 -2.03646753	 -18.32820777
No	 6.10940259	 -4.07293506	 -18.32820777
Au	 6.10940259	 -2.03646753	 -20.36467530
No	 4.07293506	 -4.07293506	 -16.29174024
No	 4.07293506	 -2.03646753	 -14.25527271
No	 6.10940259	 -4.07293506	 -14.25527271
No	 6.10940259	 -2.03646753	 -16.29174024
No	 4.07293506	 -4.07293506	 -12.21880518
No	 4.07293506	 -2.03646753	 -10.18233765
No	 6.10940259	 -4.07293506	 -10.18233765
No	 6.10940259	 -2.03646753	 -12.21880518
No	 4.07293506	 -4.07293506	 -8.14587012
No	 4.07293506	 -2.03646753	 -6.10940259
No	 6.10940259	 -4.07293506	 -6.10940259
No	 6.10940259	 -2.03646753	 -8.14587012
No	 4.07293506	 -4.07293506	 -4.07293506
No	 4.07293506	 -2.03646753	 -2.03646753
No	 6.10940259	 -4.07293506	 -2.03646753
No	 6.10940259	 -2.03646753	 -4.07293506
No	 4.07293506	 -4.07293506	 -0.00000000
No	 4.07293506	 -2.03646753	 2.03646753
No	 6.10940259	 -4.07293506	 2.03646753
No	 6.10940259	 -2.03646753	 -0.00000000
No	 4.07293506	 -4.07293506	 4.07293506
No	 4.07293506	 -2.03646753	 6.10940259
No	 6.10940259	 -4.07293506	 6.10940259
No	 6.10940259	 -2.03646753	 4.07293506
No	 4.07293506	 -4.07293506	 8.14587012
No	 4.07293506	 -2.03646753	 10.18233765
No	 6.10940259	 -4.07293506	 10.18233765
No	 6.10940259	 -2.03646753	 8.14587012
No	 4.07293506	 -4.07293506	 12.21880518
No	 4.07293506	 -2.03646753	 14.25527271
No	 6.10940259	 -4.07293506	 14.25527271
No	 6.10940259	 -2.03646753	 12.21880518
No	 4.07293506	 -4.07293506	 16.29174024
No	 4.07293506	 -2.03646753	 18.32820777
No	 6.10940259	 -4.07293506	 18.32820777
No	 6.10940259	 -2.03646753	 16.29174024
Au	 4.07293506	 0.00000000	 -20.36467530
No	 4.07293506	 2.03646753	 -18.32820777
No	 6.10940259	 0.00000000	 -18.32820777
Au	 6.10940259	 2.03646753	 -20.36467530
No	 4.07293506	 0.00000000	 -16.29174024
No	 4.07293506	 2.03646753	 -14.25527271
No	 6.10940259	 0.00000000	 -14.25527271
No	 6.10940259	 2.03646753	 -16.29174024
No	 4.07293506	 0.00000000	 -12.21880518
No	 4.07293506	 2.03646753	 -10.18233765
No	 6.10940259	 0.00000000	 -10.18233765
No	 6.10940259	 2.03646753	 -12.21880518
No	 4.07293506	 0.00000000	 -8.14587012
No	 4.07293506	 2.03646753	 -6.10940259
No	 6.10940259	 0.00000000	 -6.10940259
No	 6.10940259	 2.03646753	 -8.14587012
No	 4.07293506	 0.00000000	 -4.07293506
No	 4.07293506	 2.03646753	 -2.03646753
No	 6.10940259	 0.00000000	 -2.03646753
No	 6.10940259	 2.03646753	 -4.07293506
No	 4.07293506	 0.00000000	 -0.00000000
No	 4.07293506	 2.03646753	 2.03646753
No	 6.10940259	 0.00000000	 2.03646753
No	 6.10940259	 2.03646753	 -0.00000000
No	 4.07293506	 0.00000000	 4.07293506
No	 4.07293506	 2.03646753	 6.10940259
No	 6.10940259	 0.00000000	 6.10940259
No	 6.10940259	 2.03646753	 4.07293506
No	 4.07293506	 0.00000000	 8.14587012
No	 4.07293506	 2.03646753	 10.18233765
No	 6.10940259	 0.00000000	 10.18233765
No	 6.10940259	 2.03646753	 8.14587012
No	 4.07293506	 0.00000000	 12.21880518
No	 4.07293506	 2.03646753	 14.25527271
No	 6.10940259	 0.00000000	 14.25527271
No	 6.10940259	 2.03646753	 12.21880518
No	 4.07293506	 0.00000000	 16.29174024
No	 4.07293506	 2.03646753	 18.32820777
No	 6.10940259	 0.00000000	 18.32820777
No	 6.10940259	 2.03646753	 16.29174024
Au	 4.07293506	 4.07293506	 -20.36467530
No	 4.07293506	 6.10940259	 -18.32820777
No	 6.10940259	 4.07293506	 -18.32820777
Au	 6.10940259	 6.10940259	 -20.36467530
No	 4.07293506	 4.07293506	 -16.29174024
No	 4.07293506	 6.10940259	 -14.25527271
No	 6.10940259	 4.07293506	 -14.25527271
No	 6.10940259	 6.10940259	 -16.29174024
No	 4.07293506	 4.07293506	 -12.21880518
No	 4.07293506	 6.10940259	 -10.18233765
No	 6.10940259	 4.07293506	 -10.18233765
No	 6.10940259	 6.10940259	 -12.21880518
No	 4.07293506	 4.07293506	 -8.14587012
No	 4.07293506	 6.10940259	 -6.10940259
No	 6.10940259	 4.07293506	 -6.10940259
No	 6.10940259	 6.10940259	 -8.14587012
No	 4.07293506	 4.07293506	 -4.07293506
No	 4.07293506	 6.10940259	 -2.03646753
No	 6.10940259	 4.07293506	 -2.03646753
No	 6.10940259	 6.10940259	 -4.07293506
No	 4.07293506	 4.07293506	 -0.00000000
No	 4.07293506	 6.10940259	 2.03646753
No	 6.10940259	 4.07293506	 2.03646753
No	 6.10940259	 6.10940259	 -0.00000000
No	 4.07293506	 4.07293506	 4.07293506
No	 4.07293506	 6.10940259	 6.10940259
No	 6.10940259	 4.07293506	 6.10940259
No	 6.10940259	 6.10940259	 4.07293506
No	 4.07293506	 4.07293506	 8.14587012
No	 4.07293506	 6.10940259	 10.18233765
No	 6.10940259	 4.07293506	 10.18233765
No	 6.10940259	 6.10940259	 8.14587012
No	 4.07293506	 4.07293506	 12.21880518
No	 4.07293506	 6.10940259	 14.25527271
No	 6.10940259	 4.07293506	 14.25527271
No	 6.10940259	 6.10940259	 12.21880518
No	 4.07293506	 4.07293506	 16.29174024
No	 4.07293506	 6.10940259	 18.32820777
No	 6.10940259	 4.07293506	 18.32820777
No	 6.10940259	 6.10940259	 16.29174024
Au	 4.07293506	 8.14587012	 -20.36467530
No	 4.07293506	 10.18233765	 -18.32820777
No	 6.10940259	 8.14587012	 -18.32820777
Au	 6.10940259	 10.18233765	 -20.36467530
No	 4.07293506	 8.14587012	 -16.29174024
No	 4.07293506	 10.18233765	 -14.25527271
No	 6.10940259	 8.14587012	 -14.25527271
No	 6.10940259	 10.18233765	 -16.29174024
No	 4.07293506	 8.14587012	 -12.21880518
No	 4.07293506	 10.18233765	 -10.18233765
No	 6.10940259	 8.14587012	 -10.18233765
No	 6.10940259	 10.18233765	 -12.21880518
No	 4.07293506	 8.14587012	 -8.14587012
No	 4.07293506	 10.18233765	 -6.10940259
No	 6.10940259	 8.14587012	 -6.10940259
No	 6.10940259	 10.18233765	 -8.14587012
No	 4.07293506	 8.14587012	 -4.07293506
No	 4.07293506	 10.18233765	 -2.03646753
No	 6.10940259	 8.14587012	 -2.03646753
No	 6.10940259	 10.18233765	 -4.07293506
No	 4.07293506	 8.14587012	 -0.00000000
No	 4.07293506	 10.18233765	 2.03646753
No	 6.10940259	 8.14587012	 2.03646753
No	 6.10940259	 10.18233765	 -0.00000000
No	 4.07293506	 8.14587012	 4.07293506
No	 4.07293506	 10.18233765	 6.10940259
No	 6.10940259	 8.14587012	 6.10940259
No	 6.10940259	 10.18233765	 4.07293506
No	 4.07293506	 8.14587012	 8.14587012
No	 4.07293506	 10.18233765	 10.18233765
No	 6.10940259	 8.14587012	 10.18233765
No	 6.10940259	 10.18233765	 8.14587012
No	 4.07293506	 8.14587012	 12.21880518
No	 4.07293506	 10.18233765	 14.25527271
No	 6.10940259	 8.14587012	 14.25527271
No	 6.10940259	 10.18233765	 12.21880518
No	 4.07293506	 8.14587012	 16.29174024
No	 4.07293506	 10.18233765	 18.32820777
No	 6.10940259	 8.14587012	 18.32820777
No	 6.10940259	 10.18233765	 16.29174024
Au	 4.07293506	 12.21880518	 -20.36467530
No	 4.07293506	 14.25527271	 -18.32820777
No	 6.10940259	 12.21880518	 -18.32820777
Au	 6.10940259	 14.25527271	 -20.36467530
No	 4.07293506	 12.21880518	 -16.29174024
No	 4.07293506	 14.25527271	 -14.25527271
No	 6.10940259	 12.21880518	 -14.25527271
No	 6.10940259	 14.25527271	 -16.29174024
No	 4.07293506	 12.21880518	 -12.21880518
No	 4.07293506	 14.25527271	 -10.18233765
No	 6.10940259	 12.21880518	 -10.18233765
No	 6.10940259	 14.25527271	 -12.21880518
No	 4.07293506	 12.21880518	 -8.14587012
No	 4.07293506	 14.25527271	 -6.10940259
No	 6.10940259	 12.21880518	 -6.10940259
No	 6.10940259	 14.25527271	 -8.14587012
No	 4.07293506	 12.21880518	 -4.07293506
No	 4.07293506	 14.25527271	 -2.03646753
No	 6.10940259	 12.21880518	 -2.03646753
No	 6.10940259	 14.25527271	 -4.07293506
No	 4.07293506	 12.21880518	 -0.00000000
No	 4.07293506	 14.25527271	 2.03646753
No	 6.10940259	 12.21880518	 2.03646753
No	 6.10940259	 14.25527271	 -0.00000000
No	 4.07293506	 12.21880518	 4.07293506
No	 4.07293506	 14.25527271	 6.10940259
No	 6.10940259	 12.21880518	 6.10940259
No	 6.10940259	 14.25527271	 4.07293506
No	 4.07293506	 12.21880518	 8.14587012
No	 4.07293506	 14.25527271	 10.18233765
No	 6.10940259	 12.21880518	 10.18233765
No	 6.10940259	 14.25527271	 8.14587012
No	 4.07293506	 12.21880518	 12.21880518
No	 4.07293506	 14.25527271	 14.25527271
No	 6.10940259	 12.21880518	 14.25527271
No	 6.10940259	 14.25527271	 12.21880518
No	 4.07293506	 12.21880518	 16.29174024
No	 4.07293506	 14.25527271	 18.32820777
No	 6.10940259	 12.21880518	 18.32820777
No	 6.10940259	 14.25527271	 16.29174024
Au	 4.07293506	 16.29174024	 -20.36467530
No	 4.07293506	 18.32820777	 -18.32820777
No	 6.10940259	 16.29174024	 -18.32820777
Au	 6.10940259	 18.32820777	 -20.36467530
No	 4.07293506	 16.29174024	 -16.29174024
No	 4.07293506	 18.32820777	 -14.25527271
No	 6.10940259	 16.29174024	 -14.25527271
No	 6.10940259	 18.32820777	 -16.29174024
No	 4.07293506	 16.29174024	 -12.21880518
No	 4.07293506	 18.32820777	 -10.18233765
No	 6.10940259	 16.29174024	 -10.18233765
No	 6.10940259	 18.32820777	 -12.21880518
No	 4.07293506	 16.29174024	 -8.14587012
No	 4.07293506	 18.32820777	 -6.10940259
No	 6.10940259	 16.29174024	 -6.10940259
No	 6.10940259	 18.32820777	 -8.14587012
No	 4.07293506	 16.29174024	 -4.07293506
No	 4.07293506	 18.32820777	 -2.03646753
No	 6.10940259	 16.29174024	 -2.03646753
No	 6.10940259	 18.32820777	 -4.07293506
No	 4.07293506	 16.29174024	 -0.00000000
No	 4.07293506	 18.32820777	 2.03646753
No	 6.10940259	 16.29174024	 2.03646753
No	 6.10940259	 18.32820777	 -0.00000000
No	 4.07293506	 16.29174024	 4.07293506
No	 4.07293506	 18.32820777	 6.10940259
No	 6.10940259	 16.29174024	 6.10940259
No	 6.10940259	 18.32820777	 4.07293506
No	 4.07293506	 16.29174024	 8.14587012
No	 4.07293506	 18.32820777	 10.18233765
No	 6.10940259	 16.29174024	 10.18233765
No	 6.10940259	 18.32820777	 8.14587012
No	 4.07293506	 16.29174024	 12.21880518
No	 4.07293506	 18.32820777	 14.25527271
No	 6.10940259	 16.29174024	 14.25527271
No	 6.10940259	 18.32820777	 12.21880518
No	 4.07293506	 16.29174024	 16.29174024
No	 4.07293506	 18.32820777	 18.32820777
No	 6.10940259	 16.29174024	 18.32820777
No	 6.10940259	 18.32820777	 16.29174024
Au	 8.14587012	 -20.36467530	 -20.36467530
No	 8.14587012	 -18.32820777	 -18.32820777
Au	 10.18233765	 -20.36467530	 -18.32820777
Au	 10.18233765	 -18.32820777	 -20.36467530
Au	 8.14587012	 -20.36467530	 -16.29174024
No	 8.14587012	 -18.32820777	 -14.25527271
Au	 10.18233765	 -20.36467530	 -14.25527271
No	 10.18233765	 -18.32820777	 -16.29174024
Au	 8.14587012	 -20.36467530	 -12.21880518
No	 8.14587012	 -18.32820777	 -10.18233765
Au	 10.18233765	 -20.36467530	 -10.18233765
No	 10.18233765	 -18.32820777	 -12.21880518
Au	 8.14587012	 -20.36467530	 -8.14587012
No	 8.14587012	 -18.32820777	 -6.10940259
Au	 10.18233765	 -20.36467530	 -6.10940259
No	 10.18233765	 -18.32820777	 -8.14587012
Au	 8.14587012	 -20.36467530	 -4.07293506
No	 8.14587012	 -18.32820777	 -2.03646753
Au	 10.18233765	 -20.36467530	 -2.03646753
No	 10.18233765	 -18.32820777	 -4.07293506
Au	 8.14587012	 -20.36467530	 -0.00000000
No	 8.14587012	 -18.32820777	 2.03646753
Au	 10.18233765	 -20.36467530	 2.03646753
No	 10.18233765	 -18.32820777	 -0.00000000
Au	 8.14587012	 -20.36467530	 4.07293506
No	 8.14587012	 -18.32820777	 6.10940259
Au	 10.18233765	 -20.36467530	 6.10940259
No	 10.18233765	 -18.32820777	 4.07293506
Au	 8.14587012	 -20.36467530	 8.14587012
No	 8.14587012	 -18.32820777	 10.18233765
Au	 10.18233765	 -20.36467530	 10.18233765
No	 10.18233765	 -18.32820777	 8.14587012
Au	 8.14587012	 -20.36467530	 12.21880518
No	 8.14587012	 -18.32820777	 14.25527271
Au	 10.18233765	 -20.36467530	 14.25527271
No	 10.18233765	 -18.32820777	 12.21880518
Au	 8.14587012	 -20.36467530	 16.29174024
No	 8.14587012	 -18.32820777	 18.32820777
Au	 10.18233765	 -20.36467530	 18.32820777
No	 10.18233765	 -18.32820777	 16.29174024
Au	 8.14587012	 -16.29174024	 -20.36467530
No	 8.14587012	 -14.25527271	 -18.32820777
No	 10.18233765	 -16.29174024	 -18.32820777
Au	 10.18233765	 -14.25527271	 -20.36467530
No	 8.14587012	 -16.29174024	 -16.29174024
No	 8.14587012	 -14.25527271	 -14.25527271
No	 10.18233765	 -16.29174024	 -14.25527271
No	 10.18233765	 -14.25527271	 -16.29174024
No	 8.14587012	 -16.29174024	 -12.21880518
No	 8.14587012	 -14.25527271	 -10.18233765
No	 10.18233765	 -16.29174024	 -10.18233765
No	 10.18233765	 -14.25527271	 -12.21880518
No	 8.14587012	 -16.29174024	 -8.14587012
No	 8.14587012	 -14.25527271	 -6.10940259
No	 10.18233765	 -16.29174024	 -6.10940259
No	 10.18233765	 -14.25527271	 -8.14587012
No	 8.14587012	 -16.29174024	 -4.07293506
No	 8.14587012	 -14.25527271	 -2.03646753
No	 10.18233765	 -16.29174024	 -2.03646753
No	 10.18233765	 -14.25527271	 -4.07293506
No	 8.14587012	 -16.29174024	 -0.00000000
No	 8.14587012	 -14.25527271	 2.03646753
No	 10.18233765	 -16.29174024	 2.03646753
No	 10.18233765	 -14.25527271	 -0.00000000
No	 8.14587012	 -16.29174024	 4.07293506
No	 8.14587012	 -14.25527271	 6.10940259
No	 10.18233765	 -16.29174024	 6.10940259
No	 10.18233765	 -14.25527271	 4.07293506
No	 8.14587012	 -16.29174024	 8.14587012
No	 8.14587012	 -14.25527271	 10.18233765
No	 10.18233765	 -16.29174024	 10.18233765
No	 10.18233765	 -14.25527271	 8.14587012
No	 8.14587012	 -16.29174024	 12.21880518
No	 8.14587012	 -14.25527271	 14.25527271
No	 10.18233765	 -16.29174024	 14.25527271
No	 10.18233765	 -14.25527271	 12.21880518
No	 8.14587012	 -16.29174024	 16.29174024
No	 8.14587012	 -14.25527271	 18.32820777
No	 10.18233765	 -16.29174024	 18.32820777
No	 10.18233765	 -14.25527271	 16.29174024
Au	 8.14587012	 -12.21880518	 -20.36467530
No	 8.14587012	 -10.18233765	 -18.32820777
No	 10.18233765	 -12.21880518	 -18.32820777
Au	 10.18233765	 -10.18233765	 -20.36467530
No	 8.14587012	 -12.21880518	 -16.29174024
No	 8.14587012	 -10.18233765	 -14.25527271
No	 10.18233765	 -12.21880518	 -14.25527271
No	 10.18233765	 -10.18233765	 -16.29174024
No	 8.14587012	 -12.21880518	 -12.21880518
No	 8.14587012	 -10.18233765	 -10.18233765
No	 10.18233765	 -12.21880518	 -10.18233765
No	 10.18233765	 -10.18233765	 -12.21880518
No	 8.14587012	 -12.21880518	 -8.14587012
No	 8.14587012	 -10.18233765	 -6.10940259
No	 10.18233765	 -12.21880518	 -6.10940259
No	 10.18233765	 -10.18233765	 -8.14587012
No	 8.14587012	 -12.21880518	 -4.07293506
No	 8.14587012	 -10.18233765	 -2.03646753
No	 10.18233765	 -12.21880518	 -2.03646753
No	 10.18233765	 -10.18233765	 -4.07293506
No	 8.14587012	 -12.21880518	 -0.00000000
No	 8.14587012	 -10.18233765	 2.03646753
No	 10.18233765	 -12.21880518	 2.03646753
No	 10.18233765	 -10.18233765	 -0.00000000
No	 8.14587012	 -12.21880518	 4.07293506
No	 8.14587012	 -10.18233765	 6.10940259
No	 10.18233765	 -12.21880518	 6.10940259
No	 10.18233765	 -10.18233765	 4.07293506
No	 8.14587012	 -12.21880518	 8.14587012
No	 8.14587012	 -10.18233765	 10.18233765
No	 10.18233765	 -12.21880518	 10.18233765
No	 10.18233765	 -10.18233765	 8.14587012
No	 8.14587012	 -12.21880518	 12.21880518
No	 8.14587012	 -10.18233765	 14.25527271
No	 10.18233765	 -12.21880518	 14.25527271
No	 10.18233765	 -10.18233765	 12.21880518
No	 8.14587012	 -12.21880518	 16.29174024
No	 8.14587012	 -10.18233765	 18.32820777
No	 10.18233765	 -12.21880518	 18.32820777
No	 10.18233765	 -10.18233765	 16.29174024
Au	 8.14587012	 -8.14587012	 -20.36467530
No	 8.14587012	 -6.10940259	 -18.32820777
No	 10.18233765	 -8.14587012	 -18.32820777
Au	 10.18233765	 -6.10940259	 -20.36467530
No	 8.14587012	 -8.14587012	 -16.29174024
No	 8.14587012	 -6.10940259	 -14.25527271
No	 10.18233765	 -8.14587012	 -14.25527271
No	 10.18233765	 -6.10940259	 -16.29174024
No	 8.14587012	 -8.14587012	 -12.21880518
No	 8.14587012	 -6.10940259	 -10.18233765
No	 10.18233765	 -8.14587012	 -10.18233765
No	 10.18233765	 -6.10940259	 -12.21880518
No	 8.14587012	 -8.14587012	 -8.14587012
No	 8.14587012	 -6.10940259	 -6.10940259
No	 10.18233765	 -8.14587012	 -6.10940259
No	 10.18233765	 -6.10940259	 -8.14587012
No	 8.14587012	 -8.14587012	 -4.07293506
No	 8.14587012	 -6.10940259	 -2.03646753
No	 10.18233765	 -8.14587012	 -2.03646753
No	 10.18233765	 -6.10940259	 -4.07293506
No	 8.14587012	 -8.14587012	 -0.00000000
No	 8.14587012	 -6.10940259	 2.03646753
No	 10.18233765	 -8.14587012	 2.03646753
No	 10.18233765	 -6.10940259	 -0.00000000
No	 8.14587012	 -8.14587012	 4.07293506
No	 8.14587012	 -6.10940259	 6.10940259
No	 10.18233765	 -8.14587012	 6.10940259
No	 10.18233765	 -6.10940259	 4.07293506
No	 8.14587012	 -8.14587012	 8.14587012
No	 8.14587012	 -6.10940259	 10.18233765
No	 10.18233765	 -8.14587012	 10.18233765
No	 10.18233765	 -6.10940259	 8.14587012
No	 8.14587012	 -8.14587012	 12.21880518
No	 8.14587012	 -6.10940259	 14.25527271
No	 10.18233765	 -8.14587012	 14.25527271
No	 10.18233765	 -6.10940259	 12.21880518
No	 8.14587012	 -8.14587012	 16.29174024
No	 8.14587012	 -6.10940259	 18.32820777
No	 10.18233765	 -8.14587012	 18.32820777
No	 10.18233765	 -6.10940259	 16.29174024
Au	 8.14587012	 -4.07293506	 -20.36467530
No	 8.14587012	 -2.03646753	 -18.32820777
No	 10.18233765	 -4.07293506	 -18.32820777
Au	 10.18233765	 -2.03646753	 -20.36467530
No	 8.14587012	 -4.07293506	 -16.29174024
No	 8.14587012	 -2.03646753	 -14.25527271
No	 10.18233765	 -4.07293506	 -14.25527271
No	 10.18233765	 -2.03646753	 -16.29174024
No	 8.14587012	 -4.07293506	 -12.21880518
No	 8.14587012	 -2.03646753	 -10.18233765
No	 10.18233765	 -4.07293506	 -10.18233765
No	 10.18233765	 -2.03646753	 -12.21880518
No	 8.14587012	 -4.07293506	 -8.14587012
No	 8.14587012	 -2.03646753	 -6.10940259
No	 10.18233765	 -4.07293506	 -6.10940259
No	 10.18233765	 -2.03646753	 -8.14587012
No	 8.14587012	 -4.07293506	 -4.07293506
No	 8.14587012	 -2.03646753	 -2.03646753
No	 10.18233765	 -4.07293506	 -2.03646753
No	 10.18233765	 -2.03646753	 -4.07293506
No	 8.14587012	 -4.07293506	 -0.00000000
No	 8.14587012	 -2.03646753	 2.03646753
No	 10.18233765	 -4.07293506	 2.03646753
No	 10.18233765	 -2.03646753	 -0.00000000
No	 8.14587012	 -4.07293506	 4.07293506
No	 8.14587012	 -2.03646753	 6.10940259
No	 10.18233765	 -4.07293506	 6.10940259
No	 10.18233765	 -2.03646753	 4.07293506
No	 8.14587012	 -4.07293506	 8.14587012
No	 8.14587012	 -2.03646753	 10.18233765
No	 10.18233765	 -4.07293506	 10.18233765
No	 10.18233765	 -2.03646753	 8.14587012
No	 8.14587012	 -4.07293506	 12.21880518
No	 8.14587012	 -2.03646753	 14.25527271
No	 10.18233765	 -4.07293506	 14.25527271
No	 10.18233765	 -2.03646753	 12.21880518
No	 8.14587012	 -4.07293506	 16.29174024
No	 8.14587012	 -2.03646753	 18.32820777
No	 10.18233765	 -4.07293506	 18.32820777
No	 10.18233765	 -2.03646753	 16.29174024
Au	 8.14587012	 0.00000000	 -20.36467530
No	 8.14587012	 2.03646753	 -18.32820777
No	 10.18233765	 0.00000000	 -18.32820777
Au	 10.18233765	 2.03646753	 -20.36467530
No	 8.14587012	 0.00000000	 -16.29174024
No	 8.14587012	 2.03646753	 -14.25527271
No	 10.18233765	 0.00000000	 -14.25527271
No	 10.18233765	 2.03646753	 -16.29174024
No	 8.14587012	 0.00000000	 -12.21880518
No	 8.14587012	 2.03646753	 -10.18233765
No	 10.18233765	 0.00000000	 -10.18233765
No	 10.18233765	 2.03646753	 -12.21880518
No	 8.14587012	 0.00000000	 -8.14587012
No	 8.14587012	 2.03646753	 -6.10940259
No	 10.18233765	 0.00000000	 -6.10940259
No	 10.18233765	 2.03646753	 -8.14587012
No	 8.14587012	 0.00000000	 -4.07293506
No	 8.14587012	 2.03646753	 -2.03646753
No	 10.18233765	 0.00000000	 -2.03646753
No	 10.18233765	 2.03646753	 -4.07293506
No	 8.14587012	 0.00000000	 -0.00000000
No	 8.14587012	 2.03646753	 2.03646753
No	 10.18233765	 0.00000000	 2.03646753
No	 10.18233765	 2.03646753	 -0.00000000
No	 8.14587012	 0.00000000	 4.07293506
No	 8.14587012	 2.03646753	 6.10940259
No	 10.18233765	 0.00000000	 6.10940259
No	 10.18233765	 2.03646753	 4.07293506
No	 8.14587012	 0.00000000	 8.14587012
No	 8.14587012	 2.03646753	 10.18233765
No	 10.18233765	 0.00000000	 10.18233765
No	 10.18233765	 2.03646753	 8.14587012
No	 8.14587012	 0.00000000	 12.21880518
No	 8.14587012	 2.03646753	 14.25527271
No	 10.18233765	 0.00000000	 14.25527271
No	 10.18233765	 2.03646753	 12.21880518
No	 8.14587012	 0.00000000	 16.29174024
No	 8.14587012	 2.03646753	 18.32820777
No	 10.18233765	 0.00000000	 18.32820777
No	 10.18233765	 2.03646753	 16.29174024
Au	 8.14587012	 4.07293506	 -20.36467530
No	 8.14587012	 6.10940259	 -18.32820777
No	 10.18233765	 4.07293506	 -18.32820777
Au	 10.18233765	 6.10940259	 -20.36467530
No	 8.14587012	 4.07293506	 -16.29174024
No	 8.14587012	 6.10940259	 -14.25527271
No	 10.18233765	 4.07293506	 -14.25527271
No	 10.18233765	 6.10940259	 -16.29174024
No	 8.14587012	 4.07293506	 -12.21880518
No	 8.14587012	 6.10940259	 -10.18233765
No	 10.18233765	 4.07293506	 -10.18233765
No	 10.18233765	 6.10940259	 -12.21880518
No	 8.14587012	 4.07293506	 -8.14587012
No	 8.14587012	 6.10940259	 -6.10940259
No	 10.18233765	 4.07293506	 -6.10940259
No	 10.18233765	 6.10940259	 -8.14587012
No	 8.14587012	 4.07293506	 -4.07293506
No	 8.14587012	 6.10940259	 -2.03646753
No	 10.18233765	 4.07293506	 -2.03646753
No	 10.18233765	 6.10940259	 -4.07293506
No	 8.14587012	 4.07293506	 -0.00000000
No	 8.14587012	 6.10940259	 2.03646753
No	 10.18233765	 4.07293506	 2.03646753
No	 10.18233765	 6.10940259	 -0.00000000
No	 8.14587012	 4.07293506	 4.07293506
No	 8.14587012	 6.10940259	 6.10940259
No	 10.18233765	 4.07293506	 6.10940259
No	 10.18233765	 6.10940259	 4.07293506
No	 8.14587012	 4.07293506	 8.14587012
No	 8.14587012	 6.10940259	 10.18233765
No	 10.18233765	 4.07293506	 10.18233765
No	 10.18233765	 6.10940259	 8.14587012
No	 8.14587012	 4.07293506	 12.21880518
No	 8.14587012	 6.10940259	 14.25527271
No	 10.18233765	 4.07293506	 14.25527271
No	 10.18233765	 6.10940259	 12.21880518
No	 8.14587012	 4.07293506	 16.29174024
No	 8.14587012	 6.10940259	 18.32820777
No	 10.18233765	 4.07293506	 18.32820777
No	 10.18233765	 6.10940259	 16.29174024
Au	 8.14587012	 8.14587012	 -20.36467530
No	 8.14587012	 10.18233765	 -18.32820777
No	 10.18233765	 8.14587012	 -18.32820777
Au	 10.18233765	 10.18233765	 -20.36467530
No	 8.14587012	 8.14587012	 -16.29174024
No	 8.14587012	 10.18233765	 -14.25527271
No	 10.18233765	 8.14587012	 -14.25527271
No	 10.18233765	 10.18233765	 -16.29174024
No	 8.14587012	 8.14587012	 -12.21880518
No	 8.14587012	 10.18233765	 -10.18233765
No	 10.18233765	 8.14587012	 -10.18233765
No	 10.18233765	 10.18233765	 -12.21880518
No	 8.14587012	 8.14587012	 -8.14587012
No	 8.14587012	 10.18233765	 -6.10940259
No	 10.18233765	 8.14587012	 -6.10940259
No	 10.18233765	 10.18233765	 -8.14587012
No	 8.14587012	 8.14587012	 -4.07293506
No	 8.14587012	 10.18233765	 -2.03646753
No	 10.18233765	 8.14587012	 -2.03646753
No	 10.18233765	 10.18233765	 -4.07293506
No	 8.14587012	 8.14587012	 -0.00000000
No	 8.14587012	 10.18233765	 2.03646753
No	 10.18233765	 8.14587012	 2.03646753
No	 10.18233765	 10.18233765	 -0.00000000
No	 8.14587012	 8.14587012	 4.07293506
No	 8.14587012	 10.18233765	 6.10940259
No	 10.18233765	 8.14587012	 6.10940259
No	 10.18233765	 10.18233765	 4.07293506
No	 8.14587012	 8.14587012	 8.14587012
No	 8.14587012	 10.18233765	 10.18233765
No	 10.18233765	 8.14587012	 10.18233765
No	 10.18233765	 10.18233765	 8.14587012
No	 8.14587012	 8.14587012	 12.21880518
No	 8.14587012	 10.18233765	 14.25527271
No	 10.18233765	 8.14587012	 14.25527271
No	 10.18233765	 10.18233765	 12.21880518
No	 8.14587012	 8.14587012	 16.29174024
No	 8.14587012	 10.18233765	 18.32820777
No	 10.18233765	 8.14587012	 18.32820777
No	 10.18233765	 10.18233765	 16.29174024
Au	 8.14587012	 12.21880518	 -20.36467530
No	 8.14587012	 14.25527271	 -18.32820777
No	 10.18233765	 12.21880518	 -18.32820777
Au	 10.18233765	 14.25527271	 -20.36467530
No	 8.14587012	 12.21880518	 -16.29174024
No	 8.14587012	 14.25527271	 -14.25527271
No	 10.18233765	 12.21880518	 -14.25527271
No	 10.18233765	 14.25527271	 -16.29174024
No	 8.14587012	 12.21880518	 -12.21880518
No	 8.14587012	 14.25527271	 -10.18233765
No	 10.18233765	 12.21880518	 -10.18233765
No	 10.18233765	 14.25527271	 -12.21880518
No	 8.14587012	 12.21880518	 -8.14587012
No	 8.14587012	 14.25527271	 -6.10940259
No	 10.18233765	 12.21880518	 -6.10940259
No	 10.18233765	 14.25527271	 -8.14587012
No	 8.14587012	 12.21880518	 -4.07293506
No	 8.14587012	 14.25527271	 -2.03646753
No	 10.18233765	 12.21880518	 -2.03646753
No	 10.18233765	 14.25527271	 -4.07293506
No	 8.14587012	 12.21880518	 -0.00000000
No	 8.14587012	 14.25527271	 2.03646753
No	 10.18233765	 12.21880518	 2.03646753
No	 10.18233765	 14.25527271	 -0.00000000
No	 8.14587012	 12.21880518	 4.07293506
No	 8.14587012	 14.25527271	 6.10940259
No	 10.18233765	 12.21880518	 6.10940259
No	 10.18233765	 14.25527271	 4.07293506
No	 8.14587012	 12.21880518	 8.14587012
No	 8.14587012	 14.25527271	 10.18233765
No	 10.18233765	 12.21880518	 10.18233765
No	 10.18233765	 14.25527271	 8.14587012
No	 8.14587012	 12.21880518	 12.21880518
No	 8.14587012	 14.25527271	 14.25527271
No	 10.18233765	 12.21880518	 14.25527271
No	 10.18233765	 14.25527271	 12.21880518
No	 8.14587012	 12.21880518	 16.29174024
No	 8.14587012	 14.25527271	 18.32820777
No	 10.18233765	 12.21880518	 18.32820777
No	 10.18233765	 14.25527271	 16.29174024
Au	 8.14587012	 16.29174024	 -20.36467530
No	 8.14587012	 18.32820777	 -18.32820777
No	 10.18233765	 16.29174024	 -18.32820777
Au	 10.18233765	 18.32820777	 -20.36467530
No	 8.14587012	 16.29174024	 -16.29174024
No	 8.14587012	 18.32820777	 -14.25527271
No	 10.18233765	 16.29174024	 -14.25527271
No	 10.18233765	 18.32820777	 -16.29174024
No	 8.14587012	 16.29174024	 -12.21880518
No	 8.14587012	 18.32820777	 -10.18233765
No	 10.18233765	 16.29174024	 -10.18233765
No	 10.18233765	 18.32820777	 -12.21880518
No	 8.14587012	 16.29174024	 -8.14587012
No	 8.14587012	 18.32820777	 -6.10940259
No	 10.18233765	 16.29174024	 -6.10940259
No	 10.18233765	 18.32820777	 -8.14587012
No	 8.14587012	 16.29174024	 -4.07293506
No	 8.14587012	 18.32820777	 -2.03646753
No	 10.18233765	 16.29174024	 -2.03646753
No	 10.18233765	 18.32820777	 -4.07293506
No	 8.14587012	 16.29174024	 -0.00000000
No	 8.14587012	 18.32820777	 2.03646753
No	 10.18233765	 16.29174024	 2.03646753
No	 10.18233765	 18.32820777	 -0.00000000
No	 8.14587012	 16.29174024	 4.07293506
No	 8.14587012	 18.32820777	 6.10940259
No	 10.18233765	 16.29174024	 6.10940259
No	 10.18233765	 18.32820777	 4.07293506
No	 8.14587012	 16.29174024	 8.14587012
No	 8.14587012	 18.32820777	 10.18233765
No	 10.18233765	 16.29174024	 10.18233765
No	 10.18233765	 18.32820777	 8.14587012
No	 8.14587012	 16.29174024	 12.21880518
No	 8.14587012	 18.32820777	 14.25527271
No	 10.18233765	 16.29174024	 14.25527271
No	 10.18233765	 18.32820777	 12.21880518
No	 8.14587012	 16.29174024	 16.29174024
No	 8.14587012	 18.32820777	 18.32820777
No	 10.18233765	 16.29174024	 18.32820777
No	 10.18233765	 18.32820777	 16.29174024
Au	 12.21880518	 -20.36467530	 -20.36467530
No	 12.21880518	 -18.32820777	 -18.32820777
Au	 14.25527271	 -20.36467530	 -18.32820777
Au	 14.25527271	 -18.32820777	 -20.36467530
Au	 12.21880518	 -20.36467530	 -16.29174024
No	 12.21880518	 -18.32820777	 -14.25527271
Au	 14.25527271	 -20.36467530	 -14.25527271
No	 14.25527271	 -18.32820777	 -16.29174024
Au	 12.21880518	 -20.36467530	 -12.21880518
No	 12.21880518	 -18.32820777	 -10.18233765
Au	 14.25527271	 -20.36467530	 -10.18233765
No	 14.25527271	 -18.32820777	 -12.21880518
Au	 12.21880518	 -20.36467530	 -8.14587012
No	 12.21880518	 -18.32820777	 -6.10940259
Au	 14.25527271	 -20.36467530	 -6.10940259
No	 14.25527271	 -18.32820777	 -8.14587012
Au	 12.21880518	 -20.36467530	 -4.07293506
No	 12.21880518	 -18.32820777	 -2.03646753
Au	 14.25527271	 -20.36467530	 -2.03646753
No	 14.25527271	 -18.32820777	 -4.07293506
Au	 12.21880518	 -20.36467530	 -0.00000000
No	 12.21880518	 -18.32820777	 2.03646753
Au	 14.25527271	 -20.36467530	 2.03646753
No	 14.25527271	 -18.32820777	 -0.00000000
Au	 12.21880518	 -20.36467530	 4.07293506
No	 12.21880518	 -18.32820777	 6.10940259
Au	 14.25527271	 -20.36467530	 6.10940259
No	 14.25527271	 -18.32820777	 4.07293506
Au	 12.21880518	 -20.36467530	 8.14587012
No	 12.21880518	 -18.32820777	 10.18233765
Au	 14.25527271	 -20.36467530	 10.18233765
No	 14.25527271	 -18.32820777	 8.14587012
Au	 12.21880518	 -20.36467530	 12.21880518
No	 12.21880518	 -18.32820777	 14.25527271
Au	 14.25527271	 -20.36467530	 14.25527271
No	 14.25527271	 -18.32820777	 12.21880518
Au	 12.21880518	 -20.36467530	 16.29174024
No	 12.21880518	 -18.32820777	 18.32820777
Au	 14.25527271	 -20.36467530	 18.32820777
No	 14.25527271	 -18.32820777	 16.29174024
Au	 12.21880518	 -16.29174024	 -20.36467530
No	 12.21880518	 -14.25527271	 -18.32820777
No	 14.25527271	 -16.29174024	 -18.32820777
Au	 14.25527271	 -14.25527271	 -20.36467530
No	 12.21880518	 -16.29174024	 -16.29174024
No	 12.21880518	 -14.25527271	 -14.25527271
No	 14.25527271	 -16.29174024	 -14.25527271
No	 14.25527271	 -14.25527271	 -16.29174024
No	 12.21880518	 -16.29174024	 -12.21880518
No	 12.21880518	 -14.25527271	 -10.18233765
No	 14.25527271	 -16.29174024	 -10.18233765
No	 14.25527271	 -14.25527271	 -12.21880518
No	 12.21880518	 -16.29174024	 -8.14587012
No	 12.21880518	 -14.25527271	 -6.10940259
No	 14.25527271	 -16.29174024	 -6.10940259
No	 14.25527271	 -14.25527271	 -8.14587012
No	 12.21880518	 -16.29174024	 -4.07293506
No	 12.21880518	 -14.25527271	 -2.03646753
No	 14.25527271	 -16.29174024	 -2.03646753
No	 14.25527271	 -14.25527271	 -4.07293506
No	 12.21880518	 -16.29174024	 -0.00000000
No	 12.21880518	 -14.25527271	 2.03646753
No	 14.25527271	 -16.29174024	 2.03646753
No	 14.25527271	 -14.25527271	 -0.00000000
No	 12.21880518	 -16.29174024	 4.07293506
No	 12.21880518	 -14.25527271	 6.10940259
No	 14.25527271	 -16.29174024	 6.10940259
No	 14.25527271	 -14.25527271	 4.07293506
No	 12.21880518	 -16.29174024	 8.14587012
No	 12.21880518	 -14.25527271	 10.18233765
No	 14.25527271	 -16.29174024	 10.18233765
No	 14.25527271	 -14.25527271	 8.14587012
No	 12.21880518	 -16.29174024	 12.21880518
No	 12.21880518	 -14.25527271	 14.25527271
No	 14.25527271	 -16.29174024	 14.25527271
No	 14.25527271	 -14.25527271	 12.21880518
No	 12.21880518	 -16.29174024	 16.29174024
No	 12.21880518	 -14.25527271	 18.32820777
No	 14.25527271	 -16.29174024	 18.32820777
No	 14.25527271	 -14.25527271	 16.29174024
Au	 12.21880518	 -12.21880518	 -20.36467530
No	 12.21880518	 -10.18233765	 -18.32820777
No	 14.25527271	 -12.21880518	 -18.32820777
Au	 14.25527271	 -10.18233765	 -20.36467530
No	 12.21880518	 -12.21880518	 -16.29174024
No	 12.21880518	 -10.18233765	 -14.25527271
No	 14.25527271	 -12.21880518	 -14.25527271
No	 14.25527271	 -10.18233765	 -16.29174024
No	 12.21880518	 -12.21880518	 -12.21880518
No	 12.21880518	 -10.18233765	 -10.18233765
No	 14.25527271	 -12.21880518	 -10.18233765
No	 14.25527271	 -10.18233765	 -12.21880518
No	 12.21880518	 -12.21880518	 -8.14587012
No	 12.21880518	 -10.18233765	 -6.10940259
No	 14.25527271	 -12.21880518	 -6.10940259
No	 14.25527271	 -10.18233765	 -8.14587012
No	 12.21880518	 -12.21880518	 -4.07293506
No	 12.21880518	 -10.18233765	 -2.03646753
No	 14.25527271	 -12.21880518	 -2.03646753
No	 14.25527271	 -10.18233765	 -4.07293506
No	 12.21880518	 -12.21880518	 -0.00000000
No	 12.21880518	 -10.18233765	 2.03646753
No	 14.25527271	 -12.21880518	 2.03646753
No	 14.25527271	 -10.18233765	 -0.00000000
No	 12.21880518	 -12.21880518	 4.07293506
No	 12.21880518	 -10.18233765	 6.10940259
No	 14.25527271	 -12.21880518	 6.10940259
No	 14.25527271	 -10.18233765	 4.07293506
No	 12.21880518	 -12.21880518	 8.14587012
No	 12.21880518	 -10.18233765	 10.18233765
No	 14.25527271	 -12.21880518	 10.18233765
No	 14.25527271	 -10.18233765	 8.14587012
No	 12.21880518	 -12.21880518	 12.21880518
No	 12.21880518	 -10.18233765	 14.25527271
No	 14.25527271	 -12.21880518	 14.25527271
No	 14.25527271	 -10.18233765	 12.21880518
No	 12.21880518	 -12.21880518	 16.29174024
No	 12.21880518	 -10.18233765	 18.32820777
No	 14.25527271	 -12.21880518	 18.32820777
No	 14.25527271	 -10.18233765	 16.29174024
Au	 12.21880518	 -8.14587012	 -20.36467530
No	 12.21880518	 -6.10940259	 -18.32820777
No	 14.25527271	 -8.14587012	 -18.32820777
Au	 14.25527271	 -6.10940259	 -20.36467530
No	 12.21880518	 -8.14587012	 -16.29174024
No	 12.21880518	 -6.10940259	 -14.25527271
No	 14.25527271	 -8.14587012	 -14.25527271
No	 14.25527271	 -6.10940259	 -16.29174024
No	 12.21880518	 -8.14587012	 -12.21880518
No	 12.21880518	 -6.10940259	 -10.18233765
No	 14.25527271	 -8.14587012	 -10.18233765
No	 14.25527271	 -6.10940259	 -12.21880518
No	 12.21880518	 -8.14587012	 -8.14587012
No	 12.21880518	 -6.10940259	 -6.10940259
No	 14.25527271	 -8.14587012	 -6.10940259
No	 14.25527271	 -6.10940259	 -8.14587012
No	 12.21880518	 -8.14587012	 -4.07293506
No	 12.21880518	 -6.10940259	 -2.03646753
No	 14.25527271	 -8.14587012	 -2.03646753
No	 14.25527271	 -6.10940259	 -4.07293506
No	 12.21880518	 -8.14587012	 -0.00000000
No	 12.21880518	 -6.10940259	 2.03646753
No	 14.25527271	 -8.14587012	 2.03646753
No	 14.25527271	 -6.10940259	 -0.00000000
No	 12.21880518	 -8.14587012	 4.07293506
No	 12.21880518	 -6.10940259	 6.10940259
No	 14.25527271	 -8.14587012	 6.10940259
No	 14.25527271	 -6.10940259	 4.07293506
No	 12.21880518	 -8.14587012	 8.14587012
No	 12.21880518	 -6.10940259	 10.18233765
No	 14.25527271	 -8.14587012	 10.18233765
No	 14.25527271	 -6.10940259	 8.14587012
No	 12.21880518	 -8.14587012	 12.21880518
No	 12.21880518	 -6.10940259	 14.25527271
No	 14.25527271	 -8.14587012	 14.25527271
No	 14.25527271	 -6.10940259	 12.21880518
No	 12.21880518	 -8.14587012	 16.29174024
No	 12.21880518	 -6.10940259	 18.32820777
No	 14.25527271	 -8.14587012	 18.32820777
No	 14.25527271	 -6.10940259	 16.29174024
Au	 12.21880518	 -4.07293506	 -20.36467530
No	 12.21880518	 -2.03646753	 -18.32820777
No	 14.25527271	 -4.07293506	 -18.32820777
Au	 14.25527271	 -2.03646753	 -20.36467530
No	 12.21880518	 -4.07293506	 -16.29174024
No	 12.21880518	 -2.03646753	 -14.25527271
No	 14.25527271	 -4.07293506	 -14.25527271
No	 14.25527271	 -2.03646753	 -16.29174024
No	 12.21880518	 -4.07293506	 -12.21880518
No	 12.21880518	 -2.03646753	 -10.18233765
No	 14.25527271	 -4.07293506	 -10.18233765
No	 14.25527271	 -2.03646753	 -12.21880518
No	 12.21880518	 -4.07293506	 -8.14587012
No	 12.21880518	 -2.03646753	 -6.10940259
No	 14.25527271	 -4.07293506	 -6.10940259
No	 14.25527271	 -2.03646753	 -8.14587012
No	 12.21880518	 -4.07293506	 -4.07293506
No	 12.21880518	 -2.03646753	 -2.03646753
No	 14.25527271	 -4.07293506	 -2.03646753
No	 14.25527271	 -2.03646753	 -4.07293506
No	 12.21880518	 -4.07293506	 -0.00000000
No	 12.21880518	 -2.03646753	 2.03646753
No	 14.25527271	 -4.07293506	 2.03646753
No	 14.25527271	 -2.03646753	 -0.00000000
No	 12.21880518	 -4.07293506	 4.07293506
No	 12.21880518	 -2.03646753	 6.10940259
No	 14.25527271	 -4.07293506	 6.10940259
No	 14.25527271	 -2.03646753	 4.07293506
No	 12.21880518	 -4.07293506	 8.14587012
No	 12.21880518	 -2.03646753	 10.18233765
No	 14.25527271	 -4.07293506	 10.18233765
No	 14.25527271	 -2.03646753	 8.14587012
No	 12.21880518	 -4.07293506	 12.21880518
No	 12.21880518	 -2.03646753	 14.25527271
No	 14.25527271	 -4.07293506	 14.25527271
No	 14.25527271	 -2.03646753	 12.21880518
No	 12.21880518	 -4.07293506	 16.29174024
No	 12.21880518	 -2.03646753	 18.32820777
No	 14.25527271	 -4.07293506	 18.32820777
No	 14.25527271	 -2.03646753	 16.29174024
Au	 12.21880518	 0.00000000	 -20.36467530
No	 12.21880518	 2.03646753	 -18.32820777
No	 14.25527271	 0.00000000	 -18.32820777
Au	 14.25527271	 2.03646753	 -20.36467530
No	 12.21880518	 0.00000000	 -16.29174024
No	 12.21880518	 2.03646753	 -14.25527271
No	 14.25527271	 0.00000000	 -14.25527271
No	 14.25527271	 2.03646753	 -16.29174024
No	 12.21880518	 0.00000000	 -12.21880518
No	 12.21880518	 2.03646753	 -10.18233765
No	 14.25527271	 0.00000000	 -10.18233765
No	 14.25527271	 2.03646753	 -12.21880518
No	 12.21880518	 0.00000000	 -8.14587012
No	 12.21880518	 2.03646753	 -6.10940259
No	 14.25527271	 0.00000000	 -6.10940259
No	 14.25527271	 2.03646753	 -8.14587012
No	 12.21880518	 0.00000000	 -4.07293506
No	 12.21880518	 2.03646753	 -2.03646753
No	 14.25527271	 0.00000000	 -2.03646753
No	 14.25527271	 2.03646753	 -4.07293506
No	 12.21880518	 0.00000000	 -0.00000000
No	 12.21880518	 2.03646753	 2.03646753
No	 14.25527271	 0.00000000	 2.03646753
No	 14.25527271	 2.03646753	 -0.00000000
No	 12.21880518	 0.00000000	 4.07293506
No	 12.21880518	 2.03646753	 6.10940259
No	 14.25527271	 0.00000000	 6.10940259
No	 14.25527271	 2.03646753	 4.07293506
No	 12.21880518	 0.00000000	 8.14587012
No	 12.21880518	 2.03646753	 10.18233765
No	 14.25527271	 0.00000000	 10.18233765
No	 14.25527271	 2.03646753	 8.14587012
No	 12.21880518	 0.00000000	 12.21880518
No	 12.21880518	 2.03646753	 14.25527271
No	 14.25527271	 0.00000000	 14.25527271
No	 14.25527271	 2.03646753	 12.21880518
No	 12.21880518	 0.00000000	 16.29174024
No	 12.21880518	 2.03646753	 18.32820777
No	 14.25527271	 0.00000000	 18.32820777
No	 14.25527271	 2.03646753	 16.29174024
Au	 12.21880518	 4.07293506	 -20.36467530
No	 12.21880518	 6.10940259	 -18.32820777
No	 14.25527271	 4.07293506	 -18.32820777
Au	 14.25527271	 6.10940259	 -20.36467530
No	 12.21880518	 4.07293506	 -16.29174024
No	 12.21880518	 6.10940259	 -14.25527271
No	 14.25527271	 4.07293506	 -14.25527271
No	 14.25527271	 6.10940259	 -16.29174024
No	 12.21880518	 4.07293506	 -12.21880518
No	 12.21880518	 6.10940259	 -10.18233765
No	 14.25527271	 4.07293506	 -10.18233765
No	 14.25527271	 6.10940259	 -12.21880518
No	 12.21880518	 4.07293506	 -8.14587012
No	 12.21880518	 6.10940259	 -6.10940259
No	 14.25527271	 4.07293506	 -6.10940259
No	 14.25527271	 6.10940259	 -8.14587012
No	 12.21880518	 4.07293506	 -4.07293506
No	 12.21880518	 6.10940259	 -2.03646753
No	 14.25527271	 4.07293506	 -2.03646753
No	 14.25527271	 6.10940259	 -4.07293506
No	 12.21880518	 4.07293506	 -0.00000000
No	 12.21880518	 6.10940259	 2.03646753
No	 14.25527271	 4.07293506	 2.03646753
No	 14.25527271	 6.10940259	 -0.00000000
No	 12.21880518	 4.07293506	 4.07293506
No	 12.21880518	 6.10940259	 6.10940259
No	 14.25527271	 4.07293506	 6.10940259
No	 14.25527271	 6.10940259	 4.07293506
No	 12.21880518	 4.07293506	 8.14587012
No	 12.21880518	 6.10940259	 10.18233765
No	 14.25527271	 4.07293506	 10.18233765
No	 14.25527271	 6.10940259	 8.14587012
No	 12.21880518	 4.07293506	 12.21880518
No	 12.21880518	 6.10940259	 14.25527271
No	 14.25527271	 4.07293506	 14.25527271
No	 14.25527271	 6.10940259	 12.21880518
No	 12.21880518	 4.07293506	 16.29174024
No	 12.21880518	 6.10940259	 18.32820777
No	 14.25527271	 4.07293506	 18.32820777
No	 14.25527271	 6.10940259	 16.29174024
Au	 12.21880518	 8.14587012	 -20.36467530
No	 12.21880518	 10.18233765	 -18.32820777
No	 14.25527271	 8.14587012	 -18.32820777
Au	 14.25527271	 10.18233765	 -20.36467530
No	 12.21880518	 8.14587012	 -16.29174024
No	 12.21880518	 10.18233765	 -14.25527271
No	 14.25527271	 8.14587012	 -14.25527271
No	 14.25527271	 10.18233765	 -16.29174024
No	 12.21880518	 8.14587012	 -12.21880518
No	 12.21880518	 10.18233765	 -10.18233765
No	 14.25527271	 8.14587012	 -10.18233765
No	 14.25527271	 10.18233765	 -12.21880518
No	 12.21880518	 8.14587012	 -8.14587012
No	 12.21880518	 10.18233765	 -6.10940259
No	 14.25527271	 8.14587012	 -6.10940259
No	 14.25527271	 10.18233765	 -8.14587012
No	 12.21880518	 8.14587012	 -4.07293506
No	 12.21880518	 10.18233765	 -2.03646753
No	 14.25527271	 8.14587012	 -2.03646753
No	 14.25527271	 10.18233765	 -4.07293506
No	 12.21880518	 8.14587012	 -0.00000000
No	 12.21880518	 10.18233765	 2.03646753
No	 14.25527271	 8.14587012	 2.03646753
No	 14.25527271	 10.18233765	 -0.00000000
No	 12.21880518	 8.14587012	 4.07293506
No	 12.21880518	 10.18233765	 6.10940259
No	 14.25527271	 8.14587012	 6.10940259
No	 14.25527271	 10.18233765	 4.07293506
No	 12.21880518	 8.14587012	 8.14587012
No	 12.21880518	 10.18233765	 10.18233765
No	 14.25527271	 8.14587012	 10.18233765
No	 14.25527271	 10.18233765	 8.14587012
No	 12.21880518	 8.14587012	 12.21880518
No	 12.21880518	 10.18233765	 14.25527271
No	 14.25527271	 8.14587012	 14.25527271
No	 14.25527271	 10.18233765	 12.21880518
No	 12.21880518	 8.14587012	 16.29174024
No	 12.21880518	 10.18233765	 18.32820777
No	 14.25527271	 8.14587012	 18.32820777
No	 14.25527271	 10.18233765	 16.29174024
Au	 12.21880518	 12.21880518	 -20.36467530
No	 12.21880518	 14.25527271	 -18.32820777
No	 14.25527271	 12.21880518	 -18.32820777
Au	 14.25527271	 14.25527271	 -20.36467530
No	 12.21880518	 12.21880518	 -16.29174024
No	 12.21880518	 14.25527271	 -14.25527271
No	 14.25527271	 12.21880518	 -14.25527271
No	 14.25527271	 14.25527271	 -16.29174024
No	 12.21880518	 12.21880518	 -12.21880518
No	 12.21880518	 14.25527271	 -10.18233765
No	 14.25527271	 12.21880518	 -10.18233765
No	 14.25527271	 14.25527271	 -12.21880518
No	 12.21880518	 12.21880518	 -8.14587012
No	 12.21880518	 14.25527271	 -6.10940259
No	 14.25527271	 12.21880518	 -6.10940259
No	 14.25527271	 14.25527271	 -8.14587012
No	 12.21880518	 12.21880518	 -4.07293506
No	 12.21880518	 14.25527271	 -2.03646753
No	 14.25527271	 12.21880518	 -2.03646753
No	 14.25527271	 14.25527271	 -4.07293506
No	 12.21880518	 12.21880518	 -0.00000000
No	 12.21880518	 14.25527271	 2.03646753
No	 14.25527271	 12.21880518	 2.03646753
No	 14.25527271	 14.25527271	 -0.00000000
No	 12.21880518	 12.21880518	 4.07293506
No	 12.21880518	 14.25527271	 6.10940259
No	 14.25527271	 12.21880518	 6.10940259
No	 14.25527271	 14.25527271	 4.07293506
No	 12.21880518	 12.21880518	 8.14587012
No	 12.21880518	 14.25527271	 10.18233765
No	 14.25527271	 12.21880518	 10.18233765
No	 14.25527271	 14.25527271	 8.14587012
No	 12.21880518	 12.21880518	 12.21880518
No	 12.21880518	 14.25527271	 14.25527271
No	 14.25527271	 12.21880518	 14.25527271
No	 14.25527271	 14.25527271	 12.21880518
No	 12.21880518	 12.21880518	 16.29174024
No	 12.21880518	 14.25527271	 18.32820777
No	 14.25527271	 12.21880518	 18.32820777
No	 14.25527271	 14.25527271	 16.29174024
Au	 12.21880518	 16.29174024	 -20.36467530
No	 12.21880518	 18.32820777	 -18.32820777
No	 14.25527271	 16.29174024	 -18.32820777
Au	 14.25527271	 18.32820777	 -20.36467530
No	 12.21880518	 16.29174024	 -16.29174024
No	 12.21880518	 18.32820777	 -14.25527271
No	 14.25527271	 16.29174024	 -14.25527271
No	 14.25527271	 18.32820777	 -16.29174024
No	 12.21880518	 16.29174024	 -12.21880518
No	 12.21880518	 18.32820777	 -10.18233765
No	 14.25527271	 16.29174024	 -10.18233765
No	 14.25527271	 18.32820777	 -12.21880518
No	 12.21880518	 16.29174024	 -8.14587012
No	 12.21880518	 18.32820777	 -6.10940259
No	 14.25527271	 16.29174024	 -6.10940259
No	 14.25527271	 18.32820777	 -8.14587012
No	 12.21880518	 16.29174024	 -4.07293506
No	 12.21880518	 18.32820777	 -2.03646753
No	 14.25527271	 16.29174024	 -2.03646753
No	 14.25527271	 18.32820777	 -4.07293506
No	 12.21880518	 16.29174024	 -0.00000000
No	 12.21880518	 18.32820777	 2.03646753
No	 14.25527271	 16.29174024	 2.03646753
No	 14.25527271	 18.32820777	 -0.00000000
No	 12.21880518	 16.29174024	 4.07293506
No	 12.21880518	 18.32820777	 6.10940259
No	 14.25527271	 16.29174024	 6.10940259
No	 14.25527271	 18.32820777	 4.07293506
No	 12.21880518	 16.29174024	 8.14587012
No	 12.21880518	 18.32820777	 10.18233765
No	 14.25527271	 16.29174024	 10.18233765
No	 14.25527271	 18.32820777	 8.14587012
No	 12.21880518	 16.29174024	 12.21880518
No	 12.21880518	 18.32820777	 14.25527271
No	 14.25527271	 16.29174024	 14.25527271
No	 14.25527271	 18.32820777	 12.21880518
No	 12.21880518	 16.29174024	 16.29174024
No	 12.21880518	 18.32820777	 18.32820777
No	 14.25527271	 16.29174024	 18.32820777
No	 14.25527271	 18.32820777	 16.29174024
Au	 16.29174024	 -20.36467530	 -20.36467530
No	 16.29174024	 -18.32820777	 -18.32820777
Au	 18.32820777	 -20.36467530	 -18.32820777
Au	 18.32820777	 -18.32820777	 -20.36467530
Au	 16.29174024	 -20.36467530	 -16.29174024
No	 16.29174024	 -18.32820777	 -14.25527271
Au	 18.32820777	 -20.36467530	 -14.25527271
No	 18.32820777	 -18.32820777	 -16.29174024
Au	 16.29174024	 -20.36467530	 -12.21880518
No	 16.29174024	 -18.32820777	 -10.18233765
Au	 18.32820777	 -20.36467530	 -10.18233765
No	 18.32820777	 -18.32820777	 -12.21880518
Au	 16.29174024	 -20.36467530	 -8.14587012
No	 16.29174024	 -18.32820777	 -6.10940259
Au	 18.32820777	 -20.36467530	 -6.10940259
No	 18.32820777	 -18.32820777	 -8.14587012
Au	 16.29174024	 -20.36467530	 -4.07293506
No	 16.29174024	 -18.32820777	 -2.03646753
Au	 18.32820777	 -20.36467530	 -2.03646753
No	 18.32820777	 -18.32820777	 -4.07293506
Au	 16.29174024	 -20.36467530	 -0.00000000
No	 16.29174024	 -18.32820777	 2.03646753
Au	 18.32820777	 -20.36467530	 2.03646753
No	 18.32820777	 -18.32820777	 -0.00000000
Au	 16.29174024	 -20.36467530	 4.07293506
No	 16.29174024	 -18.32820777	 6.10940259
Au	 18.32820777	 -20.36467530	 6.10940259
No	 18.32820777	 -18.32820777	 4.07293506
Au	 16.29174024	 -20.36467530	 8.14587012
No	 16.29174024	 -18.32820777	 10.18233765
Au	 18.32820777	 -20.36467530	 10.18233765
No	 18.32820777	 -18.32820777	 8.14587012
Au	 16.29174024	 -20.36467530	 12.21880518
No	 16.29174024	 -18.32820777	 14.25527271
Au	 18.32820777	 -20.36467530	 14.25527271
No	 18.32820777	 -18.32820777	 12.21880518
Au	 16.29174024	 -20.36467530	 16.29174024
No	 16.29174024	 -18.32820777	 18.32820777
Au	 18.32820777	 -20.36467530	 18.32820777
No	 18.32820777	 -18.32820777	 16.29174024
Au	 16.29174024	 -16.29174024	 -20.36467530
No	 16.29174024	 -14.25527271	 -18.32820777
No	 18.32820777	 -16.29174024	 -18.32820777
Au	 18.32820777	 -14.25527271	 -20.36467530
No	 16.29174024	 -16.29174024	 -16.29174024
No	 16.29174024	 -14.25527271	 -14.25527271
No	 18.32820777	 -16.29174024	 -14.25527271
No	 18.32820777	 -14.25527271	 -16.29174024
No	 16.29174024	 -16.29174024	 -12.21880518
No	 16.29174024	 -14.25527271	 -10.18233765
No	 18.32820777	 -16.29174024	 -10.18233765
No	 18.32820777	 -14.25527271	 -12.21880518
No	 16.29174024	 -16.29174024	 -8.14587012
No	 16.29174024	 -14.25527271	 -6.10940259
No	 18.32820777	 -16.29174024	 -6.10940259
No	 18.32820777	 -14.25527271	 -8.14587012
No	 16.29174024	 -16.29174024	 -4.07293506
No	 16.29174024	 -14.25527271	 -2.03646753
No	 18.32820777	 -16.29174024	 -2.03646753
No	 18.32820777	 -14.25527271	 -4.07293506
No	 16.29174024	 -16.29174024	 -0.00000000
No	 16.29174024	 -14.25527271	 2.03646753
No	 18.32820777	 -16.29174024	 2.03646753
No	 18.32820777	 -14.25527271	 -0.00000000
No	 16.29174024	 -16.29174024	 4.07293506
No	 16.29174024	 -14.25527271	 6.10940259
No	 18.32820777	 -16.29174024	 6.10940259
No	 18.32820777	 -14.25527271	 4.07293506
No	 16.29174024	 -16.29174024	 8.14587012
No	 16.29174024	 -14.25527271	 10.18233765
No	 18.32820777	 -16.29174024	 10.18233765
No	 18.32820777	 -14.25527271	 8.14587012
No	 16.29174024	 -16.29174024	 12.21880518
No	 16.29174024	 -14.25527271	 14.25527271
No	 18.32820777	 -16.29174024	 14.25527271
No	 18.32820777	 -14.25527271	 12.21880518
No	 16.29174024	 -16.29174024	 16.29174024
No	 16.29174024	 -14.25527271	 18.32820777
No	 18.32820777	 -16.29174024	 18.32820777
No	 18.32820777	 -14.25527271	 16.29174024
Au	 16.29174024	 -12.21880518	 -20.36467530
No	 16.29174024	 -10.18233765	 -18.32820777
No	 18.32820777	 -12.21880518	 -18.32820777
Au	 18.32820777	 -10.18233765	 -20.36467530
No	 16.29174024	 -12.21880518	 -16.29174024
No	 16.29174024	 -10.18233765	 -14.25527271
No	 18.32820777	 -12.21880518	 -14.25527271
No	 18.32820777	 -10.18233765	 -16.29174024
No	 16.29174024	 -12.21880518	 -12.21880518
No	 16.29174024	 -10.18233765	 -10.18233765
No	 18.32820777	 -12.21880518	 -10.18233765
No	 18.32820777	 -10.18233765	 -12.21880518
No	 16.29174024	 -12.21880518	 -8.14587012
No	 16.29174024	 -10.18233765	 -6.10940259
No	 18.32820777	 -12.21880518	 -6.10940259
No	 18.32820777	 -10.18233765	 -8.14587012
No	 16.29174024	 -12.21880518	 -4.07293506
No	 16.29174024	 -10.18233765	 -2.03646753
No	 18.32820777	 -12.21880518	 -2.03646753
No	 18.32820777	 -10.18233765	 -4.07293506
No	 16.29174024	 -12.21880518	 -0.00000000
No	 16.29174024	 -10.18233765	 2.03646753
No	 18.32820777	 -12.21880518	 2.03646753
No	 18.32820777	 -10.18233765	 -0.00000000
No	 16.29174024	 -12.21880518	 4.07293506
No	 16.29174024	 -10.18233765	 6.10940259
No	 18.32820777	 -12.21880518	 6.10940259
No	 18.32820777	 -10.18233765	 4.07293506
No	 16.29174024	 -12.21880518	 8.14587012
No	 16.29174024	 -10.18233765	 10.18233765
No	 18.32820777	 -12.21880518	 10.18233765
No	 18.32820777	 -10.18233765	 8.14587012
No	 16.29174024	 -12.21880518	 12.21880518
No	 16.29174024	 -10.18233765	 14.25527271
No	 18.32820777	 -12.21880518	 14.25527271
No	 18.32820777	 -10.18233765	 12.21880518
No	 16.29174024	 -12.21880518	 16.29174024
No	 16.29174024	 -10.18233765	 18.32820777
No	 18.32820777	 -12.21880518	 18.32820777
No	 18.32820777	 -10.18233765	 16.29174024
Au	 16.29174024	 -8.14587012	 -20.36467530
No	 16.29174024	 -6.10940259	 -18.32820777
No	 18.32820777	 -8.14587012	 -18.32820777
Au	 18.32820777	 -6.10940259	 -20.36467530
No	 16.29174024	 -8.14587012	 -16.29174024
No	 16.29174024	 -6.10940259	 -14.25527271
No	 18.32820777	 -8.14587012	 -14.25527271
No	 18.32820777	 -6.10940259	 -16.29174024
No	 16.29174024	 -8.14587012	 -12.21880518
No	 16.29174024	 -6.10940259	 -10.18233765
No	 18.32820777	 -8.14587012	 -10.18233765
No	 18.32820777	 -6.10940259	 -12.21880518
No	 16.29174024	 -8.14587012	 -8.14587012
No	 16.29174024	 -6.10940259	 -6.10940259
No	 18.32820777	 -8.14587012	 -6.10940259
No	 18.32820777	 -6.10940259	 -8.14587012
No	 16.29174024	 -8.14587012	 -4.07293506
No	 16.29174024	 -6.10940259	 -2.03646753
No	 18.32820777	 -8.14587012	 -2.03646753
No	 18.32820777	 -6.10940259	 -4.07293506
No	 16.29174024	 -8.14587012	 -0.00000000
No	 16.29174024	 -6.10940259	 2.03646753
No	 18.32820777	 -8.14587012	 2.03646753
No	 18.32820777	 -6.10940259	 -0.00000000
No	 16.29174024	 -8.14587012	 4.07293506
No	 16.29174024	 -6.10940259	 6.10940259
No	 18.32820777	 -8.14587012	 6.10940259
No	 18.32820777	 -6.10940259	 4.07293506
No	 16.29174024	 -8.14587012	 8.14587012
No	 16.29174024	 -6.10940259	 10.18233765
No	 18.32820777	 -8.14587012	 10.18233765
No	 18.32820777	 -6.10940259	 8.14587012
No	 16.29174024	 -8.14587012	 12.21880518
No	 16.29174024	 -6.10940259	 14.25527271
No	 18.32820777	 -8.14587012	 14.25527271
No	 18.32820777	 -6.10940259	 12.21880518
No	 16.29174024	 -8.14587012	 16.29174024
No	 16.29174024	 -6.10940259	 18.32820777
No	 18.32820777	 -8.14587012	 18.32820777
No	 18.32820777	 -6.10940259	 16.29174024
Au	 16.29174024	 -4.07293506	 -20.36467530
No	 16.29174024	 -2.03646753	 -18.32820777
No	 18.32820777	 -4.07293506	 -18.32820777
Au	 18.32820777	 -2.03646753	 -20.36467530
No	 16.29174024	 -4.07293506	 -16.29174024
No	 16.29174024	 -2.03646753	 -14.25527271
No	 18.32820777	 -4.07293506	 -14.25527271
No	 18.32820777	 -2.03646753	 -16.29174024
No	 16.29174024	 -4.07293506	 -12.21880518
No	 16.29174024	 -2.03646753	 -10.18233765
No	 18.32820777	 -4.07293506	 -10.18233765
No	 18.32820777	 -2.03646753	 -12.21880518
No	 16.29174024	 -4.07293506	 -8.14587012
No	 16.29174024	 -2.03646753	 -6.10940259
No	 18.32820777	 -4.07293506	 -6.10940259
No	 18.32820777	 -2.03646753	 -8.14587012
No	 16.29174024	 -4.07293506	 -4.07293506
No	 16.29174024	 -2.03646753	 -2.03646753
No	 18.32820777	 -4.07293506	 -2.03646753
No	 18.32820777	 -2.03646753	 -4.07293506
No	 16.29174024	 -4.07293506	 -0.00000000
No	 16.29174024	 -2.03646753	 2.03646753
No	 18.32820777	 -4.07293506	 2.03646753
No	 18.32820777	 -2.03646753	 -0.00000000
No	 16.29174024	 -4.07293506	 4.07293506
No	 16.29174024	 -2.03646753	 6.10940259
No	 18.32820777	 -4.07293506	 6.10940259
No	 18.32820777	 -2.03646753	 4.07293506
No	 16.29174024	 -4.07293506	 8.14587012
No	 16.29174024	 -2.03646753	 10.18233765
No	 18.32820777	 -4.07293506	 10.18233765
No	 18.32820777	 -2.03646753	 8.14587012
No	 16.29174024	 -4.07293506	 12.21880518
No	 16.29174024	 -2.03646753	 14.25527271
No	 18.32820777	 -4.07293506	 14.25527271
No	 18.32820777	 -2.03646753	 12.21880518
No	 16.29174024	 -4.07293506	 16.29174024
No	 16.29174024	 -2.03646753	 18.32820777
No	 18.32820777	 -4.07293506	 18.32820777
No	 18.32820777	 -2.03646753	 16.29174024
Au	 16.29174024	 0.00000000	 -20.36467530
No	 16.29174024	 2.03646753	 -18.32820777
No	 18.32820777	 0.00000000	 -18.32820777
Au	 18.32820777	 2.03646753	 -20.36467530
No	 16.29174024	 0.00000000	 -16.29174024
No	 16.29174024	 2.03646753	 -14.25527271
No	 18.32820777	 0.00000000	 -14.25527271
No	 18.32820777	 2.03646753	 -16.29174024
No	 16.29174024	 0.00000000	 -12.21880518
No	 16.29174024	 2.03646753	 -10.18233765
No	 18.32820777	 0.00000000	 -10.18233765
No	 18.32820777	 2.03646753	 -12.21880518
No	 16.29174024	 0.00000000	 -8.14587012
No	 16.29174024	 2.03646753	 -6.10940259
No	 18.32820777	 0.00000000	 -6.10940259
No	 18.32820777	 2.03646753	 -8.14587012
No	 16.29174024	 0.00000000	 -4.07293506
No	 16.29174024	 2.03646753	 -2.03646753
No	 18.32820777	 0.00000000	 -2.03646753
No	 18.32820777	 2.03646753	 -4.07293506
No	 16.29174024	 0.00000000	 -0.00000000
No	 16.29174024	 2.03646753	 2.03646753
No	 18.32820777	 0.00000000	 2.03646753
No	 18.32820777	 2.03646753	 -0.00000000
No	 16.29174024	 0.00000000	 4.07293506
No	 16.29174024	 2.03646753	 6.10940259
No	 18.32820777	 0.00000000	 6.10940259
No	 18.32820777	 2.03646753	 4.07293506
No	 16.29174024	 0.00000000	 8.14587012
No	 16.29174024	 2.03646753	 10.18233765
No	 18.32820777	 0.00000000	 10.18233765
No	 18.32820777	 2.03646753	 8.14587012
No	 16.29174024	 0.00000000	 12.21880518
No	 16.29174024	 2.03646753	 14.25527271
No	 18.32820777	 0.00000000	 14.25527271
No	 18.32820777	 2.03646753	 12.21880518
No	 16.29174024	 0.00000000	 16.29174024
No	 16.29174024	 2.03646753	 18.32820777
No	 18.32820777	 0.00000000	 18.32820777
No	 18.32820777	 2.03646753	 16.29174024
Au	 16.29174024	 4.07293506	 -20.36467530
No	 16.29174024	 6.10940259	 -18.32820777
No	 18.32820777	 4.07293506	 -18.32820777
Au	 18.32820777	 6.10940259	 -20.36467530
No	 16.29174024	 4.07293506	 -16.29174024
No	 16.29174024	 6.10940259	 -14.25527271
No	 18.32820777	 4.07293506	 -14.25527271
No	 18.32820777	 6.10940259	 -16.29174024
No	 16.29174024	 4.07293506	 -12.21880518
No	 16.29174024	 6.10940259	 -10.18233765
No	 18.32820777	 4.07293506	 -10.18233765
No	 18.32820777	 6.10940259	 -12.21880518
No	 16.29174024	 4.07293506	 -8.14587012
No	 16.29174024	 6.10940259	 -6.10940259
No	 18.32820777	 4.07293506	 -6.10940259
No	 18.32820777	 6.10940259	 -8.14587012
No	 16.29174024	 4.07293506	 -4.07293506
No	 16.29174024	 6.10940259	 -2.03646753
No	 18.32820777	 4.07293506	 -2.03646753
No	 18.32820777	 6.10940259	 -4.07293506
No	 16.29174024	 4.07293506	 -0.00000000
No	 16.29174024	 6.10940259	 2.03646753
No	 18.32820777	 4.07293506	 2.03646753
No	 18.32820777	 6.10940259	 -0.00000000
No	 16.29174024	 4.07293506	 4.07293506
No	 16.29174024	 6.10940259	 6.10940259
No	 18.32820777	 4.07293506	 6.10940259
No	 18.32820777	 6.10940259	 4.07293506
No	 16.29174024	 4.07293506	 8.14587012
No	 16.29174024	 6.10940259	 10.18233765
No	 18.32820777	 4.07293506	 10.18233765
No	 18.32820777	 6.10940259	 8.14587012
No	 16.29174024	 4.07293506	 12.21880518
No	 16.29174024	 6.10940259	 14.25527271
No	 18.32820777	 4.07293506	 14.25527271
No	 18.32820777	 6.10940259	 12.21880518
No	 16.29174024	 4.07293506	 16.29174024
No	 16.29174024	 6.10940259	 18.32820777
No	 18.32820777	 4.07293506	 18.32820777
No	 18.32820777	 6.10940259	 16.29174024
Au	 16.29174024	 8.14587012	 -20.36467530
No	 16.29174024	 10.18233765	 -18.32820777
No	 18.32820777	 8.14587012	 -18.32820777
Au	 18.32820777	 10.18233765	 -20.36467530
No	 16.29174024	 8.14587012	 -16.29174024
No	 16.29174024	 10.18233765	 -14.25527271
No	 18.32820777	 8.14587012	 -14.25527271
No	 18.32820777	 10.18233765	 -16.29174024
No	 16.29174024	 8.14587012	 -12.21880518
No	 16.29174024	 10.18233765	 -10.18233765
No	 18.32820777	 8.14587012	 -10.18233765
No	 18.32820777	 10.18233765	 -12.21880518
No	 16.29174024	 8.14587012	 -8.14587012
No	 16.29174024	 10.18233765	 -6.10940259
No	 18.32820777	 8.14587012	 -6.10940259
No	 18.32820777	 10.18233765	 -8.14587012
No	 16.29174024	 8.14587012	 -4.07293506
No	 16.29174024	 10.18233765	 -2.03646753
No	 18.32820777	 8.14587012	 -2.03646753
No	 18.32820777	 10.18233765	 -4.07293506
No	 16.29174024	 8.14587012	 -0.00000000
No	 16.29174024	 10.18233765	 2.03646753
No	 18.32820777	 8.14587012	 2.03646753
No	 18.32820777	 10.18233765	 -0.00000000
No	 16.29174024	 8.14587012	 4.07293506
No	 16.29174024	 10.18233765	 6.10940259
No	 18.32820777	 8.14587012	 6.10940259
No	 18.32820777	 10.18233765	 4.07293506
No	 16.29174024	 8.14587012	 8.14587012
No	 16.29174024	 10.18233765	 10.18233765
No	 18.32820777	 8.14587012	 10.18233765
No	 18.32820777	 10.18233765	 8.14587012
No	 16.29174024	 8.14587012	 12.21880518
No	 16.29174024	 10.18233765	 14.25527271
No	 18.32820777	 8.14587012	 14.25527271
No	 18.32820777	 10.18233765	 12.21880518
No	 16.29174024	 8.14587012	 16.29174024
No	 16.29174024	 10.18233765	 18.32820777
No	 18.32820777	 8.14587012	 18.32820777
No	 18.32820777	 10.18233765	 16.29174024
Au	 16.29174024	 12.21880518	 -20.36467530
No	 16.29174024	 14.25527271	 -18.32820777
No	 18.32820777	 12.21880518	 -18.32820777
Au	 18.32820777	 14.25527271	 -20.36467530
No	 16.29174024	 12.21880518	 -16.29174024
No	 16.29174024	 14.25527271	 -14.25527271
No	 18.32820777	 12.21880518	 -14.25527271
No	 18.32820777	 14.25527271	 -16.29174024
No	 16.29174024	 12.21880518	 -12.21880518
No	 16.29174024	 14.25527271	 -10.18233765
No	 18.32820777	 12.21880518	 -10.18233765
No	 18.32820777	 14.25527271	 -12.21880518
No	 16.29174024	 12.21880518	 -8.14587012
No	 16.29174024	 14.25527271	 -6.10940259
No	 18.32820777	 12.21880518	 -6.10940259
No	 18.32820777	 14.25527271	 -8.14587012
No	 16.29174024	 12.21880518	 -4.07293506
No	 16.29174024	 14.25527271	 -2.03646753
No	 18.32820777	 12.21880518	 -2.03646753
No	 18.32820777	 14.25527271	 -4.07293506
No	 16.29174024	 12.21880518	 -0.00000000
No	 16.29174024	 14.25527271	 2.03646753
No	 18.32820777	 12.21880518	 2.03646753
No	 18.32820777	 14.25527271	 -0.00000000
No	 16.29174024	 12.21880518	 4.07293506
No	 16.29174024	 14.25527271	 6.10940259
No	 18.32820777	 12.21880518	 6.10940259
No	 18.32820777	 14.25527271	 4.07293506
No	 16.29174024	 12.21880518	 8.14587012
No	 16.29174024	 14.25527271	 10.18233765
No	 18.32820777	 12.21880518	 10.18233765
No	 18.32820777	 14.25527271	 8.14587012
No	 16.29174024	 12.21880518	 12.21880518
No	 16.29174024	 14.25527271	 14.25527271
No	 18.32820777	 12.21880518	 14.25527271
No	 18.32820777	 14.25527271	 12.21880518
No	 16.29174024	 12.21880518	 16.29174024
No	 16.29174024	 14.25527271	 18.32820777
No	 18.32820777	 12.21880518	 18.32820777
No	 18.32820777	 14.25527271	 16.29174024
Au	 16.29174024	 16.29174024	 -20.36467530
No	 16.29174024	 18.32820777	 -18.32820777
No	 18.32820777	 16.29174024	 -18.32820777
Au	 18.32820777	 18.32820777	 -20.36467530
No	 16.29174024	 16.29174024	 -16.29174024
No	 16.29174024	 18.32820777	 -14.25527271
No	 18.32820777	 16.29174024	 -14.25527271
No	 18.32820777	 18.32820777	 -16.29174024
No	 16.29174024	 16.29174024	 -12.21880518
No	 16.29174024	 18.32820777	 -10.18233765
No	 18.32820777	 16.29174024	 -10.18233765
No	 18.32820777	 18.32820777	 -12.21880518
No	 16.29174024	 16.29174024	 -8.14587012
No	 16.29174024	 18.32820777	 -6.10940259
No	 18.32820777	 16.29174024	 -6.10940259
No	 18.32820777	 18.32820777	 -8.14587012
No	 16.29174024	 16.29174024	 -4.07293506
No	 16.29174024	 18.32820777	 -2.03646753
No	 18.32820777	 16.29174024	 -2.03646753
No	 18.32820777	 18.32820777	 -4.07293506
No	 16.29174024	 16.29174024	 -0.00000000
No	 16.29174024	 18.32820777	 2.03646753
No	 18.32820777	 16.29174024	 2.03646753
No	 18.32820777	 18.32820777	 -0.00000000
No	 16.29174024	 16.29174024	 4.07293506
No	 16.29174024	 18.32820777	 6.10940259
No	 18.32820777	 16.29174024	 6.10940259
No	 18.32820777	 18.32820777	 4.07293506
No	 16.29174024	 16.29174024	 8.14587012
No	 16.29174024	 18.32820777	 10.18233765
No	 18.32820777	 16.29174024	 10.18233765
No	 18.32820777	 18.32820777	 8.14587012
No	 16.29174024	 16.29174024	 12.21880518
No	 16.29174024	 18.32820777	 14.25527271
No	 18.32820777	 16.29174024	 14.25527271
No	 18.32820777	 18.32820777	 12.21880518
No	 16.29174024	 16.29174024	 16.29174024
No	 16.29174024	 18.32820777	 18.32820777
No	 18.32820777	 16.29174024	 18.32820777
No	 18.32820777	 18.32820777	 16.29174024
Au	 -20.36467530	 -20.36467530	 20.36467530
Au	 -18.32820777	 -18.32820777	 20.36467530
Au	 -20.36467530	 -16.29174024	 20.36467530
Au	 -18.32820777	 -14.25527271	 20.36467530
Au	 -20.36467530	 -12.21880518	 20.36467530
Au	 -18.32820777	 -10.18233765	 20.36467530
Au	 -20.36467530	 -8.14587012	 20.36467530
Au	 -18.32820777	 -6.10940259	 20.36467530
Au	 -20.36467530	 -4.07293506	 20.36467530
Au	 -18.32820777	 -2.03646753	 20.36467530
Au	 -20.36467530	 0.00000000	 20.36467530
Au	 -18.32820777	 2.03646753	 20.36467530
Au	 -20.36467530	 4.07293506	 20.36467530
Au	 -18.32820777	 6.10940259	 20.36467530
Au	 -20.36467530	 8.14587012	 20.36467530
Au	 -18.32820777	 10.18233765	 20.36467530
Au	 -20.36467530	 12.21880518	 20.36467530
Au	 -18.32820777	 14.25527271	 20.36467530
Au	 -20.36467530	 16.29174024	 20.36467530
Au	 -18.32820777	 18.32820777	 20.36467530
Au	 -16.29174024	 -20.36467530	 20.36467530
Au	 -14.25527271	 -18.32820777	 20.36467530
Au	 -16.29174024	 -16.29174024	 20.36467530
Au	 -14.25527271	 -14.25527271	 20.36467530
Au	 -16.29174024	 -12.21880518	 20.36467530
Au	 -14.25527271	 -10.18233765	 20.36467530
Au	 -16.29174024	 -8.14587012	 20.36467530
Au	 -14.25527271	 -6.10940259	 20.36467530
Au	 -16.29174024	 -4.07293506	 20.36467530
Au	 -14.25527271	 -2.03646753	 20.36467530
Au	 -16.29174024	 0.00000000	 20.36467530
Au	 -14.25527271	 2.03646753	 20.36467530
Au	 -16.29174024	 4.07293506	 20.36467530
Au	 -14.25527271	 6.10940259	 20.36467530
Au	 -16.29174024	 8.14587012	 20.36467530
Au	 -14.25527271	 10.18233765	 20.36467530
Au	 -16.29174024	 12.21880518	 20.36467530
Au	 -14.25527271	 14.25527271	 20.36467530
Au	 -16.29174024	 16.29174024	 20.36467530
Au	 -14.25527271	 18.32820777	 20.36467530
Au	 -12.21880518	 -20.36467530	 20.36467530
Au	 -10.18233765	 -18.32820777	 20.36467530
Au	 -12.21880518	 -16.29174024	 20.36467530
Au	 -10.18233765	 -14.25527271	 20.36467530
Au	 -12.21880518	 -12.21880518	 20.36467530
Au	 -10.18233765	 -10.18233765	 20.36467530
Au	 -12.21880518	 -8.14587012	 20.36467530
Au	 -10.18233765	 -6.10940259	 20.36467530
Au	 -12.21880518	 -4.07293506	 20.36467530
Au	 -10.18233765	 -2.03646753	 20.36467530
Au	 -12.21880518	 0.00000000	 20.36467530
Au	 -10.18233765	 2.03646753	 20.36467530
Au	 -12.21880518	 4.07293506	 20.36467530
Au	 -10.18233765	 6.10940259	 20.36467530
Au	 -12.21880518	 8.14587012	 20.36467530
Au	 -10.18233765	 10.18233765	 20.36467530
Au	 -12.21880518	 12.21880518	 20.36467530
Au	 -10.18233765	 14.25527271	 20.36467530
Au	 -12.21880518	 16.29174024	 20.36467530
Au	 -10.18233765	 18.32820777	 20.36467530
Au	 -8.14587012	 -20.36467530	 20.36467530
Au	 -6.10940259	 -18.32820777	 20.36467530
Au	 -8.14587012	 -16.29174024	 20.36467530
Au	 -6.10940259	 -14.25527271	 20.36467530
Au	 -8.14587012	 -12.21880518	 20.36467530
Au	 -6.10940259	 -10.18233765	 20.36467530
Au	 -8.14587012	 -8.14587012	 20.36467530
Au	 -6.10940259	 -6.10940259	 20.36467530
Au	 -8.14587012	 -4.07293506	 20.36467530
Au	 -6.10940259	 -2.03646753	 20.36467530
Au	 -8.14587012	 0.00000000	 20.36467530
Au	 -6.10940259	 2.03646753	 20.36467530
Au	 -8.14587012	 4.07293506	 20.36467530
Au	 -6.10940259	 6.10940259	 20.36467530
Au	 -8.14587012	 8.14587012	 20.36467530
Au	 -6.10940259	 10.18233765	 20.36467530
Au	 -8.14587012	 12.21880518	 20.36467530
Au	 -6.10940259	 14.25527271	 20.36467530
Au	 -8.14587012	 16.29174024	 20.36467530
Au	 -6.10940259	 18.32820777	 20.36467530
Au	 -4.07293506	 -20.36467530	 20.36467530
Au	 -2.03646753	 -18.32820777	 20.36467530
Au	 -4.07293506	 -16.29174024	 20.36467530
Au	 -2.03646753	 -14.25527271	 20.36467530
Au	 -4.07293506	 -12.21880518	 20.36467530
Au	 -2.03646753	 -10.18233765	 20.36467530
Au	 -4.07293506	 -8.14587012	 20.36467530
Au	 -2.03646753	 -6.10940259	 20.36467530
Au	 -4.07293506	 -4.07293506	 20.36467530
Au	 -2.03646753	 -2.03646753	 20.36467530
Au	 -4.07293506	 0.00000000	 20.36467530
Au	 -2.03646753	 2.03646753	 20.36467530
Au	 -4.07293506	 4.07293506	 20.36467530
Au	 -2.03646753	 6.10940259	 20.36467530
Au	 -4.07293506	 8.14587012	 20.36467530
Au	 -2.03646753	 10.18233765	 20.36467530
Au	 -4.07293506	 12.21880518	 20.36467530
Au	 -2.03646753	 14.25527271	 20.36467530
Au	 -4.07293506	 16.29174024	 20.36467530
Au	 -2.03646753	 18.32820777	 20.36467530
Au	 0.00000000	 -20.36467530	 20.36467530
Au	 2.03646753	 -18.32820777	 20.36467530
Au	 0.00000000	 -16.29174024	 20.36467530
Au	 2.03646753	 -14.25527271	 20.36467530
Au	 0.00000000	 -12.21880518	 20.36467530
Au	 2.03646753	 -10.18233765	 20.36467530
Au	 0.00000000	 -8.14587012	 20.36467530
Au	 2.03646753	 -6.10940259	 20.36467530
Au	 0.00000000	 -4.07293506	 20.36467530
Au	 2.03646753	 -2.03646753	 20.36467530
Au	 0.00000000	 0.00000000	 20.36467530
Au	 2.03646753	 2.03646753	 20.36467530
Au	 0.00000000	 4.07293506	 20.36467530
Au	 2.03646753	 6.10940259	 20.36467530
Au	 0.00000000	 8.14587012	 20.36467530
Au	 2.03646753	 10.18233765	 20.36467530
Au	 0.00000000	 12.21880518	 20.36467530
Au	 2.03646753	 14.25527271	 20.36467530
Au	 0.00000000	 16.29174024	 20.36467530
Au	 2.03646753	 18.32820777	 20.36467530
Au	 4.07293506	 -20.36467530	 20.36467530
Au	 6.10940259	 -18.32820777	 20.36467530
Au	 4.07293506	 -16.29174024	 20.36467530
Au	 6.10940259	 -14.25527271	 20.36467530
Au	 4.07293506	 -12.21880518	 20.36467530
Au	 6.10940259	 -10.18233765	 20.36467530
Au	 4.07293506	 -8.14587012	 20.36467530
Au	 6.10940259	 -6.10940259	 20.36467530
Au	 4.07293506	 -4.07293506	 20.36467530
Au	 6.10940259	 -2.03646753	 20.36467530
Au	 4.07293506	 0.00000000	 20.36467530
Au	 6.10940259	 2.03646753	 20.36467530
Au	 4.07293506	 4.07293506	 20.36467530
Au	 6.10940259	 6.10940259	 20.36467530
Au	 4.07293506	 8.14587012	 20.36467530
Au	 6.10940259	 10.18233765	 20.36467530
Au	 4.07293506	 12.21880518	 20.36467530
Au	 6.10940259	 14.25527271	 20.36467530
Au	 4.07293506	 16.29174024	 20.36467530
Au	 6.10940259	 18.32820777	 20.36467530
Au	 8.14587012	 -20.36467530	 20.36467530
Au	 10.18233765	 -18.32820777	 20.36467530
Au	 8.14587012	 -16.29174024	 20.36467530
Au	 10.18233765	 -14.25527271	 20.36467530
Au	 8.14587012	 -12.21880518	 20.36467530
Au	 10.18233765	 -10.18233765	 20.36467530
Au	 8.14587012	 -8.14587012	 20.36467530
Au	 10.18233765	 -6.10940259	 20.36467530
Au	 8.14587012	 -4.07293506	 20.36467530
Au	 10.18233765	 -2.03646753	 20.36467530
Au	 8.14587012	 0.00000000	 20.36467530
Au	 10.18233765	 2.03646753	 20.36467530
Au	 8.14587012	 4.07293506	 20.36467530
Au	 10.18233765	 6.10940259	 20.36467530
Au	 8.14587012	 8.14587012	 20.36467530
Au	 10.18233765	 10.18233765	 20.36467530
Au	 8.14587012	 12.21880518	 20.36467530
Au	 10.18233765	 14.25527271	 20.36467530
Au	 8.14587012	 16.29174024	 20.36467530
Au	 10.18233765	 18.32820777	 20.36467530
Au	 12.21880518	 -20.36467530	 20.36467530
Au	 14.25527271	 -18.32820777	 20.36467530
Au	 12.21880518	 -16.29174024	 20.36467530
Au	 14.25527271	 -14.25527271	 20.36467530
Au	 12.21880518	 -12.21880518	 20.36467530
Au	 14.25527271	 -10.18233765	 20.36467530
Au	 12.21880518	 -8.14587012	 20.36467530
Au	 14.25527271	 -6.10940259	 20.36467530
Au	 12.21880518	 -4.07293506	 20.36467530
Au	 14.25527271	 -2.03646753	 20.36467530
Au	 12.21880518	 0.00000000	 20.36467530
Au	 14.25527271	 2.03646753	 20.36467530
Au	 12.21880518	 4.07293506	 20.36467530
Au	 14.25527271	 6.10940259	 20.36467530
Au	 12.21880518	 8.14587012	 20.36467530
Au	 14.25527271	 10.18233765	 20.36467530
Au	 12.21880518	 12.21880518	 20.36467530
Au	 14.25527271	 14.25527271	 20.36467530
Au	 12.21880518	 16.29174024	 20.36467530
Au	 14.25527271	 18.32820777	 20.36467530
Au	 16.29174024	 -20.36467530	 20.36467530
Au	 18.32820777	 -18.32820777	 20.36467530
Au	 16.29174024	 -16.29174024	 20.36467530
Au	 18.32820777	 -14.25527271	 20.36467530
Au	 16.29174024	 -12.21880518	 20.36467530
Au	 18.32820777	 -10.18233765	 20.36467530
Au	 16.29174024	 -8.14587012	 20.36467530
Au	 18.32820777	 -6.10940259	 20.36467530
Au	 16.29174024	 -4.07293506	 20.36467530
Au	 18.32820777	 -2.03646753	 20.36467530
Au	 16.29174024	 0.00000000	 20.36467530
Au	 18.32820777	 2.03646753	 20.36467530
Au	 16.29174024	 4.07293506	 20.36467530
Au	 18.32820777	 6.10940259	 20.36467530
Au	 16.29174024	 8.14587012	 20.36467530
Au	 18.32820777	 10.18233765	 20.36467530
Au	 16.29174024	 12.21880518	 20.36467530
Au	 18.32820777	 14.25527271	 20.36467530
Au	 16.29174024	 16.29174024	 20.36467530
Au	 18.32820777	 18.32820777	 20.36467530
Au	 -20.36467530	 20.36467530	 -20.36467530
Au	 -18.32820777	 20.36467530	 -18.32820777
Au	 -20.36467530	 20.36467530	 -16.29174024
Au	 -18.32820777	 20.36467530	 -14.25527271
Au	 -20.36467530	 20.36467530	 -12.21880518
Au	 -18.32820777	 20.36467530	 -10.18233765
Au	 -20.36467530	 20.36467530	 -8.14587012
Au	 -18.32820777	 20.36467530	 -6.10940259
Au	 -20.36467530	 20.36467530	 -4.07293506
Au	 -18.32820777	 20.36467530	 -2.03646753
Au	 -20.36467530	 20.36467530	 -0.00000000
Au	 -18.32820777	 20.36467530	 2.03646753
Au	 -20.36467530	 20.36467530	 4.07293506
Au	 -18.32820777	 20.36467530	 6.10940259
Au	 -20.36467530	 20.36467530	 8.14587012
Au	 -18.32820777	 20.36467530	 10.18233765
Au	 -20.36467530	 20.36467530	 12.21880518
Au	 -18.32820777	 20.36467530	 14.25527271
Au	 -20.36467530	 20.36467530	 16.29174024
Au	 -18.32820777	 20.36467530	 18.32820777
Au	 -16.29174024	 20.36467530	 -20.36467530
Au	 -14.25527271	 20.36467530	 -18.32820777
Au	 -16.29174024	 20.36467530	 -16.29174024
Au	 -14.25527271	 20.36467530	 -14.25527271
Au	 -16.29174024	 20.36467530	 -12.21880518
Au	 -14.25527271	 20.36467530	 -10.18233765
Au	 -16.29174024	 20.36467530	 -8.14587012
Au	 -14.25527271	 20.36467530	 -6.10940259
Au	 -16.29174024	 20.36467530	 -4.07293506
Au	 -14.25527271	 20.36467530	 -2.03646753
Au	 -16.29174024	 20.36467530	 -0.00000000
Au	 -14.25527271	 20.36467530	 2.03646753
Au	 -16.29174024	 20.36467530	 4.07293506
Au	 -14.25527271	 20.36467530	 6.10940259
Au	 -16.29174024	 20.36467530	 8.14587012
Au	 -14.25527271	 20.36467530	 10.18233765
Au	 -16.29174024	 20.36467530	 12.21880518
Au	 -14.25527271	 20.36467530	 14.25527271
Au	 -16.29174024	 20.36467530	 16.29174024
Au	 -14.25527271	 20.36467530	 18.32820777
Au	 -12.21880518	 20.36467530	 -20.36467530
Au	 -10.18233765	 20.36467530	 -18.32820777
Au	 -12.21880518	 20.36467530	 -16.29174024
Au	 -10.18233765	 20.36467530	 -14.25527271
Au	 -12.21880518	 20.36467530	 -12.21880518
Au	 -10.18233765	 20.36467530	 -10.18233765
Au	 -12.21880518	 20.36467530	 -8.14587012
Au	 -10.18233765	 20.36467530	 -6.10940259
Au	 -12.21880518	 20.36467530	 -4.07293506
Au	 -10.18233765	 20.36467530	 -2.03646753
Au	 -12.21880518	 20.36467530	 -0.00000000
Au	 -10.18233765	 20.36467530	 2.03646753
Au	 -12.21880518	 20.36467530	 4.07293506
Au	 -10.18233765	 20.36467530	 6.10940259
Au	 -12.21880518	 20.36467530	 8.14587012
Au	 -10.18233765	 20.36467530	 10.18233765
Au	 -12.21880518	 20.36467530	 12.21880518
Au	 -10.18233765	 20.36467530	 14.25527271
Au	 -12.21880518	 20.36467530	 16.29174024
Au	 -10.18233765	 20.36467530	 18.32820777
Au	 -8.14587012	 20.36467530	 -20.36467530
Au	 -6.10940259	 20.36467530	 -18.32820777
Au	 -8.14587012	 20.36467530	 -16.29174024
Au	 -6.10940259	 20.36467530	 -14.25527271
Au	 -8.14587012	 20.36467530	 -12.21880518
Au	 -6.10940259	 20.36467530	 -10.18233765
Au	 -8.14587012	 20.36467530	 -8.14587012
Au	 -6.10940259	 20.36467530	 -6.10940259
Au	 -8.14587012	 20.36467530	 -4.07293506
Au	 -6.10940259	 20.36467530	 -2.03646753
Au	 -8.14587012	 20.36467530	 -0.00000000
Au	 -6.10940259	 20.36467530	 2.03646753
Au	 -8.14587012	 20.36467530	 4.07293506
Au	 -6.10940259	 20.36467530	 6.10940259
Au	 -8.14587012	 20.36467530	 8.14587012
Au	 -6.10940259	 20.36467530	 10.18233765
Au	 -8.14587012	 20.36467530	 12.21880518
Au	 -6.10940259	 20.36467530	 14.25527271
Au	 -8.14587012	 20.36467530	 16.29174024
Au	 -6.10940259	 20.36467530	 18.32820777
Au	 -4.07293506	 20.36467530	 -20.36467530
Au	 -2.03646753	 20.36467530	 -18.32820777
Au	 -4.07293506	 20.36467530	 -16.29174024
Au	 -2.03646753	 20.36467530	 -14.25527271
Au	 -4.07293506	 20.36467530	 -12.21880518
Au	 -2.03646753	 20.36467530	 -10.18233765
Au	 -4.07293506	 20.36467530	 -8.14587012
Au	 -2.03646753	 20.36467530	 -6.10940259
Au	 -4.07293506	 20.36467530	 -4.07293506
Au	 -2.03646753	 20.36467530	 -2.03646753
Au	 -4.07293506	 20.36467530	 -0.00000000
Au	 -2.03646753	 20.36467530	 2.03646753
Au	 -4.07293506	 20.36467530	 4.07293506
Au	 -2.03646753	 20.36467530	 6.10940259
Au	 -4.07293506	 20.36467530	 8.14587012
Au	 -2.03646753	 20.36467530	 10.18233765
Au	 -4.07293506	 20.36467530	 12.21880518
Au	 -2.03646753	 20.36467530	 14.25527271
Au	 -4.07293506	 20.36467530	 16.29174024
Au	 -2.03646753	 20.36467530	 18.32820777
Au	 0.00000000	 20.36467530	 -20.36467530
Au	 2.03646753	 20.36467530	 -18.32820777
Au	 0.00000000	 20.36467530	 -16.29174024
Au	 2.03646753	 20.36467530	 -14.25527271
Au	 0.00000000	 20.36467530	 -12.21880518
Au	 2.03646753	 20.36467530	 -10.18233765
Au	 0.00000000	 20.36467530	 -8.14587012
Au	 2.03646753	 20.36467530	 -6.10940259
Au	 0.00000000	 20.36467530	 -4.07293506
Au	 2.03646753	 20.36467530	 -2.03646753
Au	 0.00000000	 20.36467530	 -0.00000000
Au	 2.03646753	 20.36467530	 2.03646753
Au	 0.00000000	 20.36467530	 4.07293506
Au	 2.03646753	 20.36467530	 6.10940259
Au	 0.00000000	 20.36467530	 8.14587012
Au	 2.03646753	 20.36467530	 10.18233765
Au	 0.00000000	 20.36467530	 12.21880518
Au	 2.03646753	 20.36467530	 14.25527271
Au	 0.00000000	 20.36467530	 16.29174024
Au	 2.03646753	 20.36467530	 18.32820777
Au	 4.07293506	 20.36467530	 -20.36467530
Au	 6.10940259	 20.36467530	 -18.32820777
Au	 4.07293506	 20.36467530	 -16.29174024
Au	 6.10940259	 20.36467530	 -14.25527271
Au	 4.07293506	 20.36467530	 -12.21880518
Au	 6.10940259	 20.36467530	 -10.18233765
Au	 4.07293506	 20.36467530	 -8.14587012
Au	 6.10940259	 20.36467530	 -6.10940259
Au	 4.07293506	 20.36467530	 -4.07293506
Au	 6.10940259	 20.36467530	 -2.03646753
Au	 4.07293506	 20.36467530	 -0.00000000
Au	 6.10940259	 20.36467530	 2.03646753
Au	 4.07293506	 20.36467530	 4.07293506
Au	 6.10940259	 20.36467530	 6.10940259
Au	 4.07293506	 20.36467530	 8.14587012
Au	 6.10940259	 20.36467530	 10.18233765
Au	 4.07293506	 20.36467530	 12.21880518
Au	 6.10940259	 20.36467530	 14.25527271
Au	 4.07293506	 20.36467530	 16.29174024
Au	 6.10940259	 20.36467530	 18.32820777
Au	 8.14587012	 20.36467530	 -20.36467530
Au	 10.18233765	 20.36467530	 -18.32820777
Au	 8.14587012	 20.36467530	 -16.29174024
Au	 10.18233765	 20.36467530	 -14.25527271
Au	 8.14587012	 20.36467530	 -12.21880518
Au	 10.18233765	 20.36467530	 -10.18233765
Au	 8.14587012	 20.36467530	 -8.14587012
Au	 10.18233765	 20.36467530	 -6.10940259
Au	 8.14587012	 20.36467530	 -4.07293506
Au	 10.18233765	 20.36467530	 -2.03646753
Au	 8.14587012	 20.36467530	 -0.00000000
Au	 10.18233765	 20.36467530	 2.03646753
Au	 8.14587012	 20.36467530	 4.07293506
Au	 10.18233765	 20.36467530	 6.10940259
Au	 8.14587012	 20.36467530	 8.14587012
Au	 10.18233765	 20.36467530	 10.18233765
Au	 8.14587012	 20.36467530	 12.21880518
Au	 10.18233765	 20.36467530	 14.25527271
Au	 8.14587012	 20.36467530	 16.29174024
Au	 10.18233765	 20.36467530	 18.32820777
Au	 12.21880518	 20.36467530	 -20.36467530
Au	 14.25527271	 20.36467530	 -18.32820777
Au	 12.21880518	 20.36467530	 -16.29174024
Au	 14.25527271	 20.36467530	 -14.25527271
Au	 12.21880518	 20.36467530	 -12.21880518
Au	 14.25527271	 20.36467530	 -10.18233765
Au	 12.21880518	 20.36467530	 -8.14587012
Au	 14.25527271	 20.36467530	 -6.10940259
Au	 12.21880518	 20.36467530	 -4.07293506
Au	 14.25527271	 20.36467530	 -2.03646753
Au	 12.21880518	 20.36467530	 -0.00000000
Au	 14.25527271	 20.36467530	 2.03646753
Au	 12.21880518	 20.36467530	 4.07293506
Au	 14.25527271	 20.36467530	 6.10940259
Au	 12.21880518	 20.36467530	 8.14587012
Au	 14.25527271	 20.36467530	 10.18233765
Au	 12.21880518	 20.36467530	 12.21880518
Au	 14.25527271	 20.36467530	 14.25527271
Au	 12.21880518	 20.36467530	 16.29174024
Au	 14.25527271	 20.36467530	 18.32820777
Au	 16.29174024	 20.36467530	 -20.36467530
Au	 18.32820777	 20.36467530	 -18.32820777
Au	 16.29174024	 20.36467530	 -16.29174024
Au	 18.32820777	 20.36467530	 -14.25527271
Au	 16.29174024	 20.36467530	 -12.21880518
Au	 18.32820777	 20.36467530	 -10.18233765
Au	 16.29174024	 20.36467530	 -8.14587012
Au	 18.32820777	 20.36467530	 -6.10940259
Au	 16.29174024	 20.36467530	 -4.07293506
Au	 18.32820777	 20.36467530	 -2.03646753
Au	 16.29174024	 20.36467530	 -0.00000000
Au	 18.32820777	 20.36467530	 2.03646753
Au	 16.29174024	 20.36467530	 4.07293506
Au	 18.32820777	 20.36467530	 6.10940259
Au	 16.29174024	 20.36467530	 8.14587012
Au	 18.32820777	 20.36467530	 10.18233765
Au	 16.29174024	 20.36467530	 12.21880518
Au	 18.32820777	 20.36467530	 14.25527271
Au	 16.29174024	 20.36467530	 16.29174024
Au	 18.32820777	 20.36467530	 18.32820777
Au	 -20.36467530	 20.36467530	 20.36467530
Au	 -16.29174024	 20.36467530	 20.36467530
Au	 -12.21880518	 20.36467530	 20.36467530
Au	 -8.14587012	 20.36467530	 20.36467530
Au	 -4.07293506	 20.36467530	 20.36467530
Au	 0.00000000	 20.36467530	 20.36467530
Au	 4.07293506	 20.36467530	 20.36467530
Au	 8.14587012	 20.36467530	 20.36467530
Au	 12.21880518	 20.36467530	 20.36467530
Au	 16.29174024	 20.36467530	 20.36467530
Au	 20.36467530	 -20.36467530	 -20.36467530
Au	 20.36467530	 -18.32820777	 -18.32820777
Au	 20.36467530	 -20.36467530	 -16.29174024
Au	 20.36467530	 -18.32820777	 -14.25527271
Au	 20.36467530	 -20.36467530	 -12.21880518
Au	 20.36467530	 -18.32820777	 -10.18233765
Au	 20.36467530	 -20.36467530	 -8.14587012
Au	 20.36467530	 -18.32820777	 -6.10940259
Au	 20.36467530	 -20.36467530	 -4.07293506
Au	 20.36467530	 -18.32820777	 -2.03646753
Au	 20.36467530	 -20.36467530	 -0.00000000
Au	 20.36467530	 -18.32820777	 2.03646753
Au	 20.36467530	 -20.36467530	 4.07293506
Au	 20.36467530	 -18.32820777	 6.10940259
Au	 20.36467530	 -20.36467530	 8.14587012
Au	 20.36467530	 -18.32820777	 10.18233765
Au	 20.36467530	 -20.36467530	 12.21880518
Au	 20.36467530	 -18.32820777	 14.25527271
Au	 20.36467530	 -20.36467530	 16.29174024
Au	 20.36467530	 -18.32820777	 18.32820777
Au	 20.36467530	 -16.29174024	 -20.36467530
Au	 20.36467530	 -14.25527271	 -18.32820777
Au	 20.36467530	 -16.29174024	 -16.29174024
Au	 20.36467530	 -14.25527271	 -14.25527271
Au	 20.36467530	 -16.29174024	 -12.21880518
Au	 20.36467530	 -14.25527271	 -10.18233765
Au	 20.36467530	 -16.29174024	 -8.14587012
Au	 20.36467530	 -14.25527271	 -6.10940259
Au	 20.36467530	 -16.29174024	 -4.07293506
Au	 20.36467530	 -14.25527271	 -2.03646753
Au	 20.36467530	 -16.29174024	 -0.00000000
Au	 20.36467530	 -14.25527271	 2.03646753
Au	 20.36467530	 -16.29174024	 4.07293506
Au	 20.36467530	 -14.25527271	 6.10940259
Au	 20.36467530	 -16.29174024	 8.14587012
Au	 20.36467530	 -14.25527271	 10.18233765
Au	 20.36467530	 -16.29174024	 12.21880518
Au	 20.36467530	 -14.25527271	 14.25527271
Au	 20.36467530	 -16.29174024	 16.29174024
Au	 20.36467530	 -14.25527271	 18.32820777
Au	 20.36467530	 -12.21880518	 -20.36467530
Au	 20.36467530	 -10.18233765	 -18.32820777
Au	 20.36467530	 -12.21880518	 -16.29174024
Au	 20.36467530	 -10.18233765	 -14.25527271
Au	 20.36467530	 -12.21880518	 -12.21880518
Au	 20.36467530	 -10.18233765	 -10.18233765
Au	 20.36467530	 -12.21880518	 -8.14587012
Au	 20.36467530	 -10.18233765	 -6.10940259
Au	 20.36467530	 -12.21880518	 -4.07293506
Au	 20.36467530	 -10.18233765	 -2.03646753
Au	 20.36467530	 -12.21880518	 -0.00000000
Au	 20.36467530	 -10.18233765	 2.03646753
Au	 20.36467530	 -12.21880518	 4.07293506
Au	 20.36467530	 -10.18233765	 6.10940259
Au	 20.36467530	 -12.21880518	 8.14587012
Au	 20.36467530	 -10.18233765	 10.18233765
Au	 20.36467530	 -12.21880518	 12.21880518
Au	 20.36467530	 -10.18233765	 14.25527271
Au	 20.36467530	 -12.21880518	 16.29174024
Au	 20.36467530	 -10.18233765	 18.32820777
Au	 20.36467530	 -8.14587012	 -20.36467530
Au	 20.36467530	 -6.10940259	 -18.32820777
Au	 20.36467530	 -8.14587012	 -16.29174024
Au	 20.36467530	 -6.10940259	 -14.25527271
Au	 20.36467530	 -8.14587012	 -12.21880518
Au	 20.36467530	 -6.10940259	 -10.18233765
Au	 20.36467530	 -8.14587012	 -8.14587012
Au	 20.36467530	 -6.10940259	 -6.10940259
Au	 20.36467530	 -8.14587012	 -4.07293506
Au	 20.36467530	 -6.10940259	 -2.03646753
Au	 20.36467530	 -8.14587012	 -0.00000000
Au	 20.36467530	 -6.10940259	 2.03646753
Au	 20.36467530	 -8.14587012	 4.07293506
Au	 20.36467530	 -6.10940259	 6.10940259
Au	 20.36467530	 -8.14587012	 8.14587012
Au	 20.36467530	 -6.10940259	 10.18233765
Au	 20.36467530	 -8.14587012	 12.21880518
Au	 20.36467530	 -6.10940259	 14.25527271
Au	 20.36467530	 -8.14587012	 16.29174024
Au	 20.36467530	 -6.10940259	 18.32820777
Au	 20.36467530	 -4.07293506	 -20.36467530
Au	 20.36467530	 -2.03646753	 -18.32820777
Au	 20.36467530	 -4.07293506	 -16.29174024
Au	 20.36467530	 -2.03646753	 -14.25527271
Au	 20.36467530	 -4.07293506	 -12.21880518
Au	 20.36467530	 -2.03646753	 -10.18233765
Au	 20.36467530	 -4.07293506	 -8.14587012
Au	 20.36467530	 -2.03646753	 -6.10940259
Au	 20.36467530	 -4.07293506	 -4.07293506
Au	 20.36467530	 -2.03646753	 -2.03646753
Au	 20.36467530	 -4.07293506	 -0.00000000
Au	 20.36467530	 -2.03646753	 2.03646753
Au	 20.36467530	 -4.07293506	 4.07293506
Au	 20.36467530	 -2.03646753	 6.10940259
Au	 20.36467530	 -4.07293506	 8.14587012
Au	 20.36467530	 -2.03646753	 10.18233765
Au	 20.36467530	 -4.07293506	 12.21880518
Au	 20.36467530	 -2.03646753	 14.25527271
Au	 20.36467530	 -4.07293506	 16.29174024
Au	 20.36467530	 -2.03646753	 18.32820777
Au	 20.36467530	 0.00000000	 -20.36467530
Au	 20.36467530	 2.03646753	 -18.32820777
Au	 20.36467530	 0.00000000	 -16.29174024
Au	 20.36467530	 2.03646753	 -14.25527271
Au	 20.36467530	 0.00000000	 -12.21880518
Au	 20.36467530	 2.03646753	 -10.18233765
Au	 20.36467530	 0.00000000	 -8.14587012
Au	 20.36467530	 2.03646753	 -6.10940259
Au	 20.36467530	 0.00000000	 -4.07293506
Au	 20.36467530	 2.03646753	 -2.03646753
Au	 20.36467530	 0.00000000	 -0.00000000
Au	 20.36467530	 2.03646753	 2.03646753
Au	 20.36467530	 0.00000000	 4.07293506
Au	 20.36467530	 2.03646753	 6.10940259
Au	 20.36467530	 0.00000000	 8.14587012
Au	 20.36467530	 2.03646753	 10.18233765
Au	 20.36467530	 0.00000000	 12.21880518
Au	 20.36467530	 2.03646753	 14.25527271
Au	 20.36467530	 0.00000000	 16.29174024
Au	 20.36467530	 2.03646753	 18.32820777
Au	 20.36467530	 4.07293506	 -20.36467530
Au	 20.36467530	 6.10940259	 -18.32820777
Au	 20.36467530	 4.07293506	 -16.29174024
Au	 20.36467530	 6.10940259	 -14.25527271
Au	 20.36467530	 4.07293506	 -12.21880518
Au	 20.36467530	 6.10940259	 -10.18233765
Au	 20.36467530	 4.07293506	 -8.14587012
Au	 20.36467530	 6.10940259	 -6.10940259
Au	 20.36467530	 4.07293506	 -4.07293506
Au	 20.36467530	 6.10940259	 -2.03646753
Au	 20.36467530	 4.07293506	 -0.00000000
Au	 20.36467530	 6.10940259	 2.03646753
Au	 20.36467530	 4.07293506	 4.07293506
Au	 20.36467530	 6.10940259	 6.10940259
Au	 20.36467530	 4.07293506	 8.14587012
Au	 20.36467530	 6.10940259	 10.18233765
Au	 20.36467530	 4.07293506	 12.21880518
Au	 20.36467530	 6.10940259	 14.25527271
Au	 20.36467530	 4.07293506	 16.29174024
Au	 20.36467530	 6.10940259	 18.32820777
Au	 20.36467530	 8.14587012	 -20.36467530
Au	 20.36467530	 10.18233765	 -18.32820777
Au	 20.36467530	 8.14587012	 -16.29174024
Au	 20.36467530	 10.18233765	 -14.25527271
Au	 20.36467530	 8.14587012	 -12.21880518
Au	 20.36467530	 10.18233765	 -10.18233765
Au	 20.36467530	 8.14587012	 -8.14587012
Au	 20.36467530	 10.18233765	 -6.10940259
Au	 20.36467530	 8.14587012	 -4.07293506
Au	 20.36467530	 10.18233765	 -2.03646753
Au	 20.36467530	 8.14587012	 -0.00000000
Au	 20.36467530	 10.18233765	 2.03646753
Au	 20.36467530	 8.14587012	 4.07293506
Au	 20.36467530	 10.18233765	 6.10940259
Au	 20.36467530	 8.14587012	 8.14587012
Au	 20.36467530	 10.18233765	 10.18233765
Au	 20.36467530	 8.14587012	 12.21880518
Au	 20.36467530	 10.18233765	 14.25527271
Au	 20.36467530	 8.14587012	 16.29174024
Au	 20.36467530	 10.18233765	 18.32820777
Au	 20.36467530	 12.21880518	 -20.36467530
Au	 20.36467530	 14.25527271	 -18.32820777
Au	 20.36467530	 12.21880518	 -16.29174024
Au	 20.36467530	 14.25527271	 -14.25527271
Au	 20.36467530	 12.21880518	 -12.21880518
Au	 20.36467530	 14.25527271	 -10.18233765
Au	 20.36467530	 12.21880518	 -8.14587012
Au	 20.36467530	 14.25527271	 -6.10940259
Au	 20.36467530	 12.21880518	 -4.07293506
Au	 20.36467530	 14.25527271	 -2.03646753
Au	 20.36467530	 12.21880518	 -0.00000000
Au	 20.36467530	 14.25527271	 2.03646753
Au	 20.36467530	 12.21880518	 4.07293506
Au	 20.36467530	 14.25527271	 6.10940259
Au	 20.36467530	 12.21880518	 8.14587012
Au	 20.36467530	 14.25527271	 10.18233765
Au	 20.36467530	 12.21880518	 12.21880518
Au	 20.36467530	 14.25527271	 14.25527271
Au	 20.36467530	 12.21880518	 16.29174024
Au	 20.36467530	 14.25527271	 18.32820777
Au	 20.36467530	 16.29174024	 -20.36467530
Au	 20.36467530	 18.32820777	 -18.32820777
Au	 20.36467530	 16.29174024	 -16.29174024
Au	 20.36467530	 18.32820777	 -14.25527271
Au	 20.36467530	 16.29174024	 -12.21880518
Au	 20.36467530	 18.32820777	 -10.18233765
Au	 20.36467530	 16.29174024	 -8.14587012
Au	 20.36467530	 18.32820777	 -6.10940259
Au	 20.36467530	 16.29174024	 -4.07293506
Au	 20.36467530	 18.32820777	 -2.03646753
Au	 20.36467530	 16.29174024	 -0.00000000
Au	 20.36467530	 18.32820777	 2.03646753
Au	 20.36467530	 16.29174024	 4.07293506
Au	 20.36467530	 18.32820777	 6.10940259
Au	 20.36467530	 16.29174024	 8.14587012
Au	 20.36467530	 18.32820777	 10.18233765
Au	 20.36467530	 16.29174024	 12.21880518
Au	 20.36467530	 18.32820777	 14.25527271
Au	 20.36467530	 16.29174024	 16.29174024
Au	 20.36467530	 18.32820777	 18.32820777
Au	 20.36467530	 -20.36467530	 20.36467530
Au	 20.36467530	 -16.29174024	 20.36467530
Au	 20.36467530	 -12.21880518	 20.36467530
Au	 20.36467530	 -8.14587012	 20.36467530
Au	 20.36467530	 -4.07293506	 20.36467530
Au	 20.36467530	 0.00000000	 20.36467530
Au	 20.36467530	 4.07293506	 20.36467530
Au	 20.36467530	 8.14587012	 20.36467530
Au	 20.36467530	 12.21880518	 20.36467530
Au	 20.36467530	 16.29174024	 20.36467530
Au	 20.36467530	 20.36467530	 -20.36467530
Au	 20.36467530	 20.36467530	 -16.29174024
Au	 20.36467530	 20.36467530	 -12.21880518
Au	 20.36467530	 20.36467530	 -8.14587012
Au	 20.36467530	 20.36467530	 -4.07293506
Au	 20.36467530	 20.36467530	 -0.00000000
Au	 20.36467530	 20.36467530	 4.07293506
Au	 20.36467530	 20.36467530	 8.14587012
Au	 20.36467530	 20.36467530	 12.21880518
Au	 20.36467530	 20.36467530	 16.29174024
Au	 20.36467530	 20.36467530	 20.36467530
