11040 
{'Pt': 11040}
Pt	 18.84361671	 0.00000000	 -74.24322192
Pt	 18.84361671	 0.00000000	 -71.33172302
Pt	 18.84361671	 0.00000000	 -68.42022412
Pt	 18.84361671	 0.00000000	 -65.50872523
Pt	 18.84361671	 0.00000000	 -62.59722633
Pt	 18.84361671	 0.00000000	 -59.68572743
Pt	 18.84361671	 0.00000000	 -56.77422853
Pt	 18.84361671	 0.00000000	 -53.86272963
Pt	 18.84361671	 0.00000000	 -50.95123073
Pt	 18.84361671	 0.00000000	 -48.03973183
Pt	 18.84361671	 0.00000000	 -45.12823293
Pt	 18.84361671	 0.00000000	 -42.21673403
Pt	 18.84361671	 0.00000000	 -39.30523514
Pt	 18.84361671	 0.00000000	 -36.39373624
Pt	 18.84361671	 0.00000000	 -33.48223734
Pt	 18.84361671	 0.00000000	 -30.57073844
Pt	 18.84361671	 0.00000000	 -27.65923954
Pt	 18.84361671	 0.00000000	 -24.74774064
Pt	 18.84361671	 0.00000000	 -21.83624174
Pt	 18.84361671	 0.00000000	 -18.92474284
Pt	 18.84361671	 0.00000000	 -16.01324394
Pt	 18.84361671	 0.00000000	 -13.10174505
Pt	 18.84361671	 0.00000000	 -10.19024615
Pt	 18.84361671	 0.00000000	 -7.27874725
Pt	 18.84361671	 0.00000000	 -4.36724835
Pt	 18.84361671	 0.00000000	 -1.45574945
Pt	 18.84361671	 0.00000000	 1.45574945
Pt	 18.84361671	 0.00000000	 4.36724835
Pt	 18.84361671	 0.00000000	 7.27874725
Pt	 18.84361671	 0.00000000	 10.19024615
Pt	 18.84361671	 0.00000000	 13.10174505
Pt	 18.84361671	 0.00000000	 16.01324394
Pt	 18.84361671	 0.00000000	 18.92474284
Pt	 18.84361671	 0.00000000	 21.83624174
Pt	 18.84361671	 0.00000000	 24.74774064
Pt	 18.84361671	 0.00000000	 27.65923954
Pt	 18.84361671	 0.00000000	 30.57073844
Pt	 18.84361671	 0.00000000	 33.48223734
Pt	 18.84361671	 0.00000000	 36.39373624
Pt	 18.84361671	 0.00000000	 39.30523514
Pt	 18.84361671	 0.00000000	 42.21673403
Pt	 18.84361671	 0.00000000	 45.12823293
Pt	 18.84361671	 0.00000000	 48.03973183
Pt	 18.84361671	 0.00000000	 50.95123073
Pt	 18.84361671	 0.00000000	 53.86272963
Pt	 18.84361671	 0.00000000	 56.77422853
Pt	 18.84361671	 0.00000000	 59.68572743
Pt	 18.84361671	 0.00000000	 62.59722633
Pt	 18.84361671	 0.00000000	 65.50872523
Pt	 18.84361671	 0.00000000	 68.42022412
Pt	 18.84361671	 0.00000000	 71.33172302
Pt	 18.84361671	 0.00000000	 74.24322192
Pt	 21.19906879	 0.00000000	 -72.78747247
Pt	 21.19906879	 0.00000000	 -69.87597357
Pt	 21.19906879	 0.00000000	 -66.96447468
Pt	 21.19906879	 0.00000000	 -64.05297578
Pt	 21.19906879	 0.00000000	 -61.14147688
Pt	 21.19906879	 0.00000000	 -58.22997798
Pt	 21.19906879	 0.00000000	 -55.31847908
Pt	 21.19906879	 0.00000000	 -52.40698018
Pt	 21.19906879	 0.00000000	 -49.49548128
Pt	 21.19906879	 0.00000000	 -46.58398238
Pt	 21.19906879	 0.00000000	 -43.67248348
Pt	 21.19906879	 0.00000000	 -40.76098458
Pt	 21.19906879	 0.00000000	 -37.84948569
Pt	 21.19906879	 0.00000000	 -34.93798679
Pt	 21.19906879	 0.00000000	 -32.02648789
Pt	 21.19906879	 0.00000000	 -29.11498899
Pt	 21.19906879	 0.00000000	 -26.20349009
Pt	 21.19906879	 0.00000000	 -23.29199119
Pt	 21.19906879	 0.00000000	 -20.38049229
Pt	 21.19906879	 0.00000000	 -17.46899339
Pt	 21.19906879	 0.00000000	 -14.55749449
Pt	 21.19906879	 0.00000000	 -11.64599560
Pt	 21.19906879	 0.00000000	 -8.73449670
Pt	 21.19906879	 0.00000000	 -5.82299780
Pt	 21.19906879	 0.00000000	 -2.91149890
Pt	 21.19906879	 0.00000000	 0.00000000
Pt	 21.19906879	 0.00000000	 2.91149890
Pt	 21.19906879	 0.00000000	 5.82299780
Pt	 21.19906879	 0.00000000	 8.73449670
Pt	 21.19906879	 0.00000000	 11.64599560
Pt	 21.19906879	 0.00000000	 14.55749449
Pt	 21.19906879	 0.00000000	 17.46899339
Pt	 21.19906879	 0.00000000	 20.38049229
Pt	 21.19906879	 0.00000000	 23.29199119
Pt	 21.19906879	 0.00000000	 26.20349009
Pt	 21.19906879	 0.00000000	 29.11498899
Pt	 21.19906879	 0.00000000	 32.02648789
Pt	 21.19906879	 0.00000000	 34.93798679
Pt	 21.19906879	 0.00000000	 37.84948569
Pt	 21.19906879	 0.00000000	 40.76098458
Pt	 21.19906879	 0.00000000	 43.67248348
Pt	 21.19906879	 0.00000000	 46.58398238
Pt	 21.19906879	 0.00000000	 49.49548128
Pt	 21.19906879	 0.00000000	 52.40698018
Pt	 21.19906879	 0.00000000	 55.31847908
Pt	 21.19906879	 0.00000000	 58.22997798
Pt	 21.19906879	 0.00000000	 61.14147688
Pt	 21.19906879	 0.00000000	 64.05297578
Pt	 21.19906879	 0.00000000	 66.96447468
Pt	 21.19906879	 0.00000000	 69.87597357
Pt	 21.19906879	 0.00000000	 72.78747247
Pt	 23.55452088	 0.00000000	 -71.33172302
Pt	 23.55452088	 0.00000000	 -68.42022412
Pt	 23.55452088	 0.00000000	 -65.50872523
Pt	 23.55452088	 0.00000000	 -62.59722633
Pt	 23.55452088	 0.00000000	 -59.68572743
Pt	 23.55452088	 0.00000000	 -56.77422853
Pt	 23.55452088	 0.00000000	 -53.86272963
Pt	 23.55452088	 0.00000000	 -50.95123073
Pt	 23.55452088	 0.00000000	 -48.03973183
Pt	 23.55452088	 0.00000000	 -45.12823293
Pt	 23.55452088	 0.00000000	 -42.21673403
Pt	 23.55452088	 0.00000000	 -39.30523514
Pt	 23.55452088	 0.00000000	 -36.39373624
Pt	 23.55452088	 0.00000000	 -33.48223734
Pt	 23.55452088	 0.00000000	 -30.57073844
Pt	 23.55452088	 0.00000000	 -27.65923954
Pt	 23.55452088	 0.00000000	 -24.74774064
Pt	 23.55452088	 0.00000000	 -21.83624174
Pt	 23.55452088	 0.00000000	 -18.92474284
Pt	 23.55452088	 0.00000000	 -16.01324394
Pt	 23.55452088	 0.00000000	 -13.10174505
Pt	 23.55452088	 0.00000000	 -10.19024615
Pt	 23.55452088	 0.00000000	 -7.27874725
Pt	 23.55452088	 0.00000000	 -4.36724835
Pt	 23.55452088	 0.00000000	 -1.45574945
Pt	 23.55452088	 0.00000000	 1.45574945
Pt	 23.55452088	 0.00000000	 4.36724835
Pt	 23.55452088	 0.00000000	 7.27874725
Pt	 23.55452088	 0.00000000	 10.19024615
Pt	 23.55452088	 0.00000000	 13.10174505
Pt	 23.55452088	 0.00000000	 16.01324394
Pt	 23.55452088	 0.00000000	 18.92474284
Pt	 23.55452088	 0.00000000	 21.83624174
Pt	 23.55452088	 0.00000000	 24.74774064
Pt	 23.55452088	 0.00000000	 27.65923954
Pt	 23.55452088	 0.00000000	 30.57073844
Pt	 23.55452088	 0.00000000	 33.48223734
Pt	 23.55452088	 0.00000000	 36.39373624
Pt	 23.55452088	 0.00000000	 39.30523514
Pt	 23.55452088	 0.00000000	 42.21673403
Pt	 23.55452088	 0.00000000	 45.12823293
Pt	 23.55452088	 0.00000000	 48.03973183
Pt	 23.55452088	 0.00000000	 50.95123073
Pt	 23.55452088	 0.00000000	 53.86272963
Pt	 23.55452088	 0.00000000	 56.77422853
Pt	 23.55452088	 0.00000000	 59.68572743
Pt	 23.55452088	 0.00000000	 62.59722633
Pt	 23.55452088	 0.00000000	 65.50872523
Pt	 23.55452088	 0.00000000	 68.42022412
Pt	 23.55452088	 0.00000000	 71.33172302
Pt	 25.90997297	 0.00000000	 -69.87597357
Pt	 25.90997297	 0.00000000	 -66.96447468
Pt	 25.90997297	 0.00000000	 -64.05297578
Pt	 25.90997297	 0.00000000	 -61.14147688
Pt	 25.90997297	 0.00000000	 -58.22997798
Pt	 25.90997297	 0.00000000	 -55.31847908
Pt	 25.90997297	 0.00000000	 -52.40698018
Pt	 25.90997297	 0.00000000	 -49.49548128
Pt	 25.90997297	 0.00000000	 -46.58398238
Pt	 25.90997297	 0.00000000	 -43.67248348
Pt	 25.90997297	 0.00000000	 -40.76098458
Pt	 25.90997297	 0.00000000	 -37.84948569
Pt	 25.90997297	 0.00000000	 -34.93798679
Pt	 25.90997297	 0.00000000	 -32.02648789
Pt	 25.90997297	 0.00000000	 -29.11498899
Pt	 25.90997297	 0.00000000	 -26.20349009
Pt	 25.90997297	 0.00000000	 -23.29199119
Pt	 25.90997297	 0.00000000	 -20.38049229
Pt	 25.90997297	 0.00000000	 -17.46899339
Pt	 25.90997297	 0.00000000	 -14.55749449
Pt	 25.90997297	 0.00000000	 -11.64599560
Pt	 25.90997297	 0.00000000	 -8.73449670
Pt	 25.90997297	 0.00000000	 -5.82299780
Pt	 25.90997297	 0.00000000	 -2.91149890
Pt	 25.90997297	 0.00000000	 0.00000000
Pt	 25.90997297	 0.00000000	 2.91149890
Pt	 25.90997297	 0.00000000	 5.82299780
Pt	 25.90997297	 0.00000000	 8.73449670
Pt	 25.90997297	 0.00000000	 11.64599560
Pt	 25.90997297	 0.00000000	 14.55749449
Pt	 25.90997297	 0.00000000	 17.46899339
Pt	 25.90997297	 0.00000000	 20.38049229
Pt	 25.90997297	 0.00000000	 23.29199119
Pt	 25.90997297	 0.00000000	 26.20349009
Pt	 25.90997297	 0.00000000	 29.11498899
Pt	 25.90997297	 0.00000000	 32.02648789
Pt	 25.90997297	 0.00000000	 34.93798679
Pt	 25.90997297	 0.00000000	 37.84948569
Pt	 25.90997297	 0.00000000	 40.76098458
Pt	 25.90997297	 0.00000000	 43.67248348
Pt	 25.90997297	 0.00000000	 46.58398238
Pt	 25.90997297	 0.00000000	 49.49548128
Pt	 25.90997297	 0.00000000	 52.40698018
Pt	 25.90997297	 0.00000000	 55.31847908
Pt	 25.90997297	 0.00000000	 58.22997798
Pt	 25.90997297	 0.00000000	 61.14147688
Pt	 25.90997297	 0.00000000	 64.05297578
Pt	 25.90997297	 0.00000000	 66.96447468
Pt	 25.90997297	 0.00000000	 69.87597357
Pt	 19.57149143	 2.24016806	 -72.78747247
Pt	 19.57149143	 2.24016806	 -69.87597357
Pt	 19.57149143	 2.24016806	 -66.96447468
Pt	 19.57149143	 2.24016806	 -64.05297578
Pt	 19.57149143	 2.24016806	 -61.14147688
Pt	 19.57149143	 2.24016806	 -58.22997798
Pt	 19.57149143	 2.24016806	 -55.31847908
Pt	 19.57149143	 2.24016806	 -52.40698018
Pt	 19.57149143	 2.24016806	 -49.49548128
Pt	 19.57149143	 2.24016806	 -46.58398238
Pt	 19.57149143	 2.24016806	 -43.67248348
Pt	 19.57149143	 2.24016806	 -40.76098458
Pt	 19.57149143	 2.24016806	 -37.84948569
Pt	 19.57149143	 2.24016806	 -34.93798679
Pt	 19.57149143	 2.24016806	 -32.02648789
Pt	 19.57149143	 2.24016806	 -29.11498899
Pt	 19.57149143	 2.24016806	 -26.20349009
Pt	 19.57149143	 2.24016806	 -23.29199119
Pt	 19.57149143	 2.24016806	 -20.38049229
Pt	 19.57149143	 2.24016806	 -17.46899339
Pt	 19.57149143	 2.24016806	 -14.55749449
Pt	 19.57149143	 2.24016806	 -11.64599560
Pt	 19.57149143	 2.24016806	 -8.73449670
Pt	 19.57149143	 2.24016806	 -5.82299780
Pt	 19.57149143	 2.24016806	 -2.91149890
Pt	 19.57149143	 2.24016806	 -0.00000000
Pt	 19.57149143	 2.24016806	 2.91149890
Pt	 19.57149143	 2.24016806	 5.82299780
Pt	 19.57149143	 2.24016806	 8.73449670
Pt	 19.57149143	 2.24016806	 11.64599560
Pt	 19.57149143	 2.24016806	 14.55749449
Pt	 19.57149143	 2.24016806	 17.46899339
Pt	 19.57149143	 2.24016806	 20.38049229
Pt	 19.57149143	 2.24016806	 23.29199119
Pt	 19.57149143	 2.24016806	 26.20349009
Pt	 19.57149143	 2.24016806	 29.11498899
Pt	 19.57149143	 2.24016806	 32.02648789
Pt	 19.57149143	 2.24016806	 34.93798679
Pt	 19.57149143	 2.24016806	 37.84948569
Pt	 19.57149143	 2.24016806	 40.76098458
Pt	 19.57149143	 2.24016806	 43.67248348
Pt	 19.57149143	 2.24016806	 46.58398238
Pt	 19.57149143	 2.24016806	 49.49548128
Pt	 19.57149143	 2.24016806	 52.40698018
Pt	 19.57149143	 2.24016806	 55.31847908
Pt	 19.57149143	 2.24016806	 58.22997798
Pt	 19.57149143	 2.24016806	 61.14147688
Pt	 19.57149143	 2.24016806	 64.05297578
Pt	 19.57149143	 2.24016806	 66.96447468
Pt	 19.57149143	 2.24016806	 69.87597357
Pt	 19.57149143	 2.24016806	 72.78747247
Pt	 28.26542506	 0.00000000	 -68.42022412
Pt	 28.26542506	 0.00000000	 -65.50872523
Pt	 28.26542506	 0.00000000	 -62.59722633
Pt	 28.26542506	 0.00000000	 -59.68572743
Pt	 28.26542506	 0.00000000	 -56.77422853
Pt	 28.26542506	 0.00000000	 -53.86272963
Pt	 28.26542506	 0.00000000	 -50.95123073
Pt	 28.26542506	 0.00000000	 -48.03973183
Pt	 28.26542506	 0.00000000	 -45.12823293
Pt	 28.26542506	 0.00000000	 -42.21673403
Pt	 28.26542506	 0.00000000	 -39.30523514
Pt	 28.26542506	 0.00000000	 -36.39373624
Pt	 28.26542506	 0.00000000	 -33.48223734
Pt	 28.26542506	 0.00000000	 -30.57073844
Pt	 28.26542506	 0.00000000	 -27.65923954
Pt	 28.26542506	 0.00000000	 -24.74774064
Pt	 28.26542506	 0.00000000	 -21.83624174
Pt	 28.26542506	 0.00000000	 -18.92474284
Pt	 28.26542506	 0.00000000	 -16.01324394
Pt	 28.26542506	 0.00000000	 -13.10174505
Pt	 28.26542506	 0.00000000	 -10.19024615
Pt	 28.26542506	 0.00000000	 -7.27874725
Pt	 28.26542506	 0.00000000	 -4.36724835
Pt	 28.26542506	 0.00000000	 -1.45574945
Pt	 28.26542506	 0.00000000	 1.45574945
Pt	 28.26542506	 0.00000000	 4.36724835
Pt	 28.26542506	 0.00000000	 7.27874725
Pt	 28.26542506	 0.00000000	 10.19024615
Pt	 28.26542506	 0.00000000	 13.10174505
Pt	 28.26542506	 0.00000000	 16.01324394
Pt	 28.26542506	 0.00000000	 18.92474284
Pt	 28.26542506	 0.00000000	 21.83624174
Pt	 28.26542506	 0.00000000	 24.74774064
Pt	 28.26542506	 0.00000000	 27.65923954
Pt	 28.26542506	 0.00000000	 30.57073844
Pt	 28.26542506	 0.00000000	 33.48223734
Pt	 28.26542506	 0.00000000	 36.39373624
Pt	 28.26542506	 0.00000000	 39.30523514
Pt	 28.26542506	 0.00000000	 42.21673403
Pt	 28.26542506	 0.00000000	 45.12823293
Pt	 28.26542506	 0.00000000	 48.03973183
Pt	 28.26542506	 0.00000000	 50.95123073
Pt	 28.26542506	 0.00000000	 53.86272963
Pt	 28.26542506	 0.00000000	 56.77422853
Pt	 28.26542506	 0.00000000	 59.68572743
Pt	 28.26542506	 0.00000000	 62.59722633
Pt	 28.26542506	 0.00000000	 65.50872523
Pt	 28.26542506	 0.00000000	 68.42022412
Pt	 21.92694352	 2.24016806	 -71.33172302
Pt	 21.92694352	 2.24016806	 -68.42022412
Pt	 21.92694352	 2.24016806	 -65.50872523
Pt	 21.92694352	 2.24016806	 -62.59722633
Pt	 21.92694352	 2.24016806	 -59.68572743
Pt	 21.92694352	 2.24016806	 -56.77422853
Pt	 21.92694352	 2.24016806	 -53.86272963
Pt	 21.92694352	 2.24016806	 -50.95123073
Pt	 21.92694352	 2.24016806	 -48.03973183
Pt	 21.92694352	 2.24016806	 -45.12823293
Pt	 21.92694352	 2.24016806	 -42.21673403
Pt	 21.92694352	 2.24016806	 -39.30523514
Pt	 21.92694352	 2.24016806	 -36.39373624
Pt	 21.92694352	 2.24016806	 -33.48223734
Pt	 21.92694352	 2.24016806	 -30.57073844
Pt	 21.92694352	 2.24016806	 -27.65923954
Pt	 21.92694352	 2.24016806	 -24.74774064
Pt	 21.92694352	 2.24016806	 -21.83624174
Pt	 21.92694352	 2.24016806	 -18.92474284
Pt	 21.92694352	 2.24016806	 -16.01324394
Pt	 21.92694352	 2.24016806	 -13.10174505
Pt	 21.92694352	 2.24016806	 -10.19024615
Pt	 21.92694352	 2.24016806	 -7.27874725
Pt	 21.92694352	 2.24016806	 -4.36724835
Pt	 21.92694352	 2.24016806	 -1.45574945
Pt	 21.92694352	 2.24016806	 1.45574945
Pt	 21.92694352	 2.24016806	 4.36724835
Pt	 21.92694352	 2.24016806	 7.27874725
Pt	 21.92694352	 2.24016806	 10.19024615
Pt	 21.92694352	 2.24016806	 13.10174505
Pt	 21.92694352	 2.24016806	 16.01324394
Pt	 21.92694352	 2.24016806	 18.92474284
Pt	 21.92694352	 2.24016806	 21.83624174
Pt	 21.92694352	 2.24016806	 24.74774064
Pt	 21.92694352	 2.24016806	 27.65923954
Pt	 21.92694352	 2.24016806	 30.57073844
Pt	 21.92694352	 2.24016806	 33.48223734
Pt	 21.92694352	 2.24016806	 36.39373624
Pt	 21.92694352	 2.24016806	 39.30523514
Pt	 21.92694352	 2.24016806	 42.21673403
Pt	 21.92694352	 2.24016806	 45.12823293
Pt	 21.92694352	 2.24016806	 48.03973183
Pt	 21.92694352	 2.24016806	 50.95123073
Pt	 21.92694352	 2.24016806	 53.86272963
Pt	 21.92694352	 2.24016806	 56.77422853
Pt	 21.92694352	 2.24016806	 59.68572743
Pt	 21.92694352	 2.24016806	 62.59722633
Pt	 21.92694352	 2.24016806	 65.50872523
Pt	 21.92694352	 2.24016806	 68.42022412
Pt	 21.92694352	 2.24016806	 71.33172302
Pt	 30.62087715	 0.00000000	 -66.96447468
Pt	 30.62087715	 0.00000000	 -64.05297578
Pt	 30.62087715	 0.00000000	 -61.14147688
Pt	 30.62087715	 0.00000000	 -58.22997798
Pt	 30.62087715	 0.00000000	 -55.31847908
Pt	 30.62087715	 0.00000000	 -52.40698018
Pt	 30.62087715	 0.00000000	 -49.49548128
Pt	 30.62087715	 0.00000000	 -46.58398238
Pt	 30.62087715	 0.00000000	 -43.67248348
Pt	 30.62087715	 0.00000000	 -40.76098458
Pt	 30.62087715	 0.00000000	 -37.84948569
Pt	 30.62087715	 0.00000000	 -34.93798679
Pt	 30.62087715	 0.00000000	 -32.02648789
Pt	 30.62087715	 0.00000000	 -29.11498899
Pt	 30.62087715	 0.00000000	 -26.20349009
Pt	 30.62087715	 0.00000000	 -23.29199119
Pt	 30.62087715	 0.00000000	 -20.38049229
Pt	 30.62087715	 0.00000000	 -17.46899339
Pt	 30.62087715	 0.00000000	 -14.55749449
Pt	 30.62087715	 0.00000000	 -11.64599560
Pt	 30.62087715	 0.00000000	 -8.73449670
Pt	 30.62087715	 0.00000000	 -5.82299780
Pt	 30.62087715	 0.00000000	 -2.91149890
Pt	 30.62087715	 0.00000000	 -0.00000000
Pt	 30.62087715	 0.00000000	 2.91149890
Pt	 30.62087715	 0.00000000	 5.82299780
Pt	 30.62087715	 0.00000000	 8.73449670
Pt	 30.62087715	 0.00000000	 11.64599560
Pt	 30.62087715	 0.00000000	 14.55749449
Pt	 30.62087715	 0.00000000	 17.46899339
Pt	 30.62087715	 0.00000000	 20.38049229
Pt	 30.62087715	 0.00000000	 23.29199119
Pt	 30.62087715	 0.00000000	 26.20349009
Pt	 30.62087715	 0.00000000	 29.11498899
Pt	 30.62087715	 0.00000000	 32.02648789
Pt	 30.62087715	 0.00000000	 34.93798679
Pt	 30.62087715	 0.00000000	 37.84948569
Pt	 30.62087715	 0.00000000	 40.76098458
Pt	 30.62087715	 0.00000000	 43.67248348
Pt	 30.62087715	 0.00000000	 46.58398238
Pt	 30.62087715	 0.00000000	 49.49548128
Pt	 30.62087715	 0.00000000	 52.40698018
Pt	 30.62087715	 0.00000000	 55.31847908
Pt	 30.62087715	 0.00000000	 58.22997798
Pt	 30.62087715	 0.00000000	 61.14147688
Pt	 30.62087715	 0.00000000	 64.05297578
Pt	 30.62087715	 0.00000000	 66.96447468
Pt	 24.28239561	 2.24016806	 -69.87597357
Pt	 24.28239561	 2.24016806	 -66.96447468
Pt	 24.28239561	 2.24016806	 -64.05297578
Pt	 24.28239561	 2.24016806	 -61.14147688
Pt	 24.28239561	 2.24016806	 -58.22997798
Pt	 24.28239561	 2.24016806	 -55.31847908
Pt	 24.28239561	 2.24016806	 -52.40698018
Pt	 24.28239561	 2.24016806	 -49.49548128
Pt	 24.28239561	 2.24016806	 -46.58398238
Pt	 24.28239561	 2.24016806	 -43.67248348
Pt	 24.28239561	 2.24016806	 -40.76098458
Pt	 24.28239561	 2.24016806	 -37.84948569
Pt	 24.28239561	 2.24016806	 -34.93798679
Pt	 24.28239561	 2.24016806	 -32.02648789
Pt	 24.28239561	 2.24016806	 -29.11498899
Pt	 24.28239561	 2.24016806	 -26.20349009
Pt	 24.28239561	 2.24016806	 -23.29199119
Pt	 24.28239561	 2.24016806	 -20.38049229
Pt	 24.28239561	 2.24016806	 -17.46899339
Pt	 24.28239561	 2.24016806	 -14.55749449
Pt	 24.28239561	 2.24016806	 -11.64599560
Pt	 24.28239561	 2.24016806	 -8.73449670
Pt	 24.28239561	 2.24016806	 -5.82299780
Pt	 24.28239561	 2.24016806	 -2.91149890
Pt	 24.28239561	 2.24016806	 -0.00000000
Pt	 24.28239561	 2.24016806	 2.91149890
Pt	 24.28239561	 2.24016806	 5.82299780
Pt	 24.28239561	 2.24016806	 8.73449670
Pt	 24.28239561	 2.24016806	 11.64599560
Pt	 24.28239561	 2.24016806	 14.55749449
Pt	 24.28239561	 2.24016806	 17.46899339
Pt	 24.28239561	 2.24016806	 20.38049229
Pt	 24.28239561	 2.24016806	 23.29199119
Pt	 24.28239561	 2.24016806	 26.20349009
Pt	 24.28239561	 2.24016806	 29.11498899
Pt	 24.28239561	 2.24016806	 32.02648789
Pt	 24.28239561	 2.24016806	 34.93798679
Pt	 24.28239561	 2.24016806	 37.84948569
Pt	 24.28239561	 2.24016806	 40.76098458
Pt	 24.28239561	 2.24016806	 43.67248348
Pt	 24.28239561	 2.24016806	 46.58398238
Pt	 24.28239561	 2.24016806	 49.49548128
Pt	 24.28239561	 2.24016806	 52.40698018
Pt	 24.28239561	 2.24016806	 55.31847908
Pt	 24.28239561	 2.24016806	 58.22997798
Pt	 24.28239561	 2.24016806	 61.14147688
Pt	 24.28239561	 2.24016806	 64.05297578
Pt	 24.28239561	 2.24016806	 66.96447468
Pt	 24.28239561	 2.24016806	 69.87597357
Pt	 32.97632924	 0.00000000	 -65.50872523
Pt	 32.97632924	 0.00000000	 -62.59722633
Pt	 32.97632924	 0.00000000	 -59.68572743
Pt	 32.97632924	 0.00000000	 -56.77422853
Pt	 32.97632924	 0.00000000	 -53.86272963
Pt	 32.97632924	 0.00000000	 -50.95123073
Pt	 32.97632924	 0.00000000	 -48.03973183
Pt	 32.97632924	 0.00000000	 -45.12823293
Pt	 32.97632924	 0.00000000	 -42.21673403
Pt	 32.97632924	 0.00000000	 -39.30523514
Pt	 32.97632924	 0.00000000	 -36.39373624
Pt	 32.97632924	 0.00000000	 -33.48223734
Pt	 32.97632924	 0.00000000	 -30.57073844
Pt	 32.97632924	 0.00000000	 -27.65923954
Pt	 32.97632924	 0.00000000	 -24.74774064
Pt	 32.97632924	 0.00000000	 -21.83624174
Pt	 32.97632924	 0.00000000	 -18.92474284
Pt	 32.97632924	 0.00000000	 -16.01324394
Pt	 32.97632924	 0.00000000	 -13.10174505
Pt	 32.97632924	 0.00000000	 -10.19024615
Pt	 32.97632924	 0.00000000	 -7.27874725
Pt	 32.97632924	 0.00000000	 -4.36724835
Pt	 32.97632924	 0.00000000	 -1.45574945
Pt	 32.97632924	 0.00000000	 1.45574945
Pt	 32.97632924	 0.00000000	 4.36724835
Pt	 32.97632924	 0.00000000	 7.27874725
Pt	 32.97632924	 0.00000000	 10.19024615
Pt	 32.97632924	 0.00000000	 13.10174505
Pt	 32.97632924	 0.00000000	 16.01324394
Pt	 32.97632924	 0.00000000	 18.92474284
Pt	 32.97632924	 0.00000000	 21.83624174
Pt	 32.97632924	 0.00000000	 24.74774064
Pt	 32.97632924	 0.00000000	 27.65923954
Pt	 32.97632924	 0.00000000	 30.57073844
Pt	 32.97632924	 0.00000000	 33.48223734
Pt	 32.97632924	 0.00000000	 36.39373624
Pt	 32.97632924	 0.00000000	 39.30523514
Pt	 32.97632924	 0.00000000	 42.21673403
Pt	 32.97632924	 0.00000000	 45.12823293
Pt	 32.97632924	 0.00000000	 48.03973183
Pt	 32.97632924	 0.00000000	 50.95123073
Pt	 32.97632924	 0.00000000	 53.86272963
Pt	 32.97632924	 0.00000000	 56.77422853
Pt	 32.97632924	 0.00000000	 59.68572743
Pt	 32.97632924	 0.00000000	 62.59722633
Pt	 32.97632924	 0.00000000	 65.50872523
Pt	 26.63784770	 2.24016806	 -68.42022412
Pt	 26.63784770	 2.24016806	 -65.50872523
Pt	 26.63784770	 2.24016806	 -62.59722633
Pt	 26.63784770	 2.24016806	 -59.68572743
Pt	 26.63784770	 2.24016806	 -56.77422853
Pt	 26.63784770	 2.24016806	 -53.86272963
Pt	 26.63784770	 2.24016806	 -50.95123073
Pt	 26.63784770	 2.24016806	 -48.03973183
Pt	 26.63784770	 2.24016806	 -45.12823293
Pt	 26.63784770	 2.24016806	 -42.21673403
Pt	 26.63784770	 2.24016806	 -39.30523514
Pt	 26.63784770	 2.24016806	 -36.39373624
Pt	 26.63784770	 2.24016806	 -33.48223734
Pt	 26.63784770	 2.24016806	 -30.57073844
Pt	 26.63784770	 2.24016806	 -27.65923954
Pt	 26.63784770	 2.24016806	 -24.74774064
Pt	 26.63784770	 2.24016806	 -21.83624174
Pt	 26.63784770	 2.24016806	 -18.92474284
Pt	 26.63784770	 2.24016806	 -16.01324394
Pt	 26.63784770	 2.24016806	 -13.10174505
Pt	 26.63784770	 2.24016806	 -10.19024615
Pt	 26.63784770	 2.24016806	 -7.27874725
Pt	 26.63784770	 2.24016806	 -4.36724835
Pt	 26.63784770	 2.24016806	 -1.45574945
Pt	 26.63784770	 2.24016806	 1.45574945
Pt	 26.63784770	 2.24016806	 4.36724835
Pt	 26.63784770	 2.24016806	 7.27874725
Pt	 26.63784770	 2.24016806	 10.19024615
Pt	 26.63784770	 2.24016806	 13.10174505
Pt	 26.63784770	 2.24016806	 16.01324394
Pt	 26.63784770	 2.24016806	 18.92474284
Pt	 26.63784770	 2.24016806	 21.83624174
Pt	 26.63784770	 2.24016806	 24.74774064
Pt	 26.63784770	 2.24016806	 27.65923954
Pt	 26.63784770	 2.24016806	 30.57073844
Pt	 26.63784770	 2.24016806	 33.48223734
Pt	 26.63784770	 2.24016806	 36.39373624
Pt	 26.63784770	 2.24016806	 39.30523514
Pt	 26.63784770	 2.24016806	 42.21673403
Pt	 26.63784770	 2.24016806	 45.12823293
Pt	 26.63784770	 2.24016806	 48.03973183
Pt	 26.63784770	 2.24016806	 50.95123073
Pt	 26.63784770	 2.24016806	 53.86272963
Pt	 26.63784770	 2.24016806	 56.77422853
Pt	 26.63784770	 2.24016806	 59.68572743
Pt	 26.63784770	 2.24016806	 62.59722633
Pt	 26.63784770	 2.24016806	 65.50872523
Pt	 26.63784770	 2.24016806	 68.42022412
Pt	 20.29936616	 4.48033611	 -71.33172302
Pt	 20.29936616	 4.48033611	 -68.42022412
Pt	 20.29936616	 4.48033611	 -65.50872523
Pt	 20.29936616	 4.48033611	 -62.59722633
Pt	 20.29936616	 4.48033611	 -59.68572743
Pt	 20.29936616	 4.48033611	 -56.77422853
Pt	 20.29936616	 4.48033611	 -53.86272963
Pt	 20.29936616	 4.48033611	 -50.95123073
Pt	 20.29936616	 4.48033611	 -48.03973183
Pt	 20.29936616	 4.48033611	 -45.12823293
Pt	 20.29936616	 4.48033611	 -42.21673403
Pt	 20.29936616	 4.48033611	 -39.30523514
Pt	 20.29936616	 4.48033611	 -36.39373624
Pt	 20.29936616	 4.48033611	 -33.48223734
Pt	 20.29936616	 4.48033611	 -30.57073844
Pt	 20.29936616	 4.48033611	 -27.65923954
Pt	 20.29936616	 4.48033611	 -24.74774064
Pt	 20.29936616	 4.48033611	 -21.83624174
Pt	 20.29936616	 4.48033611	 -18.92474284
Pt	 20.29936616	 4.48033611	 -16.01324394
Pt	 20.29936616	 4.48033611	 -13.10174505
Pt	 20.29936616	 4.48033611	 -10.19024615
Pt	 20.29936616	 4.48033611	 -7.27874725
Pt	 20.29936616	 4.48033611	 -4.36724835
Pt	 20.29936616	 4.48033611	 -1.45574945
Pt	 20.29936616	 4.48033611	 1.45574945
Pt	 20.29936616	 4.48033611	 4.36724835
Pt	 20.29936616	 4.48033611	 7.27874725
Pt	 20.29936616	 4.48033611	 10.19024615
Pt	 20.29936616	 4.48033611	 13.10174505
Pt	 20.29936616	 4.48033611	 16.01324394
Pt	 20.29936616	 4.48033611	 18.92474284
Pt	 20.29936616	 4.48033611	 21.83624174
Pt	 20.29936616	 4.48033611	 24.74774064
Pt	 20.29936616	 4.48033611	 27.65923954
Pt	 20.29936616	 4.48033611	 30.57073844
Pt	 20.29936616	 4.48033611	 33.48223734
Pt	 20.29936616	 4.48033611	 36.39373624
Pt	 20.29936616	 4.48033611	 39.30523514
Pt	 20.29936616	 4.48033611	 42.21673403
Pt	 20.29936616	 4.48033611	 45.12823293
Pt	 20.29936616	 4.48033611	 48.03973183
Pt	 20.29936616	 4.48033611	 50.95123073
Pt	 20.29936616	 4.48033611	 53.86272963
Pt	 20.29936616	 4.48033611	 56.77422853
Pt	 20.29936616	 4.48033611	 59.68572743
Pt	 20.29936616	 4.48033611	 62.59722633
Pt	 20.29936616	 4.48033611	 65.50872523
Pt	 20.29936616	 4.48033611	 68.42022412
Pt	 20.29936616	 4.48033611	 71.33172302
Pt	 35.33178132	 0.00000000	 -64.05297578
Pt	 35.33178132	 0.00000000	 -61.14147688
Pt	 35.33178132	 0.00000000	 -58.22997798
Pt	 35.33178132	 0.00000000	 -55.31847908
Pt	 35.33178132	 0.00000000	 -52.40698018
Pt	 35.33178132	 0.00000000	 -49.49548128
Pt	 35.33178132	 0.00000000	 -46.58398238
Pt	 35.33178132	 0.00000000	 -43.67248348
Pt	 35.33178132	 0.00000000	 -40.76098458
Pt	 35.33178132	 0.00000000	 -37.84948569
Pt	 35.33178132	 0.00000000	 -34.93798679
Pt	 35.33178132	 0.00000000	 -32.02648789
Pt	 35.33178132	 0.00000000	 -29.11498899
Pt	 35.33178132	 0.00000000	 -26.20349009
Pt	 35.33178132	 0.00000000	 -23.29199119
Pt	 35.33178132	 0.00000000	 -20.38049229
Pt	 35.33178132	 0.00000000	 -17.46899339
Pt	 35.33178132	 0.00000000	 -14.55749449
Pt	 35.33178132	 0.00000000	 -11.64599560
Pt	 35.33178132	 0.00000000	 -8.73449670
Pt	 35.33178132	 0.00000000	 -5.82299780
Pt	 35.33178132	 0.00000000	 -2.91149890
Pt	 35.33178132	 0.00000000	 -0.00000000
Pt	 35.33178132	 0.00000000	 2.91149890
Pt	 35.33178132	 0.00000000	 5.82299780
Pt	 35.33178132	 0.00000000	 8.73449670
Pt	 35.33178132	 0.00000000	 11.64599560
Pt	 35.33178132	 0.00000000	 14.55749449
Pt	 35.33178132	 0.00000000	 17.46899339
Pt	 35.33178132	 0.00000000	 20.38049229
Pt	 35.33178132	 0.00000000	 23.29199119
Pt	 35.33178132	 0.00000000	 26.20349009
Pt	 35.33178132	 0.00000000	 29.11498899
Pt	 35.33178132	 0.00000000	 32.02648789
Pt	 35.33178132	 0.00000000	 34.93798679
Pt	 35.33178132	 0.00000000	 37.84948569
Pt	 35.33178132	 0.00000000	 40.76098458
Pt	 35.33178132	 0.00000000	 43.67248348
Pt	 35.33178132	 0.00000000	 46.58398238
Pt	 35.33178132	 0.00000000	 49.49548128
Pt	 35.33178132	 0.00000000	 52.40698018
Pt	 35.33178132	 0.00000000	 55.31847908
Pt	 35.33178132	 0.00000000	 58.22997798
Pt	 35.33178132	 0.00000000	 61.14147688
Pt	 35.33178132	 0.00000000	 64.05297578
Pt	 28.99329978	 2.24016806	 -66.96447468
Pt	 28.99329978	 2.24016806	 -64.05297578
Pt	 28.99329978	 2.24016806	 -61.14147688
Pt	 28.99329978	 2.24016806	 -58.22997798
Pt	 28.99329978	 2.24016806	 -55.31847908
Pt	 28.99329978	 2.24016806	 -52.40698018
Pt	 28.99329978	 2.24016806	 -49.49548128
Pt	 28.99329978	 2.24016806	 -46.58398238
Pt	 28.99329978	 2.24016806	 -43.67248348
Pt	 28.99329978	 2.24016806	 -40.76098458
Pt	 28.99329978	 2.24016806	 -37.84948569
Pt	 28.99329978	 2.24016806	 -34.93798679
Pt	 28.99329978	 2.24016806	 -32.02648789
Pt	 28.99329978	 2.24016806	 -29.11498899
Pt	 28.99329978	 2.24016806	 -26.20349009
Pt	 28.99329978	 2.24016806	 -23.29199119
Pt	 28.99329978	 2.24016806	 -20.38049229
Pt	 28.99329978	 2.24016806	 -17.46899339
Pt	 28.99329978	 2.24016806	 -14.55749449
Pt	 28.99329978	 2.24016806	 -11.64599560
Pt	 28.99329978	 2.24016806	 -8.73449670
Pt	 28.99329978	 2.24016806	 -5.82299780
Pt	 28.99329978	 2.24016806	 -2.91149890
Pt	 28.99329978	 2.24016806	 -0.00000000
Pt	 28.99329978	 2.24016806	 2.91149890
Pt	 28.99329978	 2.24016806	 5.82299780
Pt	 28.99329978	 2.24016806	 8.73449670
Pt	 28.99329978	 2.24016806	 11.64599560
Pt	 28.99329978	 2.24016806	 14.55749449
Pt	 28.99329978	 2.24016806	 17.46899339
Pt	 28.99329978	 2.24016806	 20.38049229
Pt	 28.99329978	 2.24016806	 23.29199119
Pt	 28.99329978	 2.24016806	 26.20349009
Pt	 28.99329978	 2.24016806	 29.11498899
Pt	 28.99329978	 2.24016806	 32.02648789
Pt	 28.99329978	 2.24016806	 34.93798679
Pt	 28.99329978	 2.24016806	 37.84948569
Pt	 28.99329978	 2.24016806	 40.76098458
Pt	 28.99329978	 2.24016806	 43.67248348
Pt	 28.99329978	 2.24016806	 46.58398238
Pt	 28.99329978	 2.24016806	 49.49548128
Pt	 28.99329978	 2.24016806	 52.40698018
Pt	 28.99329978	 2.24016806	 55.31847908
Pt	 28.99329978	 2.24016806	 58.22997798
Pt	 28.99329978	 2.24016806	 61.14147688
Pt	 28.99329978	 2.24016806	 64.05297578
Pt	 28.99329978	 2.24016806	 66.96447468
Pt	 22.65481824	 4.48033611	 -69.87597357
Pt	 22.65481824	 4.48033611	 -66.96447468
Pt	 22.65481824	 4.48033611	 -64.05297578
Pt	 22.65481824	 4.48033611	 -61.14147688
Pt	 22.65481824	 4.48033611	 -58.22997798
Pt	 22.65481824	 4.48033611	 -55.31847908
Pt	 22.65481824	 4.48033611	 -52.40698018
Pt	 22.65481824	 4.48033611	 -49.49548128
Pt	 22.65481824	 4.48033611	 -46.58398238
Pt	 22.65481824	 4.48033611	 -43.67248348
Pt	 22.65481824	 4.48033611	 -40.76098458
Pt	 22.65481824	 4.48033611	 -37.84948569
Pt	 22.65481824	 4.48033611	 -34.93798679
Pt	 22.65481824	 4.48033611	 -32.02648789
Pt	 22.65481824	 4.48033611	 -29.11498899
Pt	 22.65481824	 4.48033611	 -26.20349009
Pt	 22.65481824	 4.48033611	 -23.29199119
Pt	 22.65481824	 4.48033611	 -20.38049229
Pt	 22.65481824	 4.48033611	 -17.46899339
Pt	 22.65481824	 4.48033611	 -14.55749449
Pt	 22.65481824	 4.48033611	 -11.64599560
Pt	 22.65481824	 4.48033611	 -8.73449670
Pt	 22.65481824	 4.48033611	 -5.82299780
Pt	 22.65481824	 4.48033611	 -2.91149890
Pt	 22.65481824	 4.48033611	 0.00000000
Pt	 22.65481824	 4.48033611	 2.91149890
Pt	 22.65481824	 4.48033611	 5.82299780
Pt	 22.65481824	 4.48033611	 8.73449670
Pt	 22.65481824	 4.48033611	 11.64599560
Pt	 22.65481824	 4.48033611	 14.55749449
Pt	 22.65481824	 4.48033611	 17.46899339
Pt	 22.65481824	 4.48033611	 20.38049229
Pt	 22.65481824	 4.48033611	 23.29199119
Pt	 22.65481824	 4.48033611	 26.20349009
Pt	 22.65481824	 4.48033611	 29.11498899
Pt	 22.65481824	 4.48033611	 32.02648789
Pt	 22.65481824	 4.48033611	 34.93798679
Pt	 22.65481824	 4.48033611	 37.84948569
Pt	 22.65481824	 4.48033611	 40.76098458
Pt	 22.65481824	 4.48033611	 43.67248348
Pt	 22.65481824	 4.48033611	 46.58398238
Pt	 22.65481824	 4.48033611	 49.49548128
Pt	 22.65481824	 4.48033611	 52.40698018
Pt	 22.65481824	 4.48033611	 55.31847908
Pt	 22.65481824	 4.48033611	 58.22997798
Pt	 22.65481824	 4.48033611	 61.14147688
Pt	 22.65481824	 4.48033611	 64.05297578
Pt	 22.65481824	 4.48033611	 66.96447468
Pt	 22.65481824	 4.48033611	 69.87597357
Pt	 37.68723341	 0.00000000	 -62.59722633
Pt	 37.68723341	 0.00000000	 -59.68572743
Pt	 37.68723341	 0.00000000	 -56.77422853
Pt	 37.68723341	 0.00000000	 -53.86272963
Pt	 37.68723341	 0.00000000	 -50.95123073
Pt	 37.68723341	 0.00000000	 -48.03973183
Pt	 37.68723341	 0.00000000	 -45.12823293
Pt	 37.68723341	 0.00000000	 -42.21673403
Pt	 37.68723341	 0.00000000	 -39.30523514
Pt	 37.68723341	 0.00000000	 -36.39373624
Pt	 37.68723341	 0.00000000	 -33.48223734
Pt	 37.68723341	 0.00000000	 -30.57073844
Pt	 37.68723341	 0.00000000	 -27.65923954
Pt	 37.68723341	 0.00000000	 -24.74774064
Pt	 37.68723341	 0.00000000	 -21.83624174
Pt	 37.68723341	 0.00000000	 -18.92474284
Pt	 37.68723341	 0.00000000	 -16.01324394
Pt	 37.68723341	 0.00000000	 -13.10174505
Pt	 37.68723341	 0.00000000	 -10.19024615
Pt	 37.68723341	 0.00000000	 -7.27874725
Pt	 37.68723341	 0.00000000	 -4.36724835
Pt	 37.68723341	 0.00000000	 -1.45574945
Pt	 37.68723341	 0.00000000	 1.45574945
Pt	 37.68723341	 0.00000000	 4.36724835
Pt	 37.68723341	 0.00000000	 7.27874725
Pt	 37.68723341	 0.00000000	 10.19024615
Pt	 37.68723341	 0.00000000	 13.10174505
Pt	 37.68723341	 0.00000000	 16.01324394
Pt	 37.68723341	 0.00000000	 18.92474284
Pt	 37.68723341	 0.00000000	 21.83624174
Pt	 37.68723341	 0.00000000	 24.74774064
Pt	 37.68723341	 0.00000000	 27.65923954
Pt	 37.68723341	 0.00000000	 30.57073844
Pt	 37.68723341	 0.00000000	 33.48223734
Pt	 37.68723341	 0.00000000	 36.39373624
Pt	 37.68723341	 0.00000000	 39.30523514
Pt	 37.68723341	 0.00000000	 42.21673403
Pt	 37.68723341	 0.00000000	 45.12823293
Pt	 37.68723341	 0.00000000	 48.03973183
Pt	 37.68723341	 0.00000000	 50.95123073
Pt	 37.68723341	 0.00000000	 53.86272963
Pt	 37.68723341	 0.00000000	 56.77422853
Pt	 37.68723341	 0.00000000	 59.68572743
Pt	 37.68723341	 0.00000000	 62.59722633
Pt	 31.34875187	 2.24016806	 -65.50872523
Pt	 31.34875187	 2.24016806	 -62.59722633
Pt	 31.34875187	 2.24016806	 -59.68572743
Pt	 31.34875187	 2.24016806	 -56.77422853
Pt	 31.34875187	 2.24016806	 -53.86272963
Pt	 31.34875187	 2.24016806	 -50.95123073
Pt	 31.34875187	 2.24016806	 -48.03973183
Pt	 31.34875187	 2.24016806	 -45.12823293
Pt	 31.34875187	 2.24016806	 -42.21673403
Pt	 31.34875187	 2.24016806	 -39.30523514
Pt	 31.34875187	 2.24016806	 -36.39373624
Pt	 31.34875187	 2.24016806	 -33.48223734
Pt	 31.34875187	 2.24016806	 -30.57073844
Pt	 31.34875187	 2.24016806	 -27.65923954
Pt	 31.34875187	 2.24016806	 -24.74774064
Pt	 31.34875187	 2.24016806	 -21.83624174
Pt	 31.34875187	 2.24016806	 -18.92474284
Pt	 31.34875187	 2.24016806	 -16.01324394
Pt	 31.34875187	 2.24016806	 -13.10174505
Pt	 31.34875187	 2.24016806	 -10.19024615
Pt	 31.34875187	 2.24016806	 -7.27874725
Pt	 31.34875187	 2.24016806	 -4.36724835
Pt	 31.34875187	 2.24016806	 -1.45574945
Pt	 31.34875187	 2.24016806	 1.45574945
Pt	 31.34875187	 2.24016806	 4.36724835
Pt	 31.34875187	 2.24016806	 7.27874725
Pt	 31.34875187	 2.24016806	 10.19024615
Pt	 31.34875187	 2.24016806	 13.10174505
Pt	 31.34875187	 2.24016806	 16.01324394
Pt	 31.34875187	 2.24016806	 18.92474284
Pt	 31.34875187	 2.24016806	 21.83624174
Pt	 31.34875187	 2.24016806	 24.74774064
Pt	 31.34875187	 2.24016806	 27.65923954
Pt	 31.34875187	 2.24016806	 30.57073844
Pt	 31.34875187	 2.24016806	 33.48223734
Pt	 31.34875187	 2.24016806	 36.39373624
Pt	 31.34875187	 2.24016806	 39.30523514
Pt	 31.34875187	 2.24016806	 42.21673403
Pt	 31.34875187	 2.24016806	 45.12823293
Pt	 31.34875187	 2.24016806	 48.03973183
Pt	 31.34875187	 2.24016806	 50.95123073
Pt	 31.34875187	 2.24016806	 53.86272963
Pt	 31.34875187	 2.24016806	 56.77422853
Pt	 31.34875187	 2.24016806	 59.68572743
Pt	 31.34875187	 2.24016806	 62.59722633
Pt	 31.34875187	 2.24016806	 65.50872523
Pt	 25.01027033	 4.48033611	 -68.42022412
Pt	 25.01027033	 4.48033611	 -65.50872523
Pt	 25.01027033	 4.48033611	 -62.59722633
Pt	 25.01027033	 4.48033611	 -59.68572743
Pt	 25.01027033	 4.48033611	 -56.77422853
Pt	 25.01027033	 4.48033611	 -53.86272963
Pt	 25.01027033	 4.48033611	 -50.95123073
Pt	 25.01027033	 4.48033611	 -48.03973183
Pt	 25.01027033	 4.48033611	 -45.12823293
Pt	 25.01027033	 4.48033611	 -42.21673403
Pt	 25.01027033	 4.48033611	 -39.30523514
Pt	 25.01027033	 4.48033611	 -36.39373624
Pt	 25.01027033	 4.48033611	 -33.48223734
Pt	 25.01027033	 4.48033611	 -30.57073844
Pt	 25.01027033	 4.48033611	 -27.65923954
Pt	 25.01027033	 4.48033611	 -24.74774064
Pt	 25.01027033	 4.48033611	 -21.83624174
Pt	 25.01027033	 4.48033611	 -18.92474284
Pt	 25.01027033	 4.48033611	 -16.01324394
Pt	 25.01027033	 4.48033611	 -13.10174505
Pt	 25.01027033	 4.48033611	 -10.19024615
Pt	 25.01027033	 4.48033611	 -7.27874725
Pt	 25.01027033	 4.48033611	 -4.36724835
Pt	 25.01027033	 4.48033611	 -1.45574945
Pt	 25.01027033	 4.48033611	 1.45574945
Pt	 25.01027033	 4.48033611	 4.36724835
Pt	 25.01027033	 4.48033611	 7.27874725
Pt	 25.01027033	 4.48033611	 10.19024615
Pt	 25.01027033	 4.48033611	 13.10174505
Pt	 25.01027033	 4.48033611	 16.01324394
Pt	 25.01027033	 4.48033611	 18.92474284
Pt	 25.01027033	 4.48033611	 21.83624174
Pt	 25.01027033	 4.48033611	 24.74774064
Pt	 25.01027033	 4.48033611	 27.65923954
Pt	 25.01027033	 4.48033611	 30.57073844
Pt	 25.01027033	 4.48033611	 33.48223734
Pt	 25.01027033	 4.48033611	 36.39373624
Pt	 25.01027033	 4.48033611	 39.30523514
Pt	 25.01027033	 4.48033611	 42.21673403
Pt	 25.01027033	 4.48033611	 45.12823293
Pt	 25.01027033	 4.48033611	 48.03973183
Pt	 25.01027033	 4.48033611	 50.95123073
Pt	 25.01027033	 4.48033611	 53.86272963
Pt	 25.01027033	 4.48033611	 56.77422853
Pt	 25.01027033	 4.48033611	 59.68572743
Pt	 25.01027033	 4.48033611	 62.59722633
Pt	 25.01027033	 4.48033611	 65.50872523
Pt	 25.01027033	 4.48033611	 68.42022412
Pt	 18.67178879	 6.72050417	 -71.33172302
Pt	 18.67178879	 6.72050417	 -68.42022412
Pt	 18.67178879	 6.72050417	 -65.50872523
Pt	 18.67178879	 6.72050417	 -62.59722633
Pt	 18.67178879	 6.72050417	 -59.68572743
Pt	 18.67178879	 6.72050417	 -56.77422853
Pt	 18.67178879	 6.72050417	 -53.86272963
Pt	 18.67178879	 6.72050417	 -50.95123073
Pt	 18.67178879	 6.72050417	 -48.03973183
Pt	 18.67178879	 6.72050417	 -45.12823293
Pt	 18.67178879	 6.72050417	 -42.21673403
Pt	 18.67178879	 6.72050417	 -39.30523514
Pt	 18.67178879	 6.72050417	 -36.39373624
Pt	 18.67178879	 6.72050417	 -33.48223734
Pt	 18.67178879	 6.72050417	 -30.57073844
Pt	 18.67178879	 6.72050417	 -27.65923954
Pt	 18.67178879	 6.72050417	 -24.74774064
Pt	 18.67178879	 6.72050417	 -21.83624174
Pt	 18.67178879	 6.72050417	 -18.92474284
Pt	 18.67178879	 6.72050417	 -16.01324394
Pt	 18.67178879	 6.72050417	 -13.10174505
Pt	 18.67178879	 6.72050417	 -10.19024615
Pt	 18.67178879	 6.72050417	 -7.27874725
Pt	 18.67178879	 6.72050417	 -4.36724835
Pt	 18.67178879	 6.72050417	 -1.45574945
Pt	 18.67178879	 6.72050417	 1.45574945
Pt	 18.67178879	 6.72050417	 4.36724835
Pt	 18.67178879	 6.72050417	 7.27874725
Pt	 18.67178879	 6.72050417	 10.19024615
Pt	 18.67178879	 6.72050417	 13.10174505
Pt	 18.67178879	 6.72050417	 16.01324394
Pt	 18.67178879	 6.72050417	 18.92474284
Pt	 18.67178879	 6.72050417	 21.83624174
Pt	 18.67178879	 6.72050417	 24.74774064
Pt	 18.67178879	 6.72050417	 27.65923954
Pt	 18.67178879	 6.72050417	 30.57073844
Pt	 18.67178879	 6.72050417	 33.48223734
Pt	 18.67178879	 6.72050417	 36.39373624
Pt	 18.67178879	 6.72050417	 39.30523514
Pt	 18.67178879	 6.72050417	 42.21673403
Pt	 18.67178879	 6.72050417	 45.12823293
Pt	 18.67178879	 6.72050417	 48.03973183
Pt	 18.67178879	 6.72050417	 50.95123073
Pt	 18.67178879	 6.72050417	 53.86272963
Pt	 18.67178879	 6.72050417	 56.77422853
Pt	 18.67178879	 6.72050417	 59.68572743
Pt	 18.67178879	 6.72050417	 62.59722633
Pt	 18.67178879	 6.72050417	 65.50872523
Pt	 18.67178879	 6.72050417	 68.42022412
Pt	 18.67178879	 6.72050417	 71.33172302
Pt	 40.04268550	 0.00000000	 -61.14147688
Pt	 40.04268550	 0.00000000	 -58.22997798
Pt	 40.04268550	 0.00000000	 -55.31847908
Pt	 40.04268550	 0.00000000	 -52.40698018
Pt	 40.04268550	 0.00000000	 -49.49548128
Pt	 40.04268550	 0.00000000	 -46.58398238
Pt	 40.04268550	 0.00000000	 -43.67248348
Pt	 40.04268550	 0.00000000	 -40.76098458
Pt	 40.04268550	 0.00000000	 -37.84948569
Pt	 40.04268550	 0.00000000	 -34.93798679
Pt	 40.04268550	 0.00000000	 -32.02648789
Pt	 40.04268550	 0.00000000	 -29.11498899
Pt	 40.04268550	 0.00000000	 -26.20349009
Pt	 40.04268550	 0.00000000	 -23.29199119
Pt	 40.04268550	 0.00000000	 -20.38049229
Pt	 40.04268550	 0.00000000	 -17.46899339
Pt	 40.04268550	 0.00000000	 -14.55749449
Pt	 40.04268550	 0.00000000	 -11.64599560
Pt	 40.04268550	 0.00000000	 -8.73449670
Pt	 40.04268550	 0.00000000	 -5.82299780
Pt	 40.04268550	 0.00000000	 -2.91149890
Pt	 40.04268550	 0.00000000	 -0.00000000
Pt	 40.04268550	 0.00000000	 2.91149890
Pt	 40.04268550	 0.00000000	 5.82299780
Pt	 40.04268550	 0.00000000	 8.73449670
Pt	 40.04268550	 0.00000000	 11.64599560
Pt	 40.04268550	 0.00000000	 14.55749449
Pt	 40.04268550	 0.00000000	 17.46899339
Pt	 40.04268550	 0.00000000	 20.38049229
Pt	 40.04268550	 0.00000000	 23.29199119
Pt	 40.04268550	 0.00000000	 26.20349009
Pt	 40.04268550	 0.00000000	 29.11498899
Pt	 40.04268550	 0.00000000	 32.02648789
Pt	 40.04268550	 0.00000000	 34.93798679
Pt	 40.04268550	 0.00000000	 37.84948569
Pt	 40.04268550	 0.00000000	 40.76098458
Pt	 40.04268550	 0.00000000	 43.67248348
Pt	 40.04268550	 0.00000000	 46.58398238
Pt	 40.04268550	 0.00000000	 49.49548128
Pt	 40.04268550	 0.00000000	 52.40698018
Pt	 40.04268550	 0.00000000	 55.31847908
Pt	 40.04268550	 0.00000000	 58.22997798
Pt	 40.04268550	 0.00000000	 61.14147688
Pt	 33.70420396	 2.24016806	 -64.05297578
Pt	 33.70420396	 2.24016806	 -61.14147688
Pt	 33.70420396	 2.24016806	 -58.22997798
Pt	 33.70420396	 2.24016806	 -55.31847908
Pt	 33.70420396	 2.24016806	 -52.40698018
Pt	 33.70420396	 2.24016806	 -49.49548128
Pt	 33.70420396	 2.24016806	 -46.58398238
Pt	 33.70420396	 2.24016806	 -43.67248348
Pt	 33.70420396	 2.24016806	 -40.76098458
Pt	 33.70420396	 2.24016806	 -37.84948569
Pt	 33.70420396	 2.24016806	 -34.93798679
Pt	 33.70420396	 2.24016806	 -32.02648789
Pt	 33.70420396	 2.24016806	 -29.11498899
Pt	 33.70420396	 2.24016806	 -26.20349009
Pt	 33.70420396	 2.24016806	 -23.29199119
Pt	 33.70420396	 2.24016806	 -20.38049229
Pt	 33.70420396	 2.24016806	 -17.46899339
Pt	 33.70420396	 2.24016806	 -14.55749449
Pt	 33.70420396	 2.24016806	 -11.64599560
Pt	 33.70420396	 2.24016806	 -8.73449670
Pt	 33.70420396	 2.24016806	 -5.82299780
Pt	 33.70420396	 2.24016806	 -2.91149890
Pt	 33.70420396	 2.24016806	 -0.00000000
Pt	 33.70420396	 2.24016806	 2.91149890
Pt	 33.70420396	 2.24016806	 5.82299780
Pt	 33.70420396	 2.24016806	 8.73449670
Pt	 33.70420396	 2.24016806	 11.64599560
Pt	 33.70420396	 2.24016806	 14.55749449
Pt	 33.70420396	 2.24016806	 17.46899339
Pt	 33.70420396	 2.24016806	 20.38049229
Pt	 33.70420396	 2.24016806	 23.29199119
Pt	 33.70420396	 2.24016806	 26.20349009
Pt	 33.70420396	 2.24016806	 29.11498899
Pt	 33.70420396	 2.24016806	 32.02648789
Pt	 33.70420396	 2.24016806	 34.93798679
Pt	 33.70420396	 2.24016806	 37.84948569
Pt	 33.70420396	 2.24016806	 40.76098458
Pt	 33.70420396	 2.24016806	 43.67248348
Pt	 33.70420396	 2.24016806	 46.58398238
Pt	 33.70420396	 2.24016806	 49.49548128
Pt	 33.70420396	 2.24016806	 52.40698018
Pt	 33.70420396	 2.24016806	 55.31847908
Pt	 33.70420396	 2.24016806	 58.22997798
Pt	 33.70420396	 2.24016806	 61.14147688
Pt	 33.70420396	 2.24016806	 64.05297578
Pt	 27.36572242	 4.48033611	 -66.96447468
Pt	 27.36572242	 4.48033611	 -64.05297578
Pt	 27.36572242	 4.48033611	 -61.14147688
Pt	 27.36572242	 4.48033611	 -58.22997798
Pt	 27.36572242	 4.48033611	 -55.31847908
Pt	 27.36572242	 4.48033611	 -52.40698018
Pt	 27.36572242	 4.48033611	 -49.49548128
Pt	 27.36572242	 4.48033611	 -46.58398238
Pt	 27.36572242	 4.48033611	 -43.67248348
Pt	 27.36572242	 4.48033611	 -40.76098458
Pt	 27.36572242	 4.48033611	 -37.84948569
Pt	 27.36572242	 4.48033611	 -34.93798679
Pt	 27.36572242	 4.48033611	 -32.02648789
Pt	 27.36572242	 4.48033611	 -29.11498899
Pt	 27.36572242	 4.48033611	 -26.20349009
Pt	 27.36572242	 4.48033611	 -23.29199119
Pt	 27.36572242	 4.48033611	 -20.38049229
Pt	 27.36572242	 4.48033611	 -17.46899339
Pt	 27.36572242	 4.48033611	 -14.55749449
Pt	 27.36572242	 4.48033611	 -11.64599560
Pt	 27.36572242	 4.48033611	 -8.73449670
Pt	 27.36572242	 4.48033611	 -5.82299780
Pt	 27.36572242	 4.48033611	 -2.91149890
Pt	 27.36572242	 4.48033611	 -0.00000000
Pt	 27.36572242	 4.48033611	 2.91149890
Pt	 27.36572242	 4.48033611	 5.82299780
Pt	 27.36572242	 4.48033611	 8.73449670
Pt	 27.36572242	 4.48033611	 11.64599560
Pt	 27.36572242	 4.48033611	 14.55749449
Pt	 27.36572242	 4.48033611	 17.46899339
Pt	 27.36572242	 4.48033611	 20.38049229
Pt	 27.36572242	 4.48033611	 23.29199119
Pt	 27.36572242	 4.48033611	 26.20349009
Pt	 27.36572242	 4.48033611	 29.11498899
Pt	 27.36572242	 4.48033611	 32.02648789
Pt	 27.36572242	 4.48033611	 34.93798679
Pt	 27.36572242	 4.48033611	 37.84948569
Pt	 27.36572242	 4.48033611	 40.76098458
Pt	 27.36572242	 4.48033611	 43.67248348
Pt	 27.36572242	 4.48033611	 46.58398238
Pt	 27.36572242	 4.48033611	 49.49548128
Pt	 27.36572242	 4.48033611	 52.40698018
Pt	 27.36572242	 4.48033611	 55.31847908
Pt	 27.36572242	 4.48033611	 58.22997798
Pt	 27.36572242	 4.48033611	 61.14147688
Pt	 27.36572242	 4.48033611	 64.05297578
Pt	 27.36572242	 4.48033611	 66.96447468
Pt	 21.02724088	 6.72050417	 -69.87597357
Pt	 21.02724088	 6.72050417	 -66.96447468
Pt	 21.02724088	 6.72050417	 -64.05297578
Pt	 21.02724088	 6.72050417	 -61.14147688
Pt	 21.02724088	 6.72050417	 -58.22997798
Pt	 21.02724088	 6.72050417	 -55.31847908
Pt	 21.02724088	 6.72050417	 -52.40698018
Pt	 21.02724088	 6.72050417	 -49.49548128
Pt	 21.02724088	 6.72050417	 -46.58398238
Pt	 21.02724088	 6.72050417	 -43.67248348
Pt	 21.02724088	 6.72050417	 -40.76098458
Pt	 21.02724088	 6.72050417	 -37.84948569
Pt	 21.02724088	 6.72050417	 -34.93798679
Pt	 21.02724088	 6.72050417	 -32.02648789
Pt	 21.02724088	 6.72050417	 -29.11498899
Pt	 21.02724088	 6.72050417	 -26.20349009
Pt	 21.02724088	 6.72050417	 -23.29199119
Pt	 21.02724088	 6.72050417	 -20.38049229
Pt	 21.02724088	 6.72050417	 -17.46899339
Pt	 21.02724088	 6.72050417	 -14.55749449
Pt	 21.02724088	 6.72050417	 -11.64599560
Pt	 21.02724088	 6.72050417	 -8.73449670
Pt	 21.02724088	 6.72050417	 -5.82299780
Pt	 21.02724088	 6.72050417	 -2.91149890
Pt	 21.02724088	 6.72050417	 0.00000000
Pt	 21.02724088	 6.72050417	 2.91149890
Pt	 21.02724088	 6.72050417	 5.82299780
Pt	 21.02724088	 6.72050417	 8.73449670
Pt	 21.02724088	 6.72050417	 11.64599560
Pt	 21.02724088	 6.72050417	 14.55749449
Pt	 21.02724088	 6.72050417	 17.46899339
Pt	 21.02724088	 6.72050417	 20.38049229
Pt	 21.02724088	 6.72050417	 23.29199119
Pt	 21.02724088	 6.72050417	 26.20349009
Pt	 21.02724088	 6.72050417	 29.11498899
Pt	 21.02724088	 6.72050417	 32.02648789
Pt	 21.02724088	 6.72050417	 34.93798679
Pt	 21.02724088	 6.72050417	 37.84948569
Pt	 21.02724088	 6.72050417	 40.76098458
Pt	 21.02724088	 6.72050417	 43.67248348
Pt	 21.02724088	 6.72050417	 46.58398238
Pt	 21.02724088	 6.72050417	 49.49548128
Pt	 21.02724088	 6.72050417	 52.40698018
Pt	 21.02724088	 6.72050417	 55.31847908
Pt	 21.02724088	 6.72050417	 58.22997798
Pt	 21.02724088	 6.72050417	 61.14147688
Pt	 21.02724088	 6.72050417	 64.05297578
Pt	 21.02724088	 6.72050417	 66.96447468
Pt	 21.02724088	 6.72050417	 69.87597357
Pt	 42.39813759	 0.00000000	 -59.68572743
Pt	 42.39813759	 0.00000000	 -56.77422853
Pt	 42.39813759	 0.00000000	 -53.86272963
Pt	 42.39813759	 0.00000000	 -50.95123073
Pt	 42.39813759	 0.00000000	 -48.03973183
Pt	 42.39813759	 0.00000000	 -45.12823293
Pt	 42.39813759	 0.00000000	 -42.21673403
Pt	 42.39813759	 0.00000000	 -39.30523514
Pt	 42.39813759	 0.00000000	 -36.39373624
Pt	 42.39813759	 0.00000000	 -33.48223734
Pt	 42.39813759	 0.00000000	 -30.57073844
Pt	 42.39813759	 0.00000000	 -27.65923954
Pt	 42.39813759	 0.00000000	 -24.74774064
Pt	 42.39813759	 0.00000000	 -21.83624174
Pt	 42.39813759	 0.00000000	 -18.92474284
Pt	 42.39813759	 0.00000000	 -16.01324394
Pt	 42.39813759	 0.00000000	 -13.10174505
Pt	 42.39813759	 0.00000000	 -10.19024615
Pt	 42.39813759	 0.00000000	 -7.27874725
Pt	 42.39813759	 0.00000000	 -4.36724835
Pt	 42.39813759	 0.00000000	 -1.45574945
Pt	 42.39813759	 0.00000000	 1.45574945
Pt	 42.39813759	 0.00000000	 4.36724835
Pt	 42.39813759	 0.00000000	 7.27874725
Pt	 42.39813759	 0.00000000	 10.19024615
Pt	 42.39813759	 0.00000000	 13.10174505
Pt	 42.39813759	 0.00000000	 16.01324394
Pt	 42.39813759	 0.00000000	 18.92474284
Pt	 42.39813759	 0.00000000	 21.83624174
Pt	 42.39813759	 0.00000000	 24.74774064
Pt	 42.39813759	 0.00000000	 27.65923954
Pt	 42.39813759	 0.00000000	 30.57073844
Pt	 42.39813759	 0.00000000	 33.48223734
Pt	 42.39813759	 0.00000000	 36.39373624
Pt	 42.39813759	 0.00000000	 39.30523514
Pt	 42.39813759	 0.00000000	 42.21673403
Pt	 42.39813759	 0.00000000	 45.12823293
Pt	 42.39813759	 0.00000000	 48.03973183
Pt	 42.39813759	 0.00000000	 50.95123073
Pt	 42.39813759	 0.00000000	 53.86272963
Pt	 42.39813759	 0.00000000	 56.77422853
Pt	 42.39813759	 0.00000000	 59.68572743
Pt	 36.05965605	 2.24016806	 -62.59722633
Pt	 36.05965605	 2.24016806	 -59.68572743
Pt	 36.05965605	 2.24016806	 -56.77422853
Pt	 36.05965605	 2.24016806	 -53.86272963
Pt	 36.05965605	 2.24016806	 -50.95123073
Pt	 36.05965605	 2.24016806	 -48.03973183
Pt	 36.05965605	 2.24016806	 -45.12823293
Pt	 36.05965605	 2.24016806	 -42.21673403
Pt	 36.05965605	 2.24016806	 -39.30523514
Pt	 36.05965605	 2.24016806	 -36.39373624
Pt	 36.05965605	 2.24016806	 -33.48223734
Pt	 36.05965605	 2.24016806	 -30.57073844
Pt	 36.05965605	 2.24016806	 -27.65923954
Pt	 36.05965605	 2.24016806	 -24.74774064
Pt	 36.05965605	 2.24016806	 -21.83624174
Pt	 36.05965605	 2.24016806	 -18.92474284
Pt	 36.05965605	 2.24016806	 -16.01324394
Pt	 36.05965605	 2.24016806	 -13.10174505
Pt	 36.05965605	 2.24016806	 -10.19024615
Pt	 36.05965605	 2.24016806	 -7.27874725
Pt	 36.05965605	 2.24016806	 -4.36724835
Pt	 36.05965605	 2.24016806	 -1.45574945
Pt	 36.05965605	 2.24016806	 1.45574945
Pt	 36.05965605	 2.24016806	 4.36724835
Pt	 36.05965605	 2.24016806	 7.27874725
Pt	 36.05965605	 2.24016806	 10.19024615
Pt	 36.05965605	 2.24016806	 13.10174505
Pt	 36.05965605	 2.24016806	 16.01324394
Pt	 36.05965605	 2.24016806	 18.92474284
Pt	 36.05965605	 2.24016806	 21.83624174
Pt	 36.05965605	 2.24016806	 24.74774064
Pt	 36.05965605	 2.24016806	 27.65923954
Pt	 36.05965605	 2.24016806	 30.57073844
Pt	 36.05965605	 2.24016806	 33.48223734
Pt	 36.05965605	 2.24016806	 36.39373624
Pt	 36.05965605	 2.24016806	 39.30523514
Pt	 36.05965605	 2.24016806	 42.21673403
Pt	 36.05965605	 2.24016806	 45.12823293
Pt	 36.05965605	 2.24016806	 48.03973183
Pt	 36.05965605	 2.24016806	 50.95123073
Pt	 36.05965605	 2.24016806	 53.86272963
Pt	 36.05965605	 2.24016806	 56.77422853
Pt	 36.05965605	 2.24016806	 59.68572743
Pt	 36.05965605	 2.24016806	 62.59722633
Pt	 29.72117451	 4.48033611	 -65.50872523
Pt	 29.72117451	 4.48033611	 -62.59722633
Pt	 29.72117451	 4.48033611	 -59.68572743
Pt	 29.72117451	 4.48033611	 -56.77422853
Pt	 29.72117451	 4.48033611	 -53.86272963
Pt	 29.72117451	 4.48033611	 -50.95123073
Pt	 29.72117451	 4.48033611	 -48.03973183
Pt	 29.72117451	 4.48033611	 -45.12823293
Pt	 29.72117451	 4.48033611	 -42.21673403
Pt	 29.72117451	 4.48033611	 -39.30523514
Pt	 29.72117451	 4.48033611	 -36.39373624
Pt	 29.72117451	 4.48033611	 -33.48223734
Pt	 29.72117451	 4.48033611	 -30.57073844
Pt	 29.72117451	 4.48033611	 -27.65923954
Pt	 29.72117451	 4.48033611	 -24.74774064
Pt	 29.72117451	 4.48033611	 -21.83624174
Pt	 29.72117451	 4.48033611	 -18.92474284
Pt	 29.72117451	 4.48033611	 -16.01324394
Pt	 29.72117451	 4.48033611	 -13.10174505
Pt	 29.72117451	 4.48033611	 -10.19024615
Pt	 29.72117451	 4.48033611	 -7.27874725
Pt	 29.72117451	 4.48033611	 -4.36724835
Pt	 29.72117451	 4.48033611	 -1.45574945
Pt	 29.72117451	 4.48033611	 1.45574945
Pt	 29.72117451	 4.48033611	 4.36724835
Pt	 29.72117451	 4.48033611	 7.27874725
Pt	 29.72117451	 4.48033611	 10.19024615
Pt	 29.72117451	 4.48033611	 13.10174505
Pt	 29.72117451	 4.48033611	 16.01324394
Pt	 29.72117451	 4.48033611	 18.92474284
Pt	 29.72117451	 4.48033611	 21.83624174
Pt	 29.72117451	 4.48033611	 24.74774064
Pt	 29.72117451	 4.48033611	 27.65923954
Pt	 29.72117451	 4.48033611	 30.57073844
Pt	 29.72117451	 4.48033611	 33.48223734
Pt	 29.72117451	 4.48033611	 36.39373624
Pt	 29.72117451	 4.48033611	 39.30523514
Pt	 29.72117451	 4.48033611	 42.21673403
Pt	 29.72117451	 4.48033611	 45.12823293
Pt	 29.72117451	 4.48033611	 48.03973183
Pt	 29.72117451	 4.48033611	 50.95123073
Pt	 29.72117451	 4.48033611	 53.86272963
Pt	 29.72117451	 4.48033611	 56.77422853
Pt	 29.72117451	 4.48033611	 59.68572743
Pt	 29.72117451	 4.48033611	 62.59722633
Pt	 29.72117451	 4.48033611	 65.50872523
Pt	 23.38269297	 6.72050417	 -68.42022412
Pt	 23.38269297	 6.72050417	 -65.50872523
Pt	 23.38269297	 6.72050417	 -62.59722633
Pt	 23.38269297	 6.72050417	 -59.68572743
Pt	 23.38269297	 6.72050417	 -56.77422853
Pt	 23.38269297	 6.72050417	 -53.86272963
Pt	 23.38269297	 6.72050417	 -50.95123073
Pt	 23.38269297	 6.72050417	 -48.03973183
Pt	 23.38269297	 6.72050417	 -45.12823293
Pt	 23.38269297	 6.72050417	 -42.21673403
Pt	 23.38269297	 6.72050417	 -39.30523514
Pt	 23.38269297	 6.72050417	 -36.39373624
Pt	 23.38269297	 6.72050417	 -33.48223734
Pt	 23.38269297	 6.72050417	 -30.57073844
Pt	 23.38269297	 6.72050417	 -27.65923954
Pt	 23.38269297	 6.72050417	 -24.74774064
Pt	 23.38269297	 6.72050417	 -21.83624174
Pt	 23.38269297	 6.72050417	 -18.92474284
Pt	 23.38269297	 6.72050417	 -16.01324394
Pt	 23.38269297	 6.72050417	 -13.10174505
Pt	 23.38269297	 6.72050417	 -10.19024615
Pt	 23.38269297	 6.72050417	 -7.27874725
Pt	 23.38269297	 6.72050417	 -4.36724835
Pt	 23.38269297	 6.72050417	 -1.45574945
Pt	 23.38269297	 6.72050417	 1.45574945
Pt	 23.38269297	 6.72050417	 4.36724835
Pt	 23.38269297	 6.72050417	 7.27874725
Pt	 23.38269297	 6.72050417	 10.19024615
Pt	 23.38269297	 6.72050417	 13.10174505
Pt	 23.38269297	 6.72050417	 16.01324394
Pt	 23.38269297	 6.72050417	 18.92474284
Pt	 23.38269297	 6.72050417	 21.83624174
Pt	 23.38269297	 6.72050417	 24.74774064
Pt	 23.38269297	 6.72050417	 27.65923954
Pt	 23.38269297	 6.72050417	 30.57073844
Pt	 23.38269297	 6.72050417	 33.48223734
Pt	 23.38269297	 6.72050417	 36.39373624
Pt	 23.38269297	 6.72050417	 39.30523514
Pt	 23.38269297	 6.72050417	 42.21673403
Pt	 23.38269297	 6.72050417	 45.12823293
Pt	 23.38269297	 6.72050417	 48.03973183
Pt	 23.38269297	 6.72050417	 50.95123073
Pt	 23.38269297	 6.72050417	 53.86272963
Pt	 23.38269297	 6.72050417	 56.77422853
Pt	 23.38269297	 6.72050417	 59.68572743
Pt	 23.38269297	 6.72050417	 62.59722633
Pt	 23.38269297	 6.72050417	 65.50872523
Pt	 23.38269297	 6.72050417	 68.42022412
Pt	 44.75358968	 0.00000000	 -58.22997798
Pt	 44.75358968	 0.00000000	 -55.31847908
Pt	 44.75358968	 0.00000000	 -52.40698018
Pt	 44.75358968	 0.00000000	 -49.49548128
Pt	 44.75358968	 0.00000000	 -46.58398238
Pt	 44.75358968	 0.00000000	 -43.67248348
Pt	 44.75358968	 0.00000000	 -40.76098458
Pt	 44.75358968	 0.00000000	 -37.84948569
Pt	 44.75358968	 0.00000000	 -34.93798679
Pt	 44.75358968	 0.00000000	 -32.02648789
Pt	 44.75358968	 0.00000000	 -29.11498899
Pt	 44.75358968	 0.00000000	 -26.20349009
Pt	 44.75358968	 0.00000000	 -23.29199119
Pt	 44.75358968	 0.00000000	 -20.38049229
Pt	 44.75358968	 0.00000000	 -17.46899339
Pt	 44.75358968	 0.00000000	 -14.55749449
Pt	 44.75358968	 0.00000000	 -11.64599560
Pt	 44.75358968	 0.00000000	 -8.73449670
Pt	 44.75358968	 0.00000000	 -5.82299780
Pt	 44.75358968	 0.00000000	 -2.91149890
Pt	 44.75358968	 0.00000000	 -0.00000000
Pt	 44.75358968	 0.00000000	 2.91149890
Pt	 44.75358968	 0.00000000	 5.82299780
Pt	 44.75358968	 0.00000000	 8.73449670
Pt	 44.75358968	 0.00000000	 11.64599560
Pt	 44.75358968	 0.00000000	 14.55749449
Pt	 44.75358968	 0.00000000	 17.46899339
Pt	 44.75358968	 0.00000000	 20.38049229
Pt	 44.75358968	 0.00000000	 23.29199119
Pt	 44.75358968	 0.00000000	 26.20349009
Pt	 44.75358968	 0.00000000	 29.11498899
Pt	 44.75358968	 0.00000000	 32.02648789
Pt	 44.75358968	 0.00000000	 34.93798679
Pt	 44.75358968	 0.00000000	 37.84948569
Pt	 44.75358968	 0.00000000	 40.76098458
Pt	 44.75358968	 0.00000000	 43.67248348
Pt	 44.75358968	 0.00000000	 46.58398238
Pt	 44.75358968	 0.00000000	 49.49548128
Pt	 44.75358968	 0.00000000	 52.40698018
Pt	 44.75358968	 0.00000000	 55.31847908
Pt	 44.75358968	 0.00000000	 58.22997798
Pt	 38.41510814	 2.24016806	 -61.14147688
Pt	 38.41510814	 2.24016806	 -58.22997798
Pt	 38.41510814	 2.24016806	 -55.31847908
Pt	 38.41510814	 2.24016806	 -52.40698018
Pt	 38.41510814	 2.24016806	 -49.49548128
Pt	 38.41510814	 2.24016806	 -46.58398238
Pt	 38.41510814	 2.24016806	 -43.67248348
Pt	 38.41510814	 2.24016806	 -40.76098458
Pt	 38.41510814	 2.24016806	 -37.84948569
Pt	 38.41510814	 2.24016806	 -34.93798679
Pt	 38.41510814	 2.24016806	 -32.02648789
Pt	 38.41510814	 2.24016806	 -29.11498899
Pt	 38.41510814	 2.24016806	 -26.20349009
Pt	 38.41510814	 2.24016806	 -23.29199119
Pt	 38.41510814	 2.24016806	 -20.38049229
Pt	 38.41510814	 2.24016806	 -17.46899339
Pt	 38.41510814	 2.24016806	 -14.55749449
Pt	 38.41510814	 2.24016806	 -11.64599560
Pt	 38.41510814	 2.24016806	 -8.73449670
Pt	 38.41510814	 2.24016806	 -5.82299780
Pt	 38.41510814	 2.24016806	 -2.91149890
Pt	 38.41510814	 2.24016806	 -0.00000000
Pt	 38.41510814	 2.24016806	 2.91149890
Pt	 38.41510814	 2.24016806	 5.82299780
Pt	 38.41510814	 2.24016806	 8.73449670
Pt	 38.41510814	 2.24016806	 11.64599560
Pt	 38.41510814	 2.24016806	 14.55749449
Pt	 38.41510814	 2.24016806	 17.46899339
Pt	 38.41510814	 2.24016806	 20.38049229
Pt	 38.41510814	 2.24016806	 23.29199119
Pt	 38.41510814	 2.24016806	 26.20349009
Pt	 38.41510814	 2.24016806	 29.11498899
Pt	 38.41510814	 2.24016806	 32.02648789
Pt	 38.41510814	 2.24016806	 34.93798679
Pt	 38.41510814	 2.24016806	 37.84948569
Pt	 38.41510814	 2.24016806	 40.76098458
Pt	 38.41510814	 2.24016806	 43.67248348
Pt	 38.41510814	 2.24016806	 46.58398238
Pt	 38.41510814	 2.24016806	 49.49548128
Pt	 38.41510814	 2.24016806	 52.40698018
Pt	 38.41510814	 2.24016806	 55.31847908
Pt	 38.41510814	 2.24016806	 58.22997798
Pt	 38.41510814	 2.24016806	 61.14147688
Pt	 32.07662660	 4.48033611	 -64.05297578
Pt	 32.07662660	 4.48033611	 -61.14147688
Pt	 32.07662660	 4.48033611	 -58.22997798
Pt	 32.07662660	 4.48033611	 -55.31847908
Pt	 32.07662660	 4.48033611	 -52.40698018
Pt	 32.07662660	 4.48033611	 -49.49548128
Pt	 32.07662660	 4.48033611	 -46.58398238
Pt	 32.07662660	 4.48033611	 -43.67248348
Pt	 32.07662660	 4.48033611	 -40.76098458
Pt	 32.07662660	 4.48033611	 -37.84948569
Pt	 32.07662660	 4.48033611	 -34.93798679
Pt	 32.07662660	 4.48033611	 -32.02648789
Pt	 32.07662660	 4.48033611	 -29.11498899
Pt	 32.07662660	 4.48033611	 -26.20349009
Pt	 32.07662660	 4.48033611	 -23.29199119
Pt	 32.07662660	 4.48033611	 -20.38049229
Pt	 32.07662660	 4.48033611	 -17.46899339
Pt	 32.07662660	 4.48033611	 -14.55749449
Pt	 32.07662660	 4.48033611	 -11.64599560
Pt	 32.07662660	 4.48033611	 -8.73449670
Pt	 32.07662660	 4.48033611	 -5.82299780
Pt	 32.07662660	 4.48033611	 -2.91149890
Pt	 32.07662660	 4.48033611	 -0.00000000
Pt	 32.07662660	 4.48033611	 2.91149890
Pt	 32.07662660	 4.48033611	 5.82299780
Pt	 32.07662660	 4.48033611	 8.73449670
Pt	 32.07662660	 4.48033611	 11.64599560
Pt	 32.07662660	 4.48033611	 14.55749449
Pt	 32.07662660	 4.48033611	 17.46899339
Pt	 32.07662660	 4.48033611	 20.38049229
Pt	 32.07662660	 4.48033611	 23.29199119
Pt	 32.07662660	 4.48033611	 26.20349009
Pt	 32.07662660	 4.48033611	 29.11498899
Pt	 32.07662660	 4.48033611	 32.02648789
Pt	 32.07662660	 4.48033611	 34.93798679
Pt	 32.07662660	 4.48033611	 37.84948569
Pt	 32.07662660	 4.48033611	 40.76098458
Pt	 32.07662660	 4.48033611	 43.67248348
Pt	 32.07662660	 4.48033611	 46.58398238
Pt	 32.07662660	 4.48033611	 49.49548128
Pt	 32.07662660	 4.48033611	 52.40698018
Pt	 32.07662660	 4.48033611	 55.31847908
Pt	 32.07662660	 4.48033611	 58.22997798
Pt	 32.07662660	 4.48033611	 61.14147688
Pt	 32.07662660	 4.48033611	 64.05297578
Pt	 25.73814506	 6.72050417	 -66.96447468
Pt	 25.73814506	 6.72050417	 -64.05297578
Pt	 25.73814506	 6.72050417	 -61.14147688
Pt	 25.73814506	 6.72050417	 -58.22997798
Pt	 25.73814506	 6.72050417	 -55.31847908
Pt	 25.73814506	 6.72050417	 -52.40698018
Pt	 25.73814506	 6.72050417	 -49.49548128
Pt	 25.73814506	 6.72050417	 -46.58398238
Pt	 25.73814506	 6.72050417	 -43.67248348
Pt	 25.73814506	 6.72050417	 -40.76098458
Pt	 25.73814506	 6.72050417	 -37.84948569
Pt	 25.73814506	 6.72050417	 -34.93798679
Pt	 25.73814506	 6.72050417	 -32.02648789
Pt	 25.73814506	 6.72050417	 -29.11498899
Pt	 25.73814506	 6.72050417	 -26.20349009
Pt	 25.73814506	 6.72050417	 -23.29199119
Pt	 25.73814506	 6.72050417	 -20.38049229
Pt	 25.73814506	 6.72050417	 -17.46899339
Pt	 25.73814506	 6.72050417	 -14.55749449
Pt	 25.73814506	 6.72050417	 -11.64599560
Pt	 25.73814506	 6.72050417	 -8.73449670
Pt	 25.73814506	 6.72050417	 -5.82299780
Pt	 25.73814506	 6.72050417	 -2.91149890
Pt	 25.73814506	 6.72050417	 -0.00000000
Pt	 25.73814506	 6.72050417	 2.91149890
Pt	 25.73814506	 6.72050417	 5.82299780
Pt	 25.73814506	 6.72050417	 8.73449670
Pt	 25.73814506	 6.72050417	 11.64599560
Pt	 25.73814506	 6.72050417	 14.55749449
Pt	 25.73814506	 6.72050417	 17.46899339
Pt	 25.73814506	 6.72050417	 20.38049229
Pt	 25.73814506	 6.72050417	 23.29199119
Pt	 25.73814506	 6.72050417	 26.20349009
Pt	 25.73814506	 6.72050417	 29.11498899
Pt	 25.73814506	 6.72050417	 32.02648789
Pt	 25.73814506	 6.72050417	 34.93798679
Pt	 25.73814506	 6.72050417	 37.84948569
Pt	 25.73814506	 6.72050417	 40.76098458
Pt	 25.73814506	 6.72050417	 43.67248348
Pt	 25.73814506	 6.72050417	 46.58398238
Pt	 25.73814506	 6.72050417	 49.49548128
Pt	 25.73814506	 6.72050417	 52.40698018
Pt	 25.73814506	 6.72050417	 55.31847908
Pt	 25.73814506	 6.72050417	 58.22997798
Pt	 25.73814506	 6.72050417	 61.14147688
Pt	 25.73814506	 6.72050417	 64.05297578
Pt	 25.73814506	 6.72050417	 66.96447468
Pt	 19.39966352	 8.96067223	 -69.87597357
Pt	 19.39966352	 8.96067223	 -66.96447468
Pt	 19.39966352	 8.96067223	 -64.05297578
Pt	 19.39966352	 8.96067223	 -61.14147688
Pt	 19.39966352	 8.96067223	 -58.22997798
Pt	 19.39966352	 8.96067223	 -55.31847908
Pt	 19.39966352	 8.96067223	 -52.40698018
Pt	 19.39966352	 8.96067223	 -49.49548128
Pt	 19.39966352	 8.96067223	 -46.58398238
Pt	 19.39966352	 8.96067223	 -43.67248348
Pt	 19.39966352	 8.96067223	 -40.76098458
Pt	 19.39966352	 8.96067223	 -37.84948569
Pt	 19.39966352	 8.96067223	 -34.93798679
Pt	 19.39966352	 8.96067223	 -32.02648789
Pt	 19.39966352	 8.96067223	 -29.11498899
Pt	 19.39966352	 8.96067223	 -26.20349009
Pt	 19.39966352	 8.96067223	 -23.29199119
Pt	 19.39966352	 8.96067223	 -20.38049229
Pt	 19.39966352	 8.96067223	 -17.46899339
Pt	 19.39966352	 8.96067223	 -14.55749449
Pt	 19.39966352	 8.96067223	 -11.64599560
Pt	 19.39966352	 8.96067223	 -8.73449670
Pt	 19.39966352	 8.96067223	 -5.82299780
Pt	 19.39966352	 8.96067223	 -2.91149890
Pt	 19.39966352	 8.96067223	 0.00000000
Pt	 19.39966352	 8.96067223	 2.91149890
Pt	 19.39966352	 8.96067223	 5.82299780
Pt	 19.39966352	 8.96067223	 8.73449670
Pt	 19.39966352	 8.96067223	 11.64599560
Pt	 19.39966352	 8.96067223	 14.55749449
Pt	 19.39966352	 8.96067223	 17.46899339
Pt	 19.39966352	 8.96067223	 20.38049229
Pt	 19.39966352	 8.96067223	 23.29199119
Pt	 19.39966352	 8.96067223	 26.20349009
Pt	 19.39966352	 8.96067223	 29.11498899
Pt	 19.39966352	 8.96067223	 32.02648789
Pt	 19.39966352	 8.96067223	 34.93798679
Pt	 19.39966352	 8.96067223	 37.84948569
Pt	 19.39966352	 8.96067223	 40.76098458
Pt	 19.39966352	 8.96067223	 43.67248348
Pt	 19.39966352	 8.96067223	 46.58398238
Pt	 19.39966352	 8.96067223	 49.49548128
Pt	 19.39966352	 8.96067223	 52.40698018
Pt	 19.39966352	 8.96067223	 55.31847908
Pt	 19.39966352	 8.96067223	 58.22997798
Pt	 19.39966352	 8.96067223	 61.14147688
Pt	 19.39966352	 8.96067223	 64.05297578
Pt	 19.39966352	 8.96067223	 66.96447468
Pt	 19.39966352	 8.96067223	 69.87597357
Pt	 47.10904177	 0.00000000	 -56.77422853
Pt	 47.10904177	 0.00000000	 -53.86272963
Pt	 47.10904177	 0.00000000	 -50.95123073
Pt	 47.10904177	 0.00000000	 -48.03973183
Pt	 47.10904177	 0.00000000	 -45.12823293
Pt	 47.10904177	 0.00000000	 -42.21673403
Pt	 47.10904177	 0.00000000	 -39.30523514
Pt	 47.10904177	 0.00000000	 -36.39373624
Pt	 47.10904177	 0.00000000	 -33.48223734
Pt	 47.10904177	 0.00000000	 -30.57073844
Pt	 47.10904177	 0.00000000	 -27.65923954
Pt	 47.10904177	 0.00000000	 -24.74774064
Pt	 47.10904177	 0.00000000	 -21.83624174
Pt	 47.10904177	 0.00000000	 -18.92474284
Pt	 47.10904177	 0.00000000	 -16.01324394
Pt	 47.10904177	 0.00000000	 -13.10174505
Pt	 47.10904177	 0.00000000	 -10.19024615
Pt	 47.10904177	 0.00000000	 -7.27874725
Pt	 47.10904177	 0.00000000	 -4.36724835
Pt	 47.10904177	 0.00000000	 -1.45574945
Pt	 47.10904177	 0.00000000	 1.45574945
Pt	 47.10904177	 0.00000000	 4.36724835
Pt	 47.10904177	 0.00000000	 7.27874725
Pt	 47.10904177	 0.00000000	 10.19024615
Pt	 47.10904177	 0.00000000	 13.10174505
Pt	 47.10904177	 0.00000000	 16.01324394
Pt	 47.10904177	 0.00000000	 18.92474284
Pt	 47.10904177	 0.00000000	 21.83624174
Pt	 47.10904177	 0.00000000	 24.74774064
Pt	 47.10904177	 0.00000000	 27.65923954
Pt	 47.10904177	 0.00000000	 30.57073844
Pt	 47.10904177	 0.00000000	 33.48223734
Pt	 47.10904177	 0.00000000	 36.39373624
Pt	 47.10904177	 0.00000000	 39.30523514
Pt	 47.10904177	 0.00000000	 42.21673403
Pt	 47.10904177	 0.00000000	 45.12823293
Pt	 47.10904177	 0.00000000	 48.03973183
Pt	 47.10904177	 0.00000000	 50.95123073
Pt	 47.10904177	 0.00000000	 53.86272963
Pt	 47.10904177	 0.00000000	 56.77422853
Pt	 40.77056023	 2.24016806	 -59.68572743
Pt	 40.77056023	 2.24016806	 -56.77422853
Pt	 40.77056023	 2.24016806	 -53.86272963
Pt	 40.77056023	 2.24016806	 -50.95123073
Pt	 40.77056023	 2.24016806	 -48.03973183
Pt	 40.77056023	 2.24016806	 -45.12823293
Pt	 40.77056023	 2.24016806	 -42.21673403
Pt	 40.77056023	 2.24016806	 -39.30523514
Pt	 40.77056023	 2.24016806	 -36.39373624
Pt	 40.77056023	 2.24016806	 -33.48223734
Pt	 40.77056023	 2.24016806	 -30.57073844
Pt	 40.77056023	 2.24016806	 -27.65923954
Pt	 40.77056023	 2.24016806	 -24.74774064
Pt	 40.77056023	 2.24016806	 -21.83624174
Pt	 40.77056023	 2.24016806	 -18.92474284
Pt	 40.77056023	 2.24016806	 -16.01324394
Pt	 40.77056023	 2.24016806	 -13.10174505
Pt	 40.77056023	 2.24016806	 -10.19024615
Pt	 40.77056023	 2.24016806	 -7.27874725
Pt	 40.77056023	 2.24016806	 -4.36724835
Pt	 40.77056023	 2.24016806	 -1.45574945
Pt	 40.77056023	 2.24016806	 1.45574945
Pt	 40.77056023	 2.24016806	 4.36724835
Pt	 40.77056023	 2.24016806	 7.27874725
Pt	 40.77056023	 2.24016806	 10.19024615
Pt	 40.77056023	 2.24016806	 13.10174505
Pt	 40.77056023	 2.24016806	 16.01324394
Pt	 40.77056023	 2.24016806	 18.92474284
Pt	 40.77056023	 2.24016806	 21.83624174
Pt	 40.77056023	 2.24016806	 24.74774064
Pt	 40.77056023	 2.24016806	 27.65923954
Pt	 40.77056023	 2.24016806	 30.57073844
Pt	 40.77056023	 2.24016806	 33.48223734
Pt	 40.77056023	 2.24016806	 36.39373624
Pt	 40.77056023	 2.24016806	 39.30523514
Pt	 40.77056023	 2.24016806	 42.21673403
Pt	 40.77056023	 2.24016806	 45.12823293
Pt	 40.77056023	 2.24016806	 48.03973183
Pt	 40.77056023	 2.24016806	 50.95123073
Pt	 40.77056023	 2.24016806	 53.86272963
Pt	 40.77056023	 2.24016806	 56.77422853
Pt	 40.77056023	 2.24016806	 59.68572743
Pt	 34.43207869	 4.48033611	 -62.59722633
Pt	 34.43207869	 4.48033611	 -59.68572743
Pt	 34.43207869	 4.48033611	 -56.77422853
Pt	 34.43207869	 4.48033611	 -53.86272963
Pt	 34.43207869	 4.48033611	 -50.95123073
Pt	 34.43207869	 4.48033611	 -48.03973183
Pt	 34.43207869	 4.48033611	 -45.12823293
Pt	 34.43207869	 4.48033611	 -42.21673403
Pt	 34.43207869	 4.48033611	 -39.30523514
Pt	 34.43207869	 4.48033611	 -36.39373624
Pt	 34.43207869	 4.48033611	 -33.48223734
Pt	 34.43207869	 4.48033611	 -30.57073844
Pt	 34.43207869	 4.48033611	 -27.65923954
Pt	 34.43207869	 4.48033611	 -24.74774064
Pt	 34.43207869	 4.48033611	 -21.83624174
Pt	 34.43207869	 4.48033611	 -18.92474284
Pt	 34.43207869	 4.48033611	 -16.01324394
Pt	 34.43207869	 4.48033611	 -13.10174505
Pt	 34.43207869	 4.48033611	 -10.19024615
Pt	 34.43207869	 4.48033611	 -7.27874725
Pt	 34.43207869	 4.48033611	 -4.36724835
Pt	 34.43207869	 4.48033611	 -1.45574945
Pt	 34.43207869	 4.48033611	 1.45574945
Pt	 34.43207869	 4.48033611	 4.36724835
Pt	 34.43207869	 4.48033611	 7.27874725
Pt	 34.43207869	 4.48033611	 10.19024615
Pt	 34.43207869	 4.48033611	 13.10174505
Pt	 34.43207869	 4.48033611	 16.01324394
Pt	 34.43207869	 4.48033611	 18.92474284
Pt	 34.43207869	 4.48033611	 21.83624174
Pt	 34.43207869	 4.48033611	 24.74774064
Pt	 34.43207869	 4.48033611	 27.65923954
Pt	 34.43207869	 4.48033611	 30.57073844
Pt	 34.43207869	 4.48033611	 33.48223734
Pt	 34.43207869	 4.48033611	 36.39373624
Pt	 34.43207869	 4.48033611	 39.30523514
Pt	 34.43207869	 4.48033611	 42.21673403
Pt	 34.43207869	 4.48033611	 45.12823293
Pt	 34.43207869	 4.48033611	 48.03973183
Pt	 34.43207869	 4.48033611	 50.95123073
Pt	 34.43207869	 4.48033611	 53.86272963
Pt	 34.43207869	 4.48033611	 56.77422853
Pt	 34.43207869	 4.48033611	 59.68572743
Pt	 34.43207869	 4.48033611	 62.59722633
Pt	 28.09359715	 6.72050417	 -65.50872523
Pt	 28.09359715	 6.72050417	 -62.59722633
Pt	 28.09359715	 6.72050417	 -59.68572743
Pt	 28.09359715	 6.72050417	 -56.77422853
Pt	 28.09359715	 6.72050417	 -53.86272963
Pt	 28.09359715	 6.72050417	 -50.95123073
Pt	 28.09359715	 6.72050417	 -48.03973183
Pt	 28.09359715	 6.72050417	 -45.12823293
Pt	 28.09359715	 6.72050417	 -42.21673403
Pt	 28.09359715	 6.72050417	 -39.30523514
Pt	 28.09359715	 6.72050417	 -36.39373624
Pt	 28.09359715	 6.72050417	 -33.48223734
Pt	 28.09359715	 6.72050417	 -30.57073844
Pt	 28.09359715	 6.72050417	 -27.65923954
Pt	 28.09359715	 6.72050417	 -24.74774064
Pt	 28.09359715	 6.72050417	 -21.83624174
Pt	 28.09359715	 6.72050417	 -18.92474284
Pt	 28.09359715	 6.72050417	 -16.01324394
Pt	 28.09359715	 6.72050417	 -13.10174505
Pt	 28.09359715	 6.72050417	 -10.19024615
Pt	 28.09359715	 6.72050417	 -7.27874725
Pt	 28.09359715	 6.72050417	 -4.36724835
Pt	 28.09359715	 6.72050417	 -1.45574945
Pt	 28.09359715	 6.72050417	 1.45574945
Pt	 28.09359715	 6.72050417	 4.36724835
Pt	 28.09359715	 6.72050417	 7.27874725
Pt	 28.09359715	 6.72050417	 10.19024615
Pt	 28.09359715	 6.72050417	 13.10174505
Pt	 28.09359715	 6.72050417	 16.01324394
Pt	 28.09359715	 6.72050417	 18.92474284
Pt	 28.09359715	 6.72050417	 21.83624174
Pt	 28.09359715	 6.72050417	 24.74774064
Pt	 28.09359715	 6.72050417	 27.65923954
Pt	 28.09359715	 6.72050417	 30.57073844
Pt	 28.09359715	 6.72050417	 33.48223734
Pt	 28.09359715	 6.72050417	 36.39373624
Pt	 28.09359715	 6.72050417	 39.30523514
Pt	 28.09359715	 6.72050417	 42.21673403
Pt	 28.09359715	 6.72050417	 45.12823293
Pt	 28.09359715	 6.72050417	 48.03973183
Pt	 28.09359715	 6.72050417	 50.95123073
Pt	 28.09359715	 6.72050417	 53.86272963
Pt	 28.09359715	 6.72050417	 56.77422853
Pt	 28.09359715	 6.72050417	 59.68572743
Pt	 28.09359715	 6.72050417	 62.59722633
Pt	 28.09359715	 6.72050417	 65.50872523
Pt	 21.75511561	 8.96067223	 -68.42022412
Pt	 21.75511561	 8.96067223	 -65.50872523
Pt	 21.75511561	 8.96067223	 -62.59722633
Pt	 21.75511561	 8.96067223	 -59.68572743
Pt	 21.75511561	 8.96067223	 -56.77422853
Pt	 21.75511561	 8.96067223	 -53.86272963
Pt	 21.75511561	 8.96067223	 -50.95123073
Pt	 21.75511561	 8.96067223	 -48.03973183
Pt	 21.75511561	 8.96067223	 -45.12823293
Pt	 21.75511561	 8.96067223	 -42.21673403
Pt	 21.75511561	 8.96067223	 -39.30523514
Pt	 21.75511561	 8.96067223	 -36.39373624
Pt	 21.75511561	 8.96067223	 -33.48223734
Pt	 21.75511561	 8.96067223	 -30.57073844
Pt	 21.75511561	 8.96067223	 -27.65923954
Pt	 21.75511561	 8.96067223	 -24.74774064
Pt	 21.75511561	 8.96067223	 -21.83624174
Pt	 21.75511561	 8.96067223	 -18.92474284
Pt	 21.75511561	 8.96067223	 -16.01324394
Pt	 21.75511561	 8.96067223	 -13.10174505
Pt	 21.75511561	 8.96067223	 -10.19024615
Pt	 21.75511561	 8.96067223	 -7.27874725
Pt	 21.75511561	 8.96067223	 -4.36724835
Pt	 21.75511561	 8.96067223	 -1.45574945
Pt	 21.75511561	 8.96067223	 1.45574945
Pt	 21.75511561	 8.96067223	 4.36724835
Pt	 21.75511561	 8.96067223	 7.27874725
Pt	 21.75511561	 8.96067223	 10.19024615
Pt	 21.75511561	 8.96067223	 13.10174505
Pt	 21.75511561	 8.96067223	 16.01324394
Pt	 21.75511561	 8.96067223	 18.92474284
Pt	 21.75511561	 8.96067223	 21.83624174
Pt	 21.75511561	 8.96067223	 24.74774064
Pt	 21.75511561	 8.96067223	 27.65923954
Pt	 21.75511561	 8.96067223	 30.57073844
Pt	 21.75511561	 8.96067223	 33.48223734
Pt	 21.75511561	 8.96067223	 36.39373624
Pt	 21.75511561	 8.96067223	 39.30523514
Pt	 21.75511561	 8.96067223	 42.21673403
Pt	 21.75511561	 8.96067223	 45.12823293
Pt	 21.75511561	 8.96067223	 48.03973183
Pt	 21.75511561	 8.96067223	 50.95123073
Pt	 21.75511561	 8.96067223	 53.86272963
Pt	 21.75511561	 8.96067223	 56.77422853
Pt	 21.75511561	 8.96067223	 59.68572743
Pt	 21.75511561	 8.96067223	 62.59722633
Pt	 21.75511561	 8.96067223	 65.50872523
Pt	 21.75511561	 8.96067223	 68.42022412
Pt	 49.46449385	 0.00000000	 -55.31847908
Pt	 49.46449385	 0.00000000	 -52.40698018
Pt	 49.46449385	 0.00000000	 -49.49548128
Pt	 49.46449385	 0.00000000	 -46.58398238
Pt	 49.46449385	 0.00000000	 -43.67248348
Pt	 49.46449385	 0.00000000	 -40.76098458
Pt	 49.46449385	 0.00000000	 -37.84948569
Pt	 49.46449385	 0.00000000	 -34.93798679
Pt	 49.46449385	 0.00000000	 -32.02648789
Pt	 49.46449385	 0.00000000	 -29.11498899
Pt	 49.46449385	 0.00000000	 -26.20349009
Pt	 49.46449385	 0.00000000	 -23.29199119
Pt	 49.46449385	 0.00000000	 -20.38049229
Pt	 49.46449385	 0.00000000	 -17.46899339
Pt	 49.46449385	 0.00000000	 -14.55749449
Pt	 49.46449385	 0.00000000	 -11.64599560
Pt	 49.46449385	 0.00000000	 -8.73449670
Pt	 49.46449385	 0.00000000	 -5.82299780
Pt	 49.46449385	 0.00000000	 -2.91149890
Pt	 49.46449385	 0.00000000	 -0.00000000
Pt	 49.46449385	 0.00000000	 2.91149890
Pt	 49.46449385	 0.00000000	 5.82299780
Pt	 49.46449385	 0.00000000	 8.73449670
Pt	 49.46449385	 0.00000000	 11.64599560
Pt	 49.46449385	 0.00000000	 14.55749449
Pt	 49.46449385	 0.00000000	 17.46899339
Pt	 49.46449385	 0.00000000	 20.38049229
Pt	 49.46449385	 0.00000000	 23.29199119
Pt	 49.46449385	 0.00000000	 26.20349009
Pt	 49.46449385	 0.00000000	 29.11498899
Pt	 49.46449385	 0.00000000	 32.02648789
Pt	 49.46449385	 0.00000000	 34.93798679
Pt	 49.46449385	 0.00000000	 37.84948569
Pt	 49.46449385	 0.00000000	 40.76098458
Pt	 49.46449385	 0.00000000	 43.67248348
Pt	 49.46449385	 0.00000000	 46.58398238
Pt	 49.46449385	 0.00000000	 49.49548128
Pt	 49.46449385	 0.00000000	 52.40698018
Pt	 49.46449385	 0.00000000	 55.31847908
Pt	 43.12601231	 2.24016806	 -58.22997798
Pt	 43.12601231	 2.24016806	 -55.31847908
Pt	 43.12601231	 2.24016806	 -52.40698018
Pt	 43.12601231	 2.24016806	 -49.49548128
Pt	 43.12601231	 2.24016806	 -46.58398238
Pt	 43.12601231	 2.24016806	 -43.67248348
Pt	 43.12601231	 2.24016806	 -40.76098458
Pt	 43.12601231	 2.24016806	 -37.84948569
Pt	 43.12601231	 2.24016806	 -34.93798679
Pt	 43.12601231	 2.24016806	 -32.02648789
Pt	 43.12601231	 2.24016806	 -29.11498899
Pt	 43.12601231	 2.24016806	 -26.20349009
Pt	 43.12601231	 2.24016806	 -23.29199119
Pt	 43.12601231	 2.24016806	 -20.38049229
Pt	 43.12601231	 2.24016806	 -17.46899339
Pt	 43.12601231	 2.24016806	 -14.55749449
Pt	 43.12601231	 2.24016806	 -11.64599560
Pt	 43.12601231	 2.24016806	 -8.73449670
Pt	 43.12601231	 2.24016806	 -5.82299780
Pt	 43.12601231	 2.24016806	 -2.91149890
Pt	 43.12601231	 2.24016806	 -0.00000000
Pt	 43.12601231	 2.24016806	 2.91149890
Pt	 43.12601231	 2.24016806	 5.82299780
Pt	 43.12601231	 2.24016806	 8.73449670
Pt	 43.12601231	 2.24016806	 11.64599560
Pt	 43.12601231	 2.24016806	 14.55749449
Pt	 43.12601231	 2.24016806	 17.46899339
Pt	 43.12601231	 2.24016806	 20.38049229
Pt	 43.12601231	 2.24016806	 23.29199119
Pt	 43.12601231	 2.24016806	 26.20349009
Pt	 43.12601231	 2.24016806	 29.11498899
Pt	 43.12601231	 2.24016806	 32.02648789
Pt	 43.12601231	 2.24016806	 34.93798679
Pt	 43.12601231	 2.24016806	 37.84948569
Pt	 43.12601231	 2.24016806	 40.76098458
Pt	 43.12601231	 2.24016806	 43.67248348
Pt	 43.12601231	 2.24016806	 46.58398238
Pt	 43.12601231	 2.24016806	 49.49548128
Pt	 43.12601231	 2.24016806	 52.40698018
Pt	 43.12601231	 2.24016806	 55.31847908
Pt	 43.12601231	 2.24016806	 58.22997798
Pt	 36.78753077	 4.48033611	 -61.14147688
Pt	 36.78753077	 4.48033611	 -58.22997798
Pt	 36.78753077	 4.48033611	 -55.31847908
Pt	 36.78753077	 4.48033611	 -52.40698018
Pt	 36.78753077	 4.48033611	 -49.49548128
Pt	 36.78753077	 4.48033611	 -46.58398238
Pt	 36.78753077	 4.48033611	 -43.67248348
Pt	 36.78753077	 4.48033611	 -40.76098458
Pt	 36.78753077	 4.48033611	 -37.84948569
Pt	 36.78753077	 4.48033611	 -34.93798679
Pt	 36.78753077	 4.48033611	 -32.02648789
Pt	 36.78753077	 4.48033611	 -29.11498899
Pt	 36.78753077	 4.48033611	 -26.20349009
Pt	 36.78753077	 4.48033611	 -23.29199119
Pt	 36.78753077	 4.48033611	 -20.38049229
Pt	 36.78753077	 4.48033611	 -17.46899339
Pt	 36.78753077	 4.48033611	 -14.55749449
Pt	 36.78753077	 4.48033611	 -11.64599560
Pt	 36.78753077	 4.48033611	 -8.73449670
Pt	 36.78753077	 4.48033611	 -5.82299780
Pt	 36.78753077	 4.48033611	 -2.91149890
Pt	 36.78753077	 4.48033611	 0.00000000
Pt	 36.78753077	 4.48033611	 2.91149890
Pt	 36.78753077	 4.48033611	 5.82299780
Pt	 36.78753077	 4.48033611	 8.73449670
Pt	 36.78753077	 4.48033611	 11.64599560
Pt	 36.78753077	 4.48033611	 14.55749449
Pt	 36.78753077	 4.48033611	 17.46899339
Pt	 36.78753077	 4.48033611	 20.38049229
Pt	 36.78753077	 4.48033611	 23.29199119
Pt	 36.78753077	 4.48033611	 26.20349009
Pt	 36.78753077	 4.48033611	 29.11498899
Pt	 36.78753077	 4.48033611	 32.02648789
Pt	 36.78753077	 4.48033611	 34.93798679
Pt	 36.78753077	 4.48033611	 37.84948569
Pt	 36.78753077	 4.48033611	 40.76098458
Pt	 36.78753077	 4.48033611	 43.67248348
Pt	 36.78753077	 4.48033611	 46.58398238
Pt	 36.78753077	 4.48033611	 49.49548128
Pt	 36.78753077	 4.48033611	 52.40698018
Pt	 36.78753077	 4.48033611	 55.31847908
Pt	 36.78753077	 4.48033611	 58.22997798
Pt	 36.78753077	 4.48033611	 61.14147688
Pt	 30.44904923	 6.72050417	 -64.05297578
Pt	 30.44904923	 6.72050417	 -61.14147688
Pt	 30.44904923	 6.72050417	 -58.22997798
Pt	 30.44904923	 6.72050417	 -55.31847908
Pt	 30.44904923	 6.72050417	 -52.40698018
Pt	 30.44904923	 6.72050417	 -49.49548128
Pt	 30.44904923	 6.72050417	 -46.58398238
Pt	 30.44904923	 6.72050417	 -43.67248348
Pt	 30.44904923	 6.72050417	 -40.76098458
Pt	 30.44904923	 6.72050417	 -37.84948569
Pt	 30.44904923	 6.72050417	 -34.93798679
Pt	 30.44904923	 6.72050417	 -32.02648789
Pt	 30.44904923	 6.72050417	 -29.11498899
Pt	 30.44904923	 6.72050417	 -26.20349009
Pt	 30.44904923	 6.72050417	 -23.29199119
Pt	 30.44904923	 6.72050417	 -20.38049229
Pt	 30.44904923	 6.72050417	 -17.46899339
Pt	 30.44904923	 6.72050417	 -14.55749449
Pt	 30.44904923	 6.72050417	 -11.64599560
Pt	 30.44904923	 6.72050417	 -8.73449670
Pt	 30.44904923	 6.72050417	 -5.82299780
Pt	 30.44904923	 6.72050417	 -2.91149890
Pt	 30.44904923	 6.72050417	 0.00000000
Pt	 30.44904923	 6.72050417	 2.91149890
Pt	 30.44904923	 6.72050417	 5.82299780
Pt	 30.44904923	 6.72050417	 8.73449670
Pt	 30.44904923	 6.72050417	 11.64599560
Pt	 30.44904923	 6.72050417	 14.55749449
Pt	 30.44904923	 6.72050417	 17.46899339
Pt	 30.44904923	 6.72050417	 20.38049229
Pt	 30.44904923	 6.72050417	 23.29199119
Pt	 30.44904923	 6.72050417	 26.20349009
Pt	 30.44904923	 6.72050417	 29.11498899
Pt	 30.44904923	 6.72050417	 32.02648789
Pt	 30.44904923	 6.72050417	 34.93798679
Pt	 30.44904923	 6.72050417	 37.84948569
Pt	 30.44904923	 6.72050417	 40.76098458
Pt	 30.44904923	 6.72050417	 43.67248348
Pt	 30.44904923	 6.72050417	 46.58398238
Pt	 30.44904923	 6.72050417	 49.49548128
Pt	 30.44904923	 6.72050417	 52.40698018
Pt	 30.44904923	 6.72050417	 55.31847908
Pt	 30.44904923	 6.72050417	 58.22997798
Pt	 30.44904923	 6.72050417	 61.14147688
Pt	 30.44904923	 6.72050417	 64.05297578
Pt	 24.11056769	 8.96067223	 -66.96447468
Pt	 24.11056769	 8.96067223	 -64.05297578
Pt	 24.11056769	 8.96067223	 -61.14147688
Pt	 24.11056769	 8.96067223	 -58.22997798
Pt	 24.11056769	 8.96067223	 -55.31847908
Pt	 24.11056769	 8.96067223	 -52.40698018
Pt	 24.11056769	 8.96067223	 -49.49548128
Pt	 24.11056769	 8.96067223	 -46.58398238
Pt	 24.11056769	 8.96067223	 -43.67248348
Pt	 24.11056769	 8.96067223	 -40.76098458
Pt	 24.11056769	 8.96067223	 -37.84948569
Pt	 24.11056769	 8.96067223	 -34.93798679
Pt	 24.11056769	 8.96067223	 -32.02648789
Pt	 24.11056769	 8.96067223	 -29.11498899
Pt	 24.11056769	 8.96067223	 -26.20349009
Pt	 24.11056769	 8.96067223	 -23.29199119
Pt	 24.11056769	 8.96067223	 -20.38049229
Pt	 24.11056769	 8.96067223	 -17.46899339
Pt	 24.11056769	 8.96067223	 -14.55749449
Pt	 24.11056769	 8.96067223	 -11.64599560
Pt	 24.11056769	 8.96067223	 -8.73449670
Pt	 24.11056769	 8.96067223	 -5.82299780
Pt	 24.11056769	 8.96067223	 -2.91149890
Pt	 24.11056769	 8.96067223	 0.00000000
Pt	 24.11056769	 8.96067223	 2.91149890
Pt	 24.11056769	 8.96067223	 5.82299780
Pt	 24.11056769	 8.96067223	 8.73449670
Pt	 24.11056769	 8.96067223	 11.64599560
Pt	 24.11056769	 8.96067223	 14.55749449
Pt	 24.11056769	 8.96067223	 17.46899339
Pt	 24.11056769	 8.96067223	 20.38049229
Pt	 24.11056769	 8.96067223	 23.29199119
Pt	 24.11056769	 8.96067223	 26.20349009
Pt	 24.11056769	 8.96067223	 29.11498899
Pt	 24.11056769	 8.96067223	 32.02648789
Pt	 24.11056769	 8.96067223	 34.93798679
Pt	 24.11056769	 8.96067223	 37.84948569
Pt	 24.11056769	 8.96067223	 40.76098458
Pt	 24.11056769	 8.96067223	 43.67248348
Pt	 24.11056769	 8.96067223	 46.58398238
Pt	 24.11056769	 8.96067223	 49.49548128
Pt	 24.11056769	 8.96067223	 52.40698018
Pt	 24.11056769	 8.96067223	 55.31847908
Pt	 24.11056769	 8.96067223	 58.22997798
Pt	 24.11056769	 8.96067223	 61.14147688
Pt	 24.11056769	 8.96067223	 64.05297578
Pt	 24.11056769	 8.96067223	 66.96447468
Pt	 51.81994594	 0.00000000	 -53.86272963
Pt	 51.81994594	 0.00000000	 -50.95123073
Pt	 51.81994594	 0.00000000	 -48.03973183
Pt	 51.81994594	 0.00000000	 -45.12823293
Pt	 51.81994594	 0.00000000	 -42.21673403
Pt	 51.81994594	 0.00000000	 -39.30523514
Pt	 51.81994594	 0.00000000	 -36.39373624
Pt	 51.81994594	 0.00000000	 -33.48223734
Pt	 51.81994594	 0.00000000	 -30.57073844
Pt	 51.81994594	 0.00000000	 -27.65923954
Pt	 51.81994594	 0.00000000	 -24.74774064
Pt	 51.81994594	 0.00000000	 -21.83624174
Pt	 51.81994594	 0.00000000	 -18.92474284
Pt	 51.81994594	 0.00000000	 -16.01324394
Pt	 51.81994594	 0.00000000	 -13.10174505
Pt	 51.81994594	 0.00000000	 -10.19024615
Pt	 51.81994594	 0.00000000	 -7.27874725
Pt	 51.81994594	 0.00000000	 -4.36724835
Pt	 51.81994594	 0.00000000	 -1.45574945
Pt	 51.81994594	 0.00000000	 1.45574945
Pt	 51.81994594	 0.00000000	 4.36724835
Pt	 51.81994594	 0.00000000	 7.27874725
Pt	 51.81994594	 0.00000000	 10.19024615
Pt	 51.81994594	 0.00000000	 13.10174505
Pt	 51.81994594	 0.00000000	 16.01324394
Pt	 51.81994594	 0.00000000	 18.92474284
Pt	 51.81994594	 0.00000000	 21.83624174
Pt	 51.81994594	 0.00000000	 24.74774064
Pt	 51.81994594	 0.00000000	 27.65923954
Pt	 51.81994594	 0.00000000	 30.57073844
Pt	 51.81994594	 0.00000000	 33.48223734
Pt	 51.81994594	 0.00000000	 36.39373624
Pt	 51.81994594	 0.00000000	 39.30523514
Pt	 51.81994594	 0.00000000	 42.21673403
Pt	 51.81994594	 0.00000000	 45.12823293
Pt	 51.81994594	 0.00000000	 48.03973183
Pt	 51.81994594	 0.00000000	 50.95123073
Pt	 51.81994594	 0.00000000	 53.86272963
Pt	 45.48146440	 2.24016806	 -56.77422853
Pt	 45.48146440	 2.24016806	 -53.86272963
Pt	 45.48146440	 2.24016806	 -50.95123073
Pt	 45.48146440	 2.24016806	 -48.03973183
Pt	 45.48146440	 2.24016806	 -45.12823293
Pt	 45.48146440	 2.24016806	 -42.21673403
Pt	 45.48146440	 2.24016806	 -39.30523514
Pt	 45.48146440	 2.24016806	 -36.39373624
Pt	 45.48146440	 2.24016806	 -33.48223734
Pt	 45.48146440	 2.24016806	 -30.57073844
Pt	 45.48146440	 2.24016806	 -27.65923954
Pt	 45.48146440	 2.24016806	 -24.74774064
Pt	 45.48146440	 2.24016806	 -21.83624174
Pt	 45.48146440	 2.24016806	 -18.92474284
Pt	 45.48146440	 2.24016806	 -16.01324394
Pt	 45.48146440	 2.24016806	 -13.10174505
Pt	 45.48146440	 2.24016806	 -10.19024615
Pt	 45.48146440	 2.24016806	 -7.27874725
Pt	 45.48146440	 2.24016806	 -4.36724835
Pt	 45.48146440	 2.24016806	 -1.45574945
Pt	 45.48146440	 2.24016806	 1.45574945
Pt	 45.48146440	 2.24016806	 4.36724835
Pt	 45.48146440	 2.24016806	 7.27874725
Pt	 45.48146440	 2.24016806	 10.19024615
Pt	 45.48146440	 2.24016806	 13.10174505
Pt	 45.48146440	 2.24016806	 16.01324394
Pt	 45.48146440	 2.24016806	 18.92474284
Pt	 45.48146440	 2.24016806	 21.83624174
Pt	 45.48146440	 2.24016806	 24.74774064
Pt	 45.48146440	 2.24016806	 27.65923954
Pt	 45.48146440	 2.24016806	 30.57073844
Pt	 45.48146440	 2.24016806	 33.48223734
Pt	 45.48146440	 2.24016806	 36.39373624
Pt	 45.48146440	 2.24016806	 39.30523514
Pt	 45.48146440	 2.24016806	 42.21673403
Pt	 45.48146440	 2.24016806	 45.12823293
Pt	 45.48146440	 2.24016806	 48.03973183
Pt	 45.48146440	 2.24016806	 50.95123073
Pt	 45.48146440	 2.24016806	 53.86272963
Pt	 45.48146440	 2.24016806	 56.77422853
Pt	 39.14298286	 4.48033611	 -59.68572743
Pt	 39.14298286	 4.48033611	 -56.77422853
Pt	 39.14298286	 4.48033611	 -53.86272963
Pt	 39.14298286	 4.48033611	 -50.95123073
Pt	 39.14298286	 4.48033611	 -48.03973183
Pt	 39.14298286	 4.48033611	 -45.12823293
Pt	 39.14298286	 4.48033611	 -42.21673403
Pt	 39.14298286	 4.48033611	 -39.30523514
Pt	 39.14298286	 4.48033611	 -36.39373624
Pt	 39.14298286	 4.48033611	 -33.48223734
Pt	 39.14298286	 4.48033611	 -30.57073844
Pt	 39.14298286	 4.48033611	 -27.65923954
Pt	 39.14298286	 4.48033611	 -24.74774064
Pt	 39.14298286	 4.48033611	 -21.83624174
Pt	 39.14298286	 4.48033611	 -18.92474284
Pt	 39.14298286	 4.48033611	 -16.01324394
Pt	 39.14298286	 4.48033611	 -13.10174505
Pt	 39.14298286	 4.48033611	 -10.19024615
Pt	 39.14298286	 4.48033611	 -7.27874725
Pt	 39.14298286	 4.48033611	 -4.36724835
Pt	 39.14298286	 4.48033611	 -1.45574945
Pt	 39.14298286	 4.48033611	 1.45574945
Pt	 39.14298286	 4.48033611	 4.36724835
Pt	 39.14298286	 4.48033611	 7.27874725
Pt	 39.14298286	 4.48033611	 10.19024615
Pt	 39.14298286	 4.48033611	 13.10174505
Pt	 39.14298286	 4.48033611	 16.01324394
Pt	 39.14298286	 4.48033611	 18.92474284
Pt	 39.14298286	 4.48033611	 21.83624174
Pt	 39.14298286	 4.48033611	 24.74774064
Pt	 39.14298286	 4.48033611	 27.65923954
Pt	 39.14298286	 4.48033611	 30.57073844
Pt	 39.14298286	 4.48033611	 33.48223734
Pt	 39.14298286	 4.48033611	 36.39373624
Pt	 39.14298286	 4.48033611	 39.30523514
Pt	 39.14298286	 4.48033611	 42.21673403
Pt	 39.14298286	 4.48033611	 45.12823293
Pt	 39.14298286	 4.48033611	 48.03973183
Pt	 39.14298286	 4.48033611	 50.95123073
Pt	 39.14298286	 4.48033611	 53.86272963
Pt	 39.14298286	 4.48033611	 56.77422853
Pt	 39.14298286	 4.48033611	 59.68572743
Pt	 32.80450132	 6.72050417	 -62.59722633
Pt	 32.80450132	 6.72050417	 -59.68572743
Pt	 32.80450132	 6.72050417	 -56.77422853
Pt	 32.80450132	 6.72050417	 -53.86272963
Pt	 32.80450132	 6.72050417	 -50.95123073
Pt	 32.80450132	 6.72050417	 -48.03973183
Pt	 32.80450132	 6.72050417	 -45.12823293
Pt	 32.80450132	 6.72050417	 -42.21673403
Pt	 32.80450132	 6.72050417	 -39.30523514
Pt	 32.80450132	 6.72050417	 -36.39373624
Pt	 32.80450132	 6.72050417	 -33.48223734
Pt	 32.80450132	 6.72050417	 -30.57073844
Pt	 32.80450132	 6.72050417	 -27.65923954
Pt	 32.80450132	 6.72050417	 -24.74774064
Pt	 32.80450132	 6.72050417	 -21.83624174
Pt	 32.80450132	 6.72050417	 -18.92474284
Pt	 32.80450132	 6.72050417	 -16.01324394
Pt	 32.80450132	 6.72050417	 -13.10174505
Pt	 32.80450132	 6.72050417	 -10.19024615
Pt	 32.80450132	 6.72050417	 -7.27874725
Pt	 32.80450132	 6.72050417	 -4.36724835
Pt	 32.80450132	 6.72050417	 -1.45574945
Pt	 32.80450132	 6.72050417	 1.45574945
Pt	 32.80450132	 6.72050417	 4.36724835
Pt	 32.80450132	 6.72050417	 7.27874725
Pt	 32.80450132	 6.72050417	 10.19024615
Pt	 32.80450132	 6.72050417	 13.10174505
Pt	 32.80450132	 6.72050417	 16.01324394
Pt	 32.80450132	 6.72050417	 18.92474284
Pt	 32.80450132	 6.72050417	 21.83624174
Pt	 32.80450132	 6.72050417	 24.74774064
Pt	 32.80450132	 6.72050417	 27.65923954
Pt	 32.80450132	 6.72050417	 30.57073844
Pt	 32.80450132	 6.72050417	 33.48223734
Pt	 32.80450132	 6.72050417	 36.39373624
Pt	 32.80450132	 6.72050417	 39.30523514
Pt	 32.80450132	 6.72050417	 42.21673403
Pt	 32.80450132	 6.72050417	 45.12823293
Pt	 32.80450132	 6.72050417	 48.03973183
Pt	 32.80450132	 6.72050417	 50.95123073
Pt	 32.80450132	 6.72050417	 53.86272963
Pt	 32.80450132	 6.72050417	 56.77422853
Pt	 32.80450132	 6.72050417	 59.68572743
Pt	 32.80450132	 6.72050417	 62.59722633
Pt	 26.46601978	 8.96067223	 -65.50872523
Pt	 26.46601978	 8.96067223	 -62.59722633
Pt	 26.46601978	 8.96067223	 -59.68572743
Pt	 26.46601978	 8.96067223	 -56.77422853
Pt	 26.46601978	 8.96067223	 -53.86272963
Pt	 26.46601978	 8.96067223	 -50.95123073
Pt	 26.46601978	 8.96067223	 -48.03973183
Pt	 26.46601978	 8.96067223	 -45.12823293
Pt	 26.46601978	 8.96067223	 -42.21673403
Pt	 26.46601978	 8.96067223	 -39.30523514
Pt	 26.46601978	 8.96067223	 -36.39373624
Pt	 26.46601978	 8.96067223	 -33.48223734
Pt	 26.46601978	 8.96067223	 -30.57073844
Pt	 26.46601978	 8.96067223	 -27.65923954
Pt	 26.46601978	 8.96067223	 -24.74774064
Pt	 26.46601978	 8.96067223	 -21.83624174
Pt	 26.46601978	 8.96067223	 -18.92474284
Pt	 26.46601978	 8.96067223	 -16.01324394
Pt	 26.46601978	 8.96067223	 -13.10174505
Pt	 26.46601978	 8.96067223	 -10.19024615
Pt	 26.46601978	 8.96067223	 -7.27874725
Pt	 26.46601978	 8.96067223	 -4.36724835
Pt	 26.46601978	 8.96067223	 -1.45574945
Pt	 26.46601978	 8.96067223	 1.45574945
Pt	 26.46601978	 8.96067223	 4.36724835
Pt	 26.46601978	 8.96067223	 7.27874725
Pt	 26.46601978	 8.96067223	 10.19024615
Pt	 26.46601978	 8.96067223	 13.10174505
Pt	 26.46601978	 8.96067223	 16.01324394
Pt	 26.46601978	 8.96067223	 18.92474284
Pt	 26.46601978	 8.96067223	 21.83624174
Pt	 26.46601978	 8.96067223	 24.74774064
Pt	 26.46601978	 8.96067223	 27.65923954
Pt	 26.46601978	 8.96067223	 30.57073844
Pt	 26.46601978	 8.96067223	 33.48223734
Pt	 26.46601978	 8.96067223	 36.39373624
Pt	 26.46601978	 8.96067223	 39.30523514
Pt	 26.46601978	 8.96067223	 42.21673403
Pt	 26.46601978	 8.96067223	 45.12823293
Pt	 26.46601978	 8.96067223	 48.03973183
Pt	 26.46601978	 8.96067223	 50.95123073
Pt	 26.46601978	 8.96067223	 53.86272963
Pt	 26.46601978	 8.96067223	 56.77422853
Pt	 26.46601978	 8.96067223	 59.68572743
Pt	 26.46601978	 8.96067223	 62.59722633
Pt	 26.46601978	 8.96067223	 65.50872523
Pt	 54.17539803	 0.00000000	 -52.40698018
Pt	 54.17539803	 0.00000000	 -49.49548128
Pt	 54.17539803	 0.00000000	 -46.58398238
Pt	 54.17539803	 0.00000000	 -43.67248348
Pt	 54.17539803	 0.00000000	 -40.76098458
Pt	 54.17539803	 0.00000000	 -37.84948569
Pt	 54.17539803	 0.00000000	 -34.93798679
Pt	 54.17539803	 0.00000000	 -32.02648789
Pt	 54.17539803	 0.00000000	 -29.11498899
Pt	 54.17539803	 0.00000000	 -26.20349009
Pt	 54.17539803	 0.00000000	 -23.29199119
Pt	 54.17539803	 0.00000000	 -20.38049229
Pt	 54.17539803	 0.00000000	 -17.46899339
Pt	 54.17539803	 0.00000000	 -14.55749449
Pt	 54.17539803	 0.00000000	 -11.64599560
Pt	 54.17539803	 0.00000000	 -8.73449670
Pt	 54.17539803	 0.00000000	 -5.82299780
Pt	 54.17539803	 0.00000000	 -2.91149890
Pt	 54.17539803	 0.00000000	 -0.00000000
Pt	 54.17539803	 0.00000000	 2.91149890
Pt	 54.17539803	 0.00000000	 5.82299780
Pt	 54.17539803	 0.00000000	 8.73449670
Pt	 54.17539803	 0.00000000	 11.64599560
Pt	 54.17539803	 0.00000000	 14.55749449
Pt	 54.17539803	 0.00000000	 17.46899339
Pt	 54.17539803	 0.00000000	 20.38049229
Pt	 54.17539803	 0.00000000	 23.29199119
Pt	 54.17539803	 0.00000000	 26.20349009
Pt	 54.17539803	 0.00000000	 29.11498899
Pt	 54.17539803	 0.00000000	 32.02648789
Pt	 54.17539803	 0.00000000	 34.93798679
Pt	 54.17539803	 0.00000000	 37.84948569
Pt	 54.17539803	 0.00000000	 40.76098458
Pt	 54.17539803	 0.00000000	 43.67248348
Pt	 54.17539803	 0.00000000	 46.58398238
Pt	 54.17539803	 0.00000000	 49.49548128
Pt	 54.17539803	 0.00000000	 52.40698018
Pt	 20.12753824	 11.20084029	 -68.42022412
Pt	 20.12753824	 11.20084029	 -65.50872523
Pt	 20.12753824	 11.20084029	 -62.59722633
Pt	 20.12753824	 11.20084029	 -59.68572743
Pt	 20.12753824	 11.20084029	 -56.77422853
Pt	 20.12753824	 11.20084029	 -53.86272963
Pt	 20.12753824	 11.20084029	 -50.95123073
Pt	 20.12753824	 11.20084029	 -48.03973183
Pt	 20.12753824	 11.20084029	 -45.12823293
Pt	 20.12753824	 11.20084029	 -42.21673403
Pt	 20.12753824	 11.20084029	 -39.30523514
Pt	 20.12753824	 11.20084029	 -36.39373624
Pt	 20.12753824	 11.20084029	 -33.48223734
Pt	 20.12753824	 11.20084029	 -30.57073844
Pt	 20.12753824	 11.20084029	 -27.65923954
Pt	 20.12753824	 11.20084029	 -24.74774064
Pt	 20.12753824	 11.20084029	 -21.83624174
Pt	 20.12753824	 11.20084029	 -18.92474284
Pt	 20.12753824	 11.20084029	 -16.01324394
Pt	 20.12753824	 11.20084029	 -13.10174505
Pt	 20.12753824	 11.20084029	 -10.19024615
Pt	 20.12753824	 11.20084029	 -7.27874725
Pt	 20.12753824	 11.20084029	 -4.36724835
Pt	 20.12753824	 11.20084029	 -1.45574945
Pt	 20.12753824	 11.20084029	 1.45574945
Pt	 20.12753824	 11.20084029	 4.36724835
Pt	 20.12753824	 11.20084029	 7.27874725
Pt	 20.12753824	 11.20084029	 10.19024615
Pt	 20.12753824	 11.20084029	 13.10174505
Pt	 20.12753824	 11.20084029	 16.01324394
Pt	 20.12753824	 11.20084029	 18.92474284
Pt	 20.12753824	 11.20084029	 21.83624174
Pt	 20.12753824	 11.20084029	 24.74774064
Pt	 20.12753824	 11.20084029	 27.65923954
Pt	 20.12753824	 11.20084029	 30.57073844
Pt	 20.12753824	 11.20084029	 33.48223734
Pt	 20.12753824	 11.20084029	 36.39373624
Pt	 20.12753824	 11.20084029	 39.30523514
Pt	 20.12753824	 11.20084029	 42.21673403
Pt	 20.12753824	 11.20084029	 45.12823293
Pt	 20.12753824	 11.20084029	 48.03973183
Pt	 20.12753824	 11.20084029	 50.95123073
Pt	 20.12753824	 11.20084029	 53.86272963
Pt	 20.12753824	 11.20084029	 56.77422853
Pt	 20.12753824	 11.20084029	 59.68572743
Pt	 20.12753824	 11.20084029	 62.59722633
Pt	 20.12753824	 11.20084029	 65.50872523
Pt	 20.12753824	 11.20084029	 68.42022412
Pt	 47.83691649	 2.24016806	 -55.31847908
Pt	 47.83691649	 2.24016806	 -52.40698018
Pt	 47.83691649	 2.24016806	 -49.49548128
Pt	 47.83691649	 2.24016806	 -46.58398238
Pt	 47.83691649	 2.24016806	 -43.67248348
Pt	 47.83691649	 2.24016806	 -40.76098458
Pt	 47.83691649	 2.24016806	 -37.84948569
Pt	 47.83691649	 2.24016806	 -34.93798679
Pt	 47.83691649	 2.24016806	 -32.02648789
Pt	 47.83691649	 2.24016806	 -29.11498899
Pt	 47.83691649	 2.24016806	 -26.20349009
Pt	 47.83691649	 2.24016806	 -23.29199119
Pt	 47.83691649	 2.24016806	 -20.38049229
Pt	 47.83691649	 2.24016806	 -17.46899339
Pt	 47.83691649	 2.24016806	 -14.55749449
Pt	 47.83691649	 2.24016806	 -11.64599560
Pt	 47.83691649	 2.24016806	 -8.73449670
Pt	 47.83691649	 2.24016806	 -5.82299780
Pt	 47.83691649	 2.24016806	 -2.91149890
Pt	 47.83691649	 2.24016806	 -0.00000000
Pt	 47.83691649	 2.24016806	 2.91149890
Pt	 47.83691649	 2.24016806	 5.82299780
Pt	 47.83691649	 2.24016806	 8.73449670
Pt	 47.83691649	 2.24016806	 11.64599560
Pt	 47.83691649	 2.24016806	 14.55749449
Pt	 47.83691649	 2.24016806	 17.46899339
Pt	 47.83691649	 2.24016806	 20.38049229
Pt	 47.83691649	 2.24016806	 23.29199119
Pt	 47.83691649	 2.24016806	 26.20349009
Pt	 47.83691649	 2.24016806	 29.11498899
Pt	 47.83691649	 2.24016806	 32.02648789
Pt	 47.83691649	 2.24016806	 34.93798679
Pt	 47.83691649	 2.24016806	 37.84948569
Pt	 47.83691649	 2.24016806	 40.76098458
Pt	 47.83691649	 2.24016806	 43.67248348
Pt	 47.83691649	 2.24016806	 46.58398238
Pt	 47.83691649	 2.24016806	 49.49548128
Pt	 47.83691649	 2.24016806	 52.40698018
Pt	 47.83691649	 2.24016806	 55.31847908
Pt	 41.49843495	 4.48033611	 -58.22997798
Pt	 41.49843495	 4.48033611	 -55.31847908
Pt	 41.49843495	 4.48033611	 -52.40698018
Pt	 41.49843495	 4.48033611	 -49.49548128
Pt	 41.49843495	 4.48033611	 -46.58398238
Pt	 41.49843495	 4.48033611	 -43.67248348
Pt	 41.49843495	 4.48033611	 -40.76098458
Pt	 41.49843495	 4.48033611	 -37.84948569
Pt	 41.49843495	 4.48033611	 -34.93798679
Pt	 41.49843495	 4.48033611	 -32.02648789
Pt	 41.49843495	 4.48033611	 -29.11498899
Pt	 41.49843495	 4.48033611	 -26.20349009
Pt	 41.49843495	 4.48033611	 -23.29199119
Pt	 41.49843495	 4.48033611	 -20.38049229
Pt	 41.49843495	 4.48033611	 -17.46899339
Pt	 41.49843495	 4.48033611	 -14.55749449
Pt	 41.49843495	 4.48033611	 -11.64599560
Pt	 41.49843495	 4.48033611	 -8.73449670
Pt	 41.49843495	 4.48033611	 -5.82299780
Pt	 41.49843495	 4.48033611	 -2.91149890
Pt	 41.49843495	 4.48033611	 -0.00000000
Pt	 41.49843495	 4.48033611	 2.91149890
Pt	 41.49843495	 4.48033611	 5.82299780
Pt	 41.49843495	 4.48033611	 8.73449670
Pt	 41.49843495	 4.48033611	 11.64599560
Pt	 41.49843495	 4.48033611	 14.55749449
Pt	 41.49843495	 4.48033611	 17.46899339
Pt	 41.49843495	 4.48033611	 20.38049229
Pt	 41.49843495	 4.48033611	 23.29199119
Pt	 41.49843495	 4.48033611	 26.20349009
Pt	 41.49843495	 4.48033611	 29.11498899
Pt	 41.49843495	 4.48033611	 32.02648789
Pt	 41.49843495	 4.48033611	 34.93798679
Pt	 41.49843495	 4.48033611	 37.84948569
Pt	 41.49843495	 4.48033611	 40.76098458
Pt	 41.49843495	 4.48033611	 43.67248348
Pt	 41.49843495	 4.48033611	 46.58398238
Pt	 41.49843495	 4.48033611	 49.49548128
Pt	 41.49843495	 4.48033611	 52.40698018
Pt	 41.49843495	 4.48033611	 55.31847908
Pt	 41.49843495	 4.48033611	 58.22997798
Pt	 35.15995341	 6.72050417	 -61.14147688
Pt	 35.15995341	 6.72050417	 -58.22997798
Pt	 35.15995341	 6.72050417	 -55.31847908
Pt	 35.15995341	 6.72050417	 -52.40698018
Pt	 35.15995341	 6.72050417	 -49.49548128
Pt	 35.15995341	 6.72050417	 -46.58398238
Pt	 35.15995341	 6.72050417	 -43.67248348
Pt	 35.15995341	 6.72050417	 -40.76098458
Pt	 35.15995341	 6.72050417	 -37.84948569
Pt	 35.15995341	 6.72050417	 -34.93798679
Pt	 35.15995341	 6.72050417	 -32.02648789
Pt	 35.15995341	 6.72050417	 -29.11498899
Pt	 35.15995341	 6.72050417	 -26.20349009
Pt	 35.15995341	 6.72050417	 -23.29199119
Pt	 35.15995341	 6.72050417	 -20.38049229
Pt	 35.15995341	 6.72050417	 -17.46899339
Pt	 35.15995341	 6.72050417	 -14.55749449
Pt	 35.15995341	 6.72050417	 -11.64599560
Pt	 35.15995341	 6.72050417	 -8.73449670
Pt	 35.15995341	 6.72050417	 -5.82299780
Pt	 35.15995341	 6.72050417	 -2.91149890
Pt	 35.15995341	 6.72050417	 -0.00000000
Pt	 35.15995341	 6.72050417	 2.91149890
Pt	 35.15995341	 6.72050417	 5.82299780
Pt	 35.15995341	 6.72050417	 8.73449670
Pt	 35.15995341	 6.72050417	 11.64599560
Pt	 35.15995341	 6.72050417	 14.55749449
Pt	 35.15995341	 6.72050417	 17.46899339
Pt	 35.15995341	 6.72050417	 20.38049229
Pt	 35.15995341	 6.72050417	 23.29199119
Pt	 35.15995341	 6.72050417	 26.20349009
Pt	 35.15995341	 6.72050417	 29.11498899
Pt	 35.15995341	 6.72050417	 32.02648789
Pt	 35.15995341	 6.72050417	 34.93798679
Pt	 35.15995341	 6.72050417	 37.84948569
Pt	 35.15995341	 6.72050417	 40.76098458
Pt	 35.15995341	 6.72050417	 43.67248348
Pt	 35.15995341	 6.72050417	 46.58398238
Pt	 35.15995341	 6.72050417	 49.49548128
Pt	 35.15995341	 6.72050417	 52.40698018
Pt	 35.15995341	 6.72050417	 55.31847908
Pt	 35.15995341	 6.72050417	 58.22997798
Pt	 35.15995341	 6.72050417	 61.14147688
Pt	 28.82147187	 8.96067223	 -64.05297578
Pt	 28.82147187	 8.96067223	 -61.14147688
Pt	 28.82147187	 8.96067223	 -58.22997798
Pt	 28.82147187	 8.96067223	 -55.31847908
Pt	 28.82147187	 8.96067223	 -52.40698018
Pt	 28.82147187	 8.96067223	 -49.49548128
Pt	 28.82147187	 8.96067223	 -46.58398238
Pt	 28.82147187	 8.96067223	 -43.67248348
Pt	 28.82147187	 8.96067223	 -40.76098458
Pt	 28.82147187	 8.96067223	 -37.84948569
Pt	 28.82147187	 8.96067223	 -34.93798679
Pt	 28.82147187	 8.96067223	 -32.02648789
Pt	 28.82147187	 8.96067223	 -29.11498899
Pt	 28.82147187	 8.96067223	 -26.20349009
Pt	 28.82147187	 8.96067223	 -23.29199119
Pt	 28.82147187	 8.96067223	 -20.38049229
Pt	 28.82147187	 8.96067223	 -17.46899339
Pt	 28.82147187	 8.96067223	 -14.55749449
Pt	 28.82147187	 8.96067223	 -11.64599560
Pt	 28.82147187	 8.96067223	 -8.73449670
Pt	 28.82147187	 8.96067223	 -5.82299780
Pt	 28.82147187	 8.96067223	 -2.91149890
Pt	 28.82147187	 8.96067223	 0.00000000
Pt	 28.82147187	 8.96067223	 2.91149890
Pt	 28.82147187	 8.96067223	 5.82299780
Pt	 28.82147187	 8.96067223	 8.73449670
Pt	 28.82147187	 8.96067223	 11.64599560
Pt	 28.82147187	 8.96067223	 14.55749449
Pt	 28.82147187	 8.96067223	 17.46899339
Pt	 28.82147187	 8.96067223	 20.38049229
Pt	 28.82147187	 8.96067223	 23.29199119
Pt	 28.82147187	 8.96067223	 26.20349009
Pt	 28.82147187	 8.96067223	 29.11498899
Pt	 28.82147187	 8.96067223	 32.02648789
Pt	 28.82147187	 8.96067223	 34.93798679
Pt	 28.82147187	 8.96067223	 37.84948569
Pt	 28.82147187	 8.96067223	 40.76098458
Pt	 28.82147187	 8.96067223	 43.67248348
Pt	 28.82147187	 8.96067223	 46.58398238
Pt	 28.82147187	 8.96067223	 49.49548128
Pt	 28.82147187	 8.96067223	 52.40698018
Pt	 28.82147187	 8.96067223	 55.31847908
Pt	 28.82147187	 8.96067223	 58.22997798
Pt	 28.82147187	 8.96067223	 61.14147688
Pt	 28.82147187	 8.96067223	 64.05297578
Pt	 56.53085012	 0.00000000	 -50.95123073
Pt	 56.53085012	 0.00000000	 -48.03973183
Pt	 56.53085012	 0.00000000	 -45.12823293
Pt	 56.53085012	 0.00000000	 -42.21673403
Pt	 56.53085012	 0.00000000	 -39.30523514
Pt	 56.53085012	 0.00000000	 -36.39373624
Pt	 56.53085012	 0.00000000	 -33.48223734
Pt	 56.53085012	 0.00000000	 -30.57073844
Pt	 56.53085012	 0.00000000	 -27.65923954
Pt	 56.53085012	 0.00000000	 -24.74774064
Pt	 56.53085012	 0.00000000	 -21.83624174
Pt	 56.53085012	 0.00000000	 -18.92474284
Pt	 56.53085012	 0.00000000	 -16.01324394
Pt	 56.53085012	 0.00000000	 -13.10174505
Pt	 56.53085012	 0.00000000	 -10.19024615
Pt	 56.53085012	 0.00000000	 -7.27874725
Pt	 56.53085012	 0.00000000	 -4.36724835
Pt	 56.53085012	 0.00000000	 -1.45574945
Pt	 56.53085012	 0.00000000	 1.45574945
Pt	 56.53085012	 0.00000000	 4.36724835
Pt	 56.53085012	 0.00000000	 7.27874725
Pt	 56.53085012	 0.00000000	 10.19024615
Pt	 56.53085012	 0.00000000	 13.10174505
Pt	 56.53085012	 0.00000000	 16.01324394
Pt	 56.53085012	 0.00000000	 18.92474284
Pt	 56.53085012	 0.00000000	 21.83624174
Pt	 56.53085012	 0.00000000	 24.74774064
Pt	 56.53085012	 0.00000000	 27.65923954
Pt	 56.53085012	 0.00000000	 30.57073844
Pt	 56.53085012	 0.00000000	 33.48223734
Pt	 56.53085012	 0.00000000	 36.39373624
Pt	 56.53085012	 0.00000000	 39.30523514
Pt	 56.53085012	 0.00000000	 42.21673403
Pt	 56.53085012	 0.00000000	 45.12823293
Pt	 56.53085012	 0.00000000	 48.03973183
Pt	 56.53085012	 0.00000000	 50.95123073
Pt	 22.48299033	 11.20084029	 -66.96447468
Pt	 22.48299033	 11.20084029	 -64.05297578
Pt	 22.48299033	 11.20084029	 -61.14147688
Pt	 22.48299033	 11.20084029	 -58.22997798
Pt	 22.48299033	 11.20084029	 -55.31847908
Pt	 22.48299033	 11.20084029	 -52.40698018
Pt	 22.48299033	 11.20084029	 -49.49548128
Pt	 22.48299033	 11.20084029	 -46.58398238
Pt	 22.48299033	 11.20084029	 -43.67248348
Pt	 22.48299033	 11.20084029	 -40.76098458
Pt	 22.48299033	 11.20084029	 -37.84948569
Pt	 22.48299033	 11.20084029	 -34.93798679
Pt	 22.48299033	 11.20084029	 -32.02648789
Pt	 22.48299033	 11.20084029	 -29.11498899
Pt	 22.48299033	 11.20084029	 -26.20349009
Pt	 22.48299033	 11.20084029	 -23.29199119
Pt	 22.48299033	 11.20084029	 -20.38049229
Pt	 22.48299033	 11.20084029	 -17.46899339
Pt	 22.48299033	 11.20084029	 -14.55749449
Pt	 22.48299033	 11.20084029	 -11.64599560
Pt	 22.48299033	 11.20084029	 -8.73449670
Pt	 22.48299033	 11.20084029	 -5.82299780
Pt	 22.48299033	 11.20084029	 -2.91149890
Pt	 22.48299033	 11.20084029	 -0.00000000
Pt	 22.48299033	 11.20084029	 2.91149890
Pt	 22.48299033	 11.20084029	 5.82299780
Pt	 22.48299033	 11.20084029	 8.73449670
Pt	 22.48299033	 11.20084029	 11.64599560
Pt	 22.48299033	 11.20084029	 14.55749449
Pt	 22.48299033	 11.20084029	 17.46899339
Pt	 22.48299033	 11.20084029	 20.38049229
Pt	 22.48299033	 11.20084029	 23.29199119
Pt	 22.48299033	 11.20084029	 26.20349009
Pt	 22.48299033	 11.20084029	 29.11498899
Pt	 22.48299033	 11.20084029	 32.02648789
Pt	 22.48299033	 11.20084029	 34.93798679
Pt	 22.48299033	 11.20084029	 37.84948569
Pt	 22.48299033	 11.20084029	 40.76098458
Pt	 22.48299033	 11.20084029	 43.67248348
Pt	 22.48299033	 11.20084029	 46.58398238
Pt	 22.48299033	 11.20084029	 49.49548128
Pt	 22.48299033	 11.20084029	 52.40698018
Pt	 22.48299033	 11.20084029	 55.31847908
Pt	 22.48299033	 11.20084029	 58.22997798
Pt	 22.48299033	 11.20084029	 61.14147688
Pt	 22.48299033	 11.20084029	 64.05297578
Pt	 22.48299033	 11.20084029	 66.96447468
Pt	 50.19236858	 2.24016806	 -53.86272963
Pt	 50.19236858	 2.24016806	 -50.95123073
Pt	 50.19236858	 2.24016806	 -48.03973183
Pt	 50.19236858	 2.24016806	 -45.12823293
Pt	 50.19236858	 2.24016806	 -42.21673403
Pt	 50.19236858	 2.24016806	 -39.30523514
Pt	 50.19236858	 2.24016806	 -36.39373624
Pt	 50.19236858	 2.24016806	 -33.48223734
Pt	 50.19236858	 2.24016806	 -30.57073844
Pt	 50.19236858	 2.24016806	 -27.65923954
Pt	 50.19236858	 2.24016806	 -24.74774064
Pt	 50.19236858	 2.24016806	 -21.83624174
Pt	 50.19236858	 2.24016806	 -18.92474284
Pt	 50.19236858	 2.24016806	 -16.01324394
Pt	 50.19236858	 2.24016806	 -13.10174505
Pt	 50.19236858	 2.24016806	 -10.19024615
Pt	 50.19236858	 2.24016806	 -7.27874725
Pt	 50.19236858	 2.24016806	 -4.36724835
Pt	 50.19236858	 2.24016806	 -1.45574945
Pt	 50.19236858	 2.24016806	 1.45574945
Pt	 50.19236858	 2.24016806	 4.36724835
Pt	 50.19236858	 2.24016806	 7.27874725
Pt	 50.19236858	 2.24016806	 10.19024615
Pt	 50.19236858	 2.24016806	 13.10174505
Pt	 50.19236858	 2.24016806	 16.01324394
Pt	 50.19236858	 2.24016806	 18.92474284
Pt	 50.19236858	 2.24016806	 21.83624174
Pt	 50.19236858	 2.24016806	 24.74774064
Pt	 50.19236858	 2.24016806	 27.65923954
Pt	 50.19236858	 2.24016806	 30.57073844
Pt	 50.19236858	 2.24016806	 33.48223734
Pt	 50.19236858	 2.24016806	 36.39373624
Pt	 50.19236858	 2.24016806	 39.30523514
Pt	 50.19236858	 2.24016806	 42.21673403
Pt	 50.19236858	 2.24016806	 45.12823293
Pt	 50.19236858	 2.24016806	 48.03973183
Pt	 50.19236858	 2.24016806	 50.95123073
Pt	 50.19236858	 2.24016806	 53.86272963
Pt	 43.85388704	 4.48033611	 -56.77422853
Pt	 43.85388704	 4.48033611	 -53.86272963
Pt	 43.85388704	 4.48033611	 -50.95123073
Pt	 43.85388704	 4.48033611	 -48.03973183
Pt	 43.85388704	 4.48033611	 -45.12823293
Pt	 43.85388704	 4.48033611	 -42.21673403
Pt	 43.85388704	 4.48033611	 -39.30523514
Pt	 43.85388704	 4.48033611	 -36.39373624
Pt	 43.85388704	 4.48033611	 -33.48223734
Pt	 43.85388704	 4.48033611	 -30.57073844
Pt	 43.85388704	 4.48033611	 -27.65923954
Pt	 43.85388704	 4.48033611	 -24.74774064
Pt	 43.85388704	 4.48033611	 -21.83624174
Pt	 43.85388704	 4.48033611	 -18.92474284
Pt	 43.85388704	 4.48033611	 -16.01324394
Pt	 43.85388704	 4.48033611	 -13.10174505
Pt	 43.85388704	 4.48033611	 -10.19024615
Pt	 43.85388704	 4.48033611	 -7.27874725
Pt	 43.85388704	 4.48033611	 -4.36724835
Pt	 43.85388704	 4.48033611	 -1.45574945
Pt	 43.85388704	 4.48033611	 1.45574945
Pt	 43.85388704	 4.48033611	 4.36724835
Pt	 43.85388704	 4.48033611	 7.27874725
Pt	 43.85388704	 4.48033611	 10.19024615
Pt	 43.85388704	 4.48033611	 13.10174505
Pt	 43.85388704	 4.48033611	 16.01324394
Pt	 43.85388704	 4.48033611	 18.92474284
Pt	 43.85388704	 4.48033611	 21.83624174
Pt	 43.85388704	 4.48033611	 24.74774064
Pt	 43.85388704	 4.48033611	 27.65923954
Pt	 43.85388704	 4.48033611	 30.57073844
Pt	 43.85388704	 4.48033611	 33.48223734
Pt	 43.85388704	 4.48033611	 36.39373624
Pt	 43.85388704	 4.48033611	 39.30523514
Pt	 43.85388704	 4.48033611	 42.21673403
Pt	 43.85388704	 4.48033611	 45.12823293
Pt	 43.85388704	 4.48033611	 48.03973183
Pt	 43.85388704	 4.48033611	 50.95123073
Pt	 43.85388704	 4.48033611	 53.86272963
Pt	 43.85388704	 4.48033611	 56.77422853
Pt	 37.51540550	 6.72050417	 -59.68572743
Pt	 37.51540550	 6.72050417	 -56.77422853
Pt	 37.51540550	 6.72050417	 -53.86272963
Pt	 37.51540550	 6.72050417	 -50.95123073
Pt	 37.51540550	 6.72050417	 -48.03973183
Pt	 37.51540550	 6.72050417	 -45.12823293
Pt	 37.51540550	 6.72050417	 -42.21673403
Pt	 37.51540550	 6.72050417	 -39.30523514
Pt	 37.51540550	 6.72050417	 -36.39373624
Pt	 37.51540550	 6.72050417	 -33.48223734
Pt	 37.51540550	 6.72050417	 -30.57073844
Pt	 37.51540550	 6.72050417	 -27.65923954
Pt	 37.51540550	 6.72050417	 -24.74774064
Pt	 37.51540550	 6.72050417	 -21.83624174
Pt	 37.51540550	 6.72050417	 -18.92474284
Pt	 37.51540550	 6.72050417	 -16.01324394
Pt	 37.51540550	 6.72050417	 -13.10174505
Pt	 37.51540550	 6.72050417	 -10.19024615
Pt	 37.51540550	 6.72050417	 -7.27874725
Pt	 37.51540550	 6.72050417	 -4.36724835
Pt	 37.51540550	 6.72050417	 -1.45574945
Pt	 37.51540550	 6.72050417	 1.45574945
Pt	 37.51540550	 6.72050417	 4.36724835
Pt	 37.51540550	 6.72050417	 7.27874725
Pt	 37.51540550	 6.72050417	 10.19024615
Pt	 37.51540550	 6.72050417	 13.10174505
Pt	 37.51540550	 6.72050417	 16.01324394
Pt	 37.51540550	 6.72050417	 18.92474284
Pt	 37.51540550	 6.72050417	 21.83624174
Pt	 37.51540550	 6.72050417	 24.74774064
Pt	 37.51540550	 6.72050417	 27.65923954
Pt	 37.51540550	 6.72050417	 30.57073844
Pt	 37.51540550	 6.72050417	 33.48223734
Pt	 37.51540550	 6.72050417	 36.39373624
Pt	 37.51540550	 6.72050417	 39.30523514
Pt	 37.51540550	 6.72050417	 42.21673403
Pt	 37.51540550	 6.72050417	 45.12823293
Pt	 37.51540550	 6.72050417	 48.03973183
Pt	 37.51540550	 6.72050417	 50.95123073
Pt	 37.51540550	 6.72050417	 53.86272963
Pt	 37.51540550	 6.72050417	 56.77422853
Pt	 37.51540550	 6.72050417	 59.68572743
Pt	 31.17692396	 8.96067223	 -62.59722633
Pt	 31.17692396	 8.96067223	 -59.68572743
Pt	 31.17692396	 8.96067223	 -56.77422853
Pt	 31.17692396	 8.96067223	 -53.86272963
Pt	 31.17692396	 8.96067223	 -50.95123073
Pt	 31.17692396	 8.96067223	 -48.03973183
Pt	 31.17692396	 8.96067223	 -45.12823293
Pt	 31.17692396	 8.96067223	 -42.21673403
Pt	 31.17692396	 8.96067223	 -39.30523514
Pt	 31.17692396	 8.96067223	 -36.39373624
Pt	 31.17692396	 8.96067223	 -33.48223734
Pt	 31.17692396	 8.96067223	 -30.57073844
Pt	 31.17692396	 8.96067223	 -27.65923954
Pt	 31.17692396	 8.96067223	 -24.74774064
Pt	 31.17692396	 8.96067223	 -21.83624174
Pt	 31.17692396	 8.96067223	 -18.92474284
Pt	 31.17692396	 8.96067223	 -16.01324394
Pt	 31.17692396	 8.96067223	 -13.10174505
Pt	 31.17692396	 8.96067223	 -10.19024615
Pt	 31.17692396	 8.96067223	 -7.27874725
Pt	 31.17692396	 8.96067223	 -4.36724835
Pt	 31.17692396	 8.96067223	 -1.45574945
Pt	 31.17692396	 8.96067223	 1.45574945
Pt	 31.17692396	 8.96067223	 4.36724835
Pt	 31.17692396	 8.96067223	 7.27874725
Pt	 31.17692396	 8.96067223	 10.19024615
Pt	 31.17692396	 8.96067223	 13.10174505
Pt	 31.17692396	 8.96067223	 16.01324394
Pt	 31.17692396	 8.96067223	 18.92474284
Pt	 31.17692396	 8.96067223	 21.83624174
Pt	 31.17692396	 8.96067223	 24.74774064
Pt	 31.17692396	 8.96067223	 27.65923954
Pt	 31.17692396	 8.96067223	 30.57073844
Pt	 31.17692396	 8.96067223	 33.48223734
Pt	 31.17692396	 8.96067223	 36.39373624
Pt	 31.17692396	 8.96067223	 39.30523514
Pt	 31.17692396	 8.96067223	 42.21673403
Pt	 31.17692396	 8.96067223	 45.12823293
Pt	 31.17692396	 8.96067223	 48.03973183
Pt	 31.17692396	 8.96067223	 50.95123073
Pt	 31.17692396	 8.96067223	 53.86272963
Pt	 31.17692396	 8.96067223	 56.77422853
Pt	 31.17692396	 8.96067223	 59.68572743
Pt	 31.17692396	 8.96067223	 62.59722633
Pt	 58.88630221	 0.00000000	 -49.49548128
Pt	 58.88630221	 0.00000000	 -46.58398238
Pt	 58.88630221	 0.00000000	 -43.67248348
Pt	 58.88630221	 0.00000000	 -40.76098458
Pt	 58.88630221	 0.00000000	 -37.84948569
Pt	 58.88630221	 0.00000000	 -34.93798679
Pt	 58.88630221	 0.00000000	 -32.02648789
Pt	 58.88630221	 0.00000000	 -29.11498899
Pt	 58.88630221	 0.00000000	 -26.20349009
Pt	 58.88630221	 0.00000000	 -23.29199119
Pt	 58.88630221	 0.00000000	 -20.38049229
Pt	 58.88630221	 0.00000000	 -17.46899339
Pt	 58.88630221	 0.00000000	 -14.55749449
Pt	 58.88630221	 0.00000000	 -11.64599560
Pt	 58.88630221	 0.00000000	 -8.73449670
Pt	 58.88630221	 0.00000000	 -5.82299780
Pt	 58.88630221	 0.00000000	 -2.91149890
Pt	 58.88630221	 0.00000000	 -0.00000000
Pt	 58.88630221	 0.00000000	 2.91149890
Pt	 58.88630221	 0.00000000	 5.82299780
Pt	 58.88630221	 0.00000000	 8.73449670
Pt	 58.88630221	 0.00000000	 11.64599560
Pt	 58.88630221	 0.00000000	 14.55749449
Pt	 58.88630221	 0.00000000	 17.46899339
Pt	 58.88630221	 0.00000000	 20.38049229
Pt	 58.88630221	 0.00000000	 23.29199119
Pt	 58.88630221	 0.00000000	 26.20349009
Pt	 58.88630221	 0.00000000	 29.11498899
Pt	 58.88630221	 0.00000000	 32.02648789
Pt	 58.88630221	 0.00000000	 34.93798679
Pt	 58.88630221	 0.00000000	 37.84948569
Pt	 58.88630221	 0.00000000	 40.76098458
Pt	 58.88630221	 0.00000000	 43.67248348
Pt	 58.88630221	 0.00000000	 46.58398238
Pt	 58.88630221	 0.00000000	 49.49548128
Pt	 24.83844242	 11.20084029	 -65.50872523
Pt	 24.83844242	 11.20084029	 -62.59722633
Pt	 24.83844242	 11.20084029	 -59.68572743
Pt	 24.83844242	 11.20084029	 -56.77422853
Pt	 24.83844242	 11.20084029	 -53.86272963
Pt	 24.83844242	 11.20084029	 -50.95123073
Pt	 24.83844242	 11.20084029	 -48.03973183
Pt	 24.83844242	 11.20084029	 -45.12823293
Pt	 24.83844242	 11.20084029	 -42.21673403
Pt	 24.83844242	 11.20084029	 -39.30523514
Pt	 24.83844242	 11.20084029	 -36.39373624
Pt	 24.83844242	 11.20084029	 -33.48223734
Pt	 24.83844242	 11.20084029	 -30.57073844
Pt	 24.83844242	 11.20084029	 -27.65923954
Pt	 24.83844242	 11.20084029	 -24.74774064
Pt	 24.83844242	 11.20084029	 -21.83624174
Pt	 24.83844242	 11.20084029	 -18.92474284
Pt	 24.83844242	 11.20084029	 -16.01324394
Pt	 24.83844242	 11.20084029	 -13.10174505
Pt	 24.83844242	 11.20084029	 -10.19024615
Pt	 24.83844242	 11.20084029	 -7.27874725
Pt	 24.83844242	 11.20084029	 -4.36724835
Pt	 24.83844242	 11.20084029	 -1.45574945
Pt	 24.83844242	 11.20084029	 1.45574945
Pt	 24.83844242	 11.20084029	 4.36724835
Pt	 24.83844242	 11.20084029	 7.27874725
Pt	 24.83844242	 11.20084029	 10.19024615
Pt	 24.83844242	 11.20084029	 13.10174505
Pt	 24.83844242	 11.20084029	 16.01324394
Pt	 24.83844242	 11.20084029	 18.92474284
Pt	 24.83844242	 11.20084029	 21.83624174
Pt	 24.83844242	 11.20084029	 24.74774064
Pt	 24.83844242	 11.20084029	 27.65923954
Pt	 24.83844242	 11.20084029	 30.57073844
Pt	 24.83844242	 11.20084029	 33.48223734
Pt	 24.83844242	 11.20084029	 36.39373624
Pt	 24.83844242	 11.20084029	 39.30523514
Pt	 24.83844242	 11.20084029	 42.21673403
Pt	 24.83844242	 11.20084029	 45.12823293
Pt	 24.83844242	 11.20084029	 48.03973183
Pt	 24.83844242	 11.20084029	 50.95123073
Pt	 24.83844242	 11.20084029	 53.86272963
Pt	 24.83844242	 11.20084029	 56.77422853
Pt	 24.83844242	 11.20084029	 59.68572743
Pt	 24.83844242	 11.20084029	 62.59722633
Pt	 24.83844242	 11.20084029	 65.50872523
Pt	 52.54782067	 2.24016806	 -52.40698018
Pt	 52.54782067	 2.24016806	 -49.49548128
Pt	 52.54782067	 2.24016806	 -46.58398238
Pt	 52.54782067	 2.24016806	 -43.67248348
Pt	 52.54782067	 2.24016806	 -40.76098458
Pt	 52.54782067	 2.24016806	 -37.84948569
Pt	 52.54782067	 2.24016806	 -34.93798679
Pt	 52.54782067	 2.24016806	 -32.02648789
Pt	 52.54782067	 2.24016806	 -29.11498899
Pt	 52.54782067	 2.24016806	 -26.20349009
Pt	 52.54782067	 2.24016806	 -23.29199119
Pt	 52.54782067	 2.24016806	 -20.38049229
Pt	 52.54782067	 2.24016806	 -17.46899339
Pt	 52.54782067	 2.24016806	 -14.55749449
Pt	 52.54782067	 2.24016806	 -11.64599560
Pt	 52.54782067	 2.24016806	 -8.73449670
Pt	 52.54782067	 2.24016806	 -5.82299780
Pt	 52.54782067	 2.24016806	 -2.91149890
Pt	 52.54782067	 2.24016806	 -0.00000000
Pt	 52.54782067	 2.24016806	 2.91149890
Pt	 52.54782067	 2.24016806	 5.82299780
Pt	 52.54782067	 2.24016806	 8.73449670
Pt	 52.54782067	 2.24016806	 11.64599560
Pt	 52.54782067	 2.24016806	 14.55749449
Pt	 52.54782067	 2.24016806	 17.46899339
Pt	 52.54782067	 2.24016806	 20.38049229
Pt	 52.54782067	 2.24016806	 23.29199119
Pt	 52.54782067	 2.24016806	 26.20349009
Pt	 52.54782067	 2.24016806	 29.11498899
Pt	 52.54782067	 2.24016806	 32.02648789
Pt	 52.54782067	 2.24016806	 34.93798679
Pt	 52.54782067	 2.24016806	 37.84948569
Pt	 52.54782067	 2.24016806	 40.76098458
Pt	 52.54782067	 2.24016806	 43.67248348
Pt	 52.54782067	 2.24016806	 46.58398238
Pt	 52.54782067	 2.24016806	 49.49548128
Pt	 52.54782067	 2.24016806	 52.40698018
Pt	 18.49996088	 13.44100834	 -68.42022412
Pt	 18.49996088	 13.44100834	 -65.50872523
Pt	 18.49996088	 13.44100834	 -62.59722633
Pt	 18.49996088	 13.44100834	 -59.68572743
Pt	 18.49996088	 13.44100834	 -56.77422853
Pt	 18.49996088	 13.44100834	 -53.86272963
Pt	 18.49996088	 13.44100834	 -50.95123073
Pt	 18.49996088	 13.44100834	 -48.03973183
Pt	 18.49996088	 13.44100834	 -45.12823293
Pt	 18.49996088	 13.44100834	 -42.21673403
Pt	 18.49996088	 13.44100834	 -39.30523514
Pt	 18.49996088	 13.44100834	 -36.39373624
Pt	 18.49996088	 13.44100834	 -33.48223734
Pt	 18.49996088	 13.44100834	 -30.57073844
Pt	 18.49996088	 13.44100834	 -27.65923954
Pt	 18.49996088	 13.44100834	 -24.74774064
Pt	 18.49996088	 13.44100834	 -21.83624174
Pt	 18.49996088	 13.44100834	 -18.92474284
Pt	 18.49996088	 13.44100834	 -16.01324394
Pt	 18.49996088	 13.44100834	 -13.10174505
Pt	 18.49996088	 13.44100834	 -10.19024615
Pt	 18.49996088	 13.44100834	 -7.27874725
Pt	 18.49996088	 13.44100834	 -4.36724835
Pt	 18.49996088	 13.44100834	 -1.45574945
Pt	 18.49996088	 13.44100834	 1.45574945
Pt	 18.49996088	 13.44100834	 4.36724835
Pt	 18.49996088	 13.44100834	 7.27874725
Pt	 18.49996088	 13.44100834	 10.19024615
Pt	 18.49996088	 13.44100834	 13.10174505
Pt	 18.49996088	 13.44100834	 16.01324394
Pt	 18.49996088	 13.44100834	 18.92474284
Pt	 18.49996088	 13.44100834	 21.83624174
Pt	 18.49996088	 13.44100834	 24.74774064
Pt	 18.49996088	 13.44100834	 27.65923954
Pt	 18.49996088	 13.44100834	 30.57073844
Pt	 18.49996088	 13.44100834	 33.48223734
Pt	 18.49996088	 13.44100834	 36.39373624
Pt	 18.49996088	 13.44100834	 39.30523514
Pt	 18.49996088	 13.44100834	 42.21673403
Pt	 18.49996088	 13.44100834	 45.12823293
Pt	 18.49996088	 13.44100834	 48.03973183
Pt	 18.49996088	 13.44100834	 50.95123073
Pt	 18.49996088	 13.44100834	 53.86272963
Pt	 18.49996088	 13.44100834	 56.77422853
Pt	 18.49996088	 13.44100834	 59.68572743
Pt	 18.49996088	 13.44100834	 62.59722633
Pt	 18.49996088	 13.44100834	 65.50872523
Pt	 18.49996088	 13.44100834	 68.42022412
Pt	 46.20933913	 4.48033611	 -55.31847908
Pt	 46.20933913	 4.48033611	 -52.40698018
Pt	 46.20933913	 4.48033611	 -49.49548128
Pt	 46.20933913	 4.48033611	 -46.58398238
Pt	 46.20933913	 4.48033611	 -43.67248348
Pt	 46.20933913	 4.48033611	 -40.76098458
Pt	 46.20933913	 4.48033611	 -37.84948569
Pt	 46.20933913	 4.48033611	 -34.93798679
Pt	 46.20933913	 4.48033611	 -32.02648789
Pt	 46.20933913	 4.48033611	 -29.11498899
Pt	 46.20933913	 4.48033611	 -26.20349009
Pt	 46.20933913	 4.48033611	 -23.29199119
Pt	 46.20933913	 4.48033611	 -20.38049229
Pt	 46.20933913	 4.48033611	 -17.46899339
Pt	 46.20933913	 4.48033611	 -14.55749449
Pt	 46.20933913	 4.48033611	 -11.64599560
Pt	 46.20933913	 4.48033611	 -8.73449670
Pt	 46.20933913	 4.48033611	 -5.82299780
Pt	 46.20933913	 4.48033611	 -2.91149890
Pt	 46.20933913	 4.48033611	 -0.00000000
Pt	 46.20933913	 4.48033611	 2.91149890
Pt	 46.20933913	 4.48033611	 5.82299780
Pt	 46.20933913	 4.48033611	 8.73449670
Pt	 46.20933913	 4.48033611	 11.64599560
Pt	 46.20933913	 4.48033611	 14.55749449
Pt	 46.20933913	 4.48033611	 17.46899339
Pt	 46.20933913	 4.48033611	 20.38049229
Pt	 46.20933913	 4.48033611	 23.29199119
Pt	 46.20933913	 4.48033611	 26.20349009
Pt	 46.20933913	 4.48033611	 29.11498899
Pt	 46.20933913	 4.48033611	 32.02648789
Pt	 46.20933913	 4.48033611	 34.93798679
Pt	 46.20933913	 4.48033611	 37.84948569
Pt	 46.20933913	 4.48033611	 40.76098458
Pt	 46.20933913	 4.48033611	 43.67248348
Pt	 46.20933913	 4.48033611	 46.58398238
Pt	 46.20933913	 4.48033611	 49.49548128
Pt	 46.20933913	 4.48033611	 52.40698018
Pt	 46.20933913	 4.48033611	 55.31847908
Pt	 39.87085759	 6.72050417	 -58.22997798
Pt	 39.87085759	 6.72050417	 -55.31847908
Pt	 39.87085759	 6.72050417	 -52.40698018
Pt	 39.87085759	 6.72050417	 -49.49548128
Pt	 39.87085759	 6.72050417	 -46.58398238
Pt	 39.87085759	 6.72050417	 -43.67248348
Pt	 39.87085759	 6.72050417	 -40.76098458
Pt	 39.87085759	 6.72050417	 -37.84948569
Pt	 39.87085759	 6.72050417	 -34.93798679
Pt	 39.87085759	 6.72050417	 -32.02648789
Pt	 39.87085759	 6.72050417	 -29.11498899
Pt	 39.87085759	 6.72050417	 -26.20349009
Pt	 39.87085759	 6.72050417	 -23.29199119
Pt	 39.87085759	 6.72050417	 -20.38049229
Pt	 39.87085759	 6.72050417	 -17.46899339
Pt	 39.87085759	 6.72050417	 -14.55749449
Pt	 39.87085759	 6.72050417	 -11.64599560
Pt	 39.87085759	 6.72050417	 -8.73449670
Pt	 39.87085759	 6.72050417	 -5.82299780
Pt	 39.87085759	 6.72050417	 -2.91149890
Pt	 39.87085759	 6.72050417	 -0.00000000
Pt	 39.87085759	 6.72050417	 2.91149890
Pt	 39.87085759	 6.72050417	 5.82299780
Pt	 39.87085759	 6.72050417	 8.73449670
Pt	 39.87085759	 6.72050417	 11.64599560
Pt	 39.87085759	 6.72050417	 14.55749449
Pt	 39.87085759	 6.72050417	 17.46899339
Pt	 39.87085759	 6.72050417	 20.38049229
Pt	 39.87085759	 6.72050417	 23.29199119
Pt	 39.87085759	 6.72050417	 26.20349009
Pt	 39.87085759	 6.72050417	 29.11498899
Pt	 39.87085759	 6.72050417	 32.02648789
Pt	 39.87085759	 6.72050417	 34.93798679
Pt	 39.87085759	 6.72050417	 37.84948569
Pt	 39.87085759	 6.72050417	 40.76098458
Pt	 39.87085759	 6.72050417	 43.67248348
Pt	 39.87085759	 6.72050417	 46.58398238
Pt	 39.87085759	 6.72050417	 49.49548128
Pt	 39.87085759	 6.72050417	 52.40698018
Pt	 39.87085759	 6.72050417	 55.31847908
Pt	 39.87085759	 6.72050417	 58.22997798
Pt	 33.53237605	 8.96067223	 -61.14147688
Pt	 33.53237605	 8.96067223	 -58.22997798
Pt	 33.53237605	 8.96067223	 -55.31847908
Pt	 33.53237605	 8.96067223	 -52.40698018
Pt	 33.53237605	 8.96067223	 -49.49548128
Pt	 33.53237605	 8.96067223	 -46.58398238
Pt	 33.53237605	 8.96067223	 -43.67248348
Pt	 33.53237605	 8.96067223	 -40.76098458
Pt	 33.53237605	 8.96067223	 -37.84948569
Pt	 33.53237605	 8.96067223	 -34.93798679
Pt	 33.53237605	 8.96067223	 -32.02648789
Pt	 33.53237605	 8.96067223	 -29.11498899
Pt	 33.53237605	 8.96067223	 -26.20349009
Pt	 33.53237605	 8.96067223	 -23.29199119
Pt	 33.53237605	 8.96067223	 -20.38049229
Pt	 33.53237605	 8.96067223	 -17.46899339
Pt	 33.53237605	 8.96067223	 -14.55749449
Pt	 33.53237605	 8.96067223	 -11.64599560
Pt	 33.53237605	 8.96067223	 -8.73449670
Pt	 33.53237605	 8.96067223	 -5.82299780
Pt	 33.53237605	 8.96067223	 -2.91149890
Pt	 33.53237605	 8.96067223	 -0.00000000
Pt	 33.53237605	 8.96067223	 2.91149890
Pt	 33.53237605	 8.96067223	 5.82299780
Pt	 33.53237605	 8.96067223	 8.73449670
Pt	 33.53237605	 8.96067223	 11.64599560
Pt	 33.53237605	 8.96067223	 14.55749449
Pt	 33.53237605	 8.96067223	 17.46899339
Pt	 33.53237605	 8.96067223	 20.38049229
Pt	 33.53237605	 8.96067223	 23.29199119
Pt	 33.53237605	 8.96067223	 26.20349009
Pt	 33.53237605	 8.96067223	 29.11498899
Pt	 33.53237605	 8.96067223	 32.02648789
Pt	 33.53237605	 8.96067223	 34.93798679
Pt	 33.53237605	 8.96067223	 37.84948569
Pt	 33.53237605	 8.96067223	 40.76098458
Pt	 33.53237605	 8.96067223	 43.67248348
Pt	 33.53237605	 8.96067223	 46.58398238
Pt	 33.53237605	 8.96067223	 49.49548128
Pt	 33.53237605	 8.96067223	 52.40698018
Pt	 33.53237605	 8.96067223	 55.31847908
Pt	 33.53237605	 8.96067223	 58.22997798
Pt	 33.53237605	 8.96067223	 61.14147688
Pt	 61.24175430	 0.00000000	 -48.03973183
Pt	 61.24175430	 0.00000000	 -45.12823293
Pt	 61.24175430	 0.00000000	 -42.21673403
Pt	 61.24175430	 0.00000000	 -39.30523514
Pt	 61.24175430	 0.00000000	 -36.39373624
Pt	 61.24175430	 0.00000000	 -33.48223734
Pt	 61.24175430	 0.00000000	 -30.57073844
Pt	 61.24175430	 0.00000000	 -27.65923954
Pt	 61.24175430	 0.00000000	 -24.74774064
Pt	 61.24175430	 0.00000000	 -21.83624174
Pt	 61.24175430	 0.00000000	 -18.92474284
Pt	 61.24175430	 0.00000000	 -16.01324394
Pt	 61.24175430	 0.00000000	 -13.10174505
Pt	 61.24175430	 0.00000000	 -10.19024615
Pt	 61.24175430	 0.00000000	 -7.27874725
Pt	 61.24175430	 0.00000000	 -4.36724835
Pt	 61.24175430	 0.00000000	 -1.45574945
Pt	 61.24175430	 0.00000000	 1.45574945
Pt	 61.24175430	 0.00000000	 4.36724835
Pt	 61.24175430	 0.00000000	 7.27874725
Pt	 61.24175430	 0.00000000	 10.19024615
Pt	 61.24175430	 0.00000000	 13.10174505
Pt	 61.24175430	 0.00000000	 16.01324394
Pt	 61.24175430	 0.00000000	 18.92474284
Pt	 61.24175430	 0.00000000	 21.83624174
Pt	 61.24175430	 0.00000000	 24.74774064
Pt	 61.24175430	 0.00000000	 27.65923954
Pt	 61.24175430	 0.00000000	 30.57073844
Pt	 61.24175430	 0.00000000	 33.48223734
Pt	 61.24175430	 0.00000000	 36.39373624
Pt	 61.24175430	 0.00000000	 39.30523514
Pt	 61.24175430	 0.00000000	 42.21673403
Pt	 61.24175430	 0.00000000	 45.12823293
Pt	 61.24175430	 0.00000000	 48.03973183
Pt	 27.19389451	 11.20084029	 -64.05297578
Pt	 27.19389451	 11.20084029	 -61.14147688
Pt	 27.19389451	 11.20084029	 -58.22997798
Pt	 27.19389451	 11.20084029	 -55.31847908
Pt	 27.19389451	 11.20084029	 -52.40698018
Pt	 27.19389451	 11.20084029	 -49.49548128
Pt	 27.19389451	 11.20084029	 -46.58398238
Pt	 27.19389451	 11.20084029	 -43.67248348
Pt	 27.19389451	 11.20084029	 -40.76098458
Pt	 27.19389451	 11.20084029	 -37.84948569
Pt	 27.19389451	 11.20084029	 -34.93798679
Pt	 27.19389451	 11.20084029	 -32.02648789
Pt	 27.19389451	 11.20084029	 -29.11498899
Pt	 27.19389451	 11.20084029	 -26.20349009
Pt	 27.19389451	 11.20084029	 -23.29199119
Pt	 27.19389451	 11.20084029	 -20.38049229
Pt	 27.19389451	 11.20084029	 -17.46899339
Pt	 27.19389451	 11.20084029	 -14.55749449
Pt	 27.19389451	 11.20084029	 -11.64599560
Pt	 27.19389451	 11.20084029	 -8.73449670
Pt	 27.19389451	 11.20084029	 -5.82299780
Pt	 27.19389451	 11.20084029	 -2.91149890
Pt	 27.19389451	 11.20084029	 -0.00000000
Pt	 27.19389451	 11.20084029	 2.91149890
Pt	 27.19389451	 11.20084029	 5.82299780
Pt	 27.19389451	 11.20084029	 8.73449670
Pt	 27.19389451	 11.20084029	 11.64599560
Pt	 27.19389451	 11.20084029	 14.55749449
Pt	 27.19389451	 11.20084029	 17.46899339
Pt	 27.19389451	 11.20084029	 20.38049229
Pt	 27.19389451	 11.20084029	 23.29199119
Pt	 27.19389451	 11.20084029	 26.20349009
Pt	 27.19389451	 11.20084029	 29.11498899
Pt	 27.19389451	 11.20084029	 32.02648789
Pt	 27.19389451	 11.20084029	 34.93798679
Pt	 27.19389451	 11.20084029	 37.84948569
Pt	 27.19389451	 11.20084029	 40.76098458
Pt	 27.19389451	 11.20084029	 43.67248348
Pt	 27.19389451	 11.20084029	 46.58398238
Pt	 27.19389451	 11.20084029	 49.49548128
Pt	 27.19389451	 11.20084029	 52.40698018
Pt	 27.19389451	 11.20084029	 55.31847908
Pt	 27.19389451	 11.20084029	 58.22997798
Pt	 27.19389451	 11.20084029	 61.14147688
Pt	 27.19389451	 11.20084029	 64.05297578
Pt	 54.90327276	 2.24016806	 -50.95123073
Pt	 54.90327276	 2.24016806	 -48.03973183
Pt	 54.90327276	 2.24016806	 -45.12823293
Pt	 54.90327276	 2.24016806	 -42.21673403
Pt	 54.90327276	 2.24016806	 -39.30523514
Pt	 54.90327276	 2.24016806	 -36.39373624
Pt	 54.90327276	 2.24016806	 -33.48223734
Pt	 54.90327276	 2.24016806	 -30.57073844
Pt	 54.90327276	 2.24016806	 -27.65923954
Pt	 54.90327276	 2.24016806	 -24.74774064
Pt	 54.90327276	 2.24016806	 -21.83624174
Pt	 54.90327276	 2.24016806	 -18.92474284
Pt	 54.90327276	 2.24016806	 -16.01324394
Pt	 54.90327276	 2.24016806	 -13.10174505
Pt	 54.90327276	 2.24016806	 -10.19024615
Pt	 54.90327276	 2.24016806	 -7.27874725
Pt	 54.90327276	 2.24016806	 -4.36724835
Pt	 54.90327276	 2.24016806	 -1.45574945
Pt	 54.90327276	 2.24016806	 1.45574945
Pt	 54.90327276	 2.24016806	 4.36724835
Pt	 54.90327276	 2.24016806	 7.27874725
Pt	 54.90327276	 2.24016806	 10.19024615
Pt	 54.90327276	 2.24016806	 13.10174505
Pt	 54.90327276	 2.24016806	 16.01324394
Pt	 54.90327276	 2.24016806	 18.92474284
Pt	 54.90327276	 2.24016806	 21.83624174
Pt	 54.90327276	 2.24016806	 24.74774064
Pt	 54.90327276	 2.24016806	 27.65923954
Pt	 54.90327276	 2.24016806	 30.57073844
Pt	 54.90327276	 2.24016806	 33.48223734
Pt	 54.90327276	 2.24016806	 36.39373624
Pt	 54.90327276	 2.24016806	 39.30523514
Pt	 54.90327276	 2.24016806	 42.21673403
Pt	 54.90327276	 2.24016806	 45.12823293
Pt	 54.90327276	 2.24016806	 48.03973183
Pt	 54.90327276	 2.24016806	 50.95123073
Pt	 20.85541297	 13.44100834	 -66.96447468
Pt	 20.85541297	 13.44100834	 -64.05297578
Pt	 20.85541297	 13.44100834	 -61.14147688
Pt	 20.85541297	 13.44100834	 -58.22997798
Pt	 20.85541297	 13.44100834	 -55.31847908
Pt	 20.85541297	 13.44100834	 -52.40698018
Pt	 20.85541297	 13.44100834	 -49.49548128
Pt	 20.85541297	 13.44100834	 -46.58398238
Pt	 20.85541297	 13.44100834	 -43.67248348
Pt	 20.85541297	 13.44100834	 -40.76098458
Pt	 20.85541297	 13.44100834	 -37.84948569
Pt	 20.85541297	 13.44100834	 -34.93798679
Pt	 20.85541297	 13.44100834	 -32.02648789
Pt	 20.85541297	 13.44100834	 -29.11498899
Pt	 20.85541297	 13.44100834	 -26.20349009
Pt	 20.85541297	 13.44100834	 -23.29199119
Pt	 20.85541297	 13.44100834	 -20.38049229
Pt	 20.85541297	 13.44100834	 -17.46899339
Pt	 20.85541297	 13.44100834	 -14.55749449
Pt	 20.85541297	 13.44100834	 -11.64599560
Pt	 20.85541297	 13.44100834	 -8.73449670
Pt	 20.85541297	 13.44100834	 -5.82299780
Pt	 20.85541297	 13.44100834	 -2.91149890
Pt	 20.85541297	 13.44100834	 -0.00000000
Pt	 20.85541297	 13.44100834	 2.91149890
Pt	 20.85541297	 13.44100834	 5.82299780
Pt	 20.85541297	 13.44100834	 8.73449670
Pt	 20.85541297	 13.44100834	 11.64599560
Pt	 20.85541297	 13.44100834	 14.55749449
Pt	 20.85541297	 13.44100834	 17.46899339
Pt	 20.85541297	 13.44100834	 20.38049229
Pt	 20.85541297	 13.44100834	 23.29199119
Pt	 20.85541297	 13.44100834	 26.20349009
Pt	 20.85541297	 13.44100834	 29.11498899
Pt	 20.85541297	 13.44100834	 32.02648789
Pt	 20.85541297	 13.44100834	 34.93798679
Pt	 20.85541297	 13.44100834	 37.84948569
Pt	 20.85541297	 13.44100834	 40.76098458
Pt	 20.85541297	 13.44100834	 43.67248348
Pt	 20.85541297	 13.44100834	 46.58398238
Pt	 20.85541297	 13.44100834	 49.49548128
Pt	 20.85541297	 13.44100834	 52.40698018
Pt	 20.85541297	 13.44100834	 55.31847908
Pt	 20.85541297	 13.44100834	 58.22997798
Pt	 20.85541297	 13.44100834	 61.14147688
Pt	 20.85541297	 13.44100834	 64.05297578
Pt	 20.85541297	 13.44100834	 66.96447468
Pt	 48.56479122	 4.48033611	 -53.86272963
Pt	 48.56479122	 4.48033611	 -50.95123073
Pt	 48.56479122	 4.48033611	 -48.03973183
Pt	 48.56479122	 4.48033611	 -45.12823293
Pt	 48.56479122	 4.48033611	 -42.21673403
Pt	 48.56479122	 4.48033611	 -39.30523514
Pt	 48.56479122	 4.48033611	 -36.39373624
Pt	 48.56479122	 4.48033611	 -33.48223734
Pt	 48.56479122	 4.48033611	 -30.57073844
Pt	 48.56479122	 4.48033611	 -27.65923954
Pt	 48.56479122	 4.48033611	 -24.74774064
Pt	 48.56479122	 4.48033611	 -21.83624174
Pt	 48.56479122	 4.48033611	 -18.92474284
Pt	 48.56479122	 4.48033611	 -16.01324394
Pt	 48.56479122	 4.48033611	 -13.10174505
Pt	 48.56479122	 4.48033611	 -10.19024615
Pt	 48.56479122	 4.48033611	 -7.27874725
Pt	 48.56479122	 4.48033611	 -4.36724835
Pt	 48.56479122	 4.48033611	 -1.45574945
Pt	 48.56479122	 4.48033611	 1.45574945
Pt	 48.56479122	 4.48033611	 4.36724835
Pt	 48.56479122	 4.48033611	 7.27874725
Pt	 48.56479122	 4.48033611	 10.19024615
Pt	 48.56479122	 4.48033611	 13.10174505
Pt	 48.56479122	 4.48033611	 16.01324394
Pt	 48.56479122	 4.48033611	 18.92474284
Pt	 48.56479122	 4.48033611	 21.83624174
Pt	 48.56479122	 4.48033611	 24.74774064
Pt	 48.56479122	 4.48033611	 27.65923954
Pt	 48.56479122	 4.48033611	 30.57073844
Pt	 48.56479122	 4.48033611	 33.48223734
Pt	 48.56479122	 4.48033611	 36.39373624
Pt	 48.56479122	 4.48033611	 39.30523514
Pt	 48.56479122	 4.48033611	 42.21673403
Pt	 48.56479122	 4.48033611	 45.12823293
Pt	 48.56479122	 4.48033611	 48.03973183
Pt	 48.56479122	 4.48033611	 50.95123073
Pt	 48.56479122	 4.48033611	 53.86272963
Pt	 42.22630968	 6.72050417	 -56.77422853
Pt	 42.22630968	 6.72050417	 -53.86272963
Pt	 42.22630968	 6.72050417	 -50.95123073
Pt	 42.22630968	 6.72050417	 -48.03973183
Pt	 42.22630968	 6.72050417	 -45.12823293
Pt	 42.22630968	 6.72050417	 -42.21673403
Pt	 42.22630968	 6.72050417	 -39.30523514
Pt	 42.22630968	 6.72050417	 -36.39373624
Pt	 42.22630968	 6.72050417	 -33.48223734
Pt	 42.22630968	 6.72050417	 -30.57073844
Pt	 42.22630968	 6.72050417	 -27.65923954
Pt	 42.22630968	 6.72050417	 -24.74774064
Pt	 42.22630968	 6.72050417	 -21.83624174
Pt	 42.22630968	 6.72050417	 -18.92474284
Pt	 42.22630968	 6.72050417	 -16.01324394
Pt	 42.22630968	 6.72050417	 -13.10174505
Pt	 42.22630968	 6.72050417	 -10.19024615
Pt	 42.22630968	 6.72050417	 -7.27874725
Pt	 42.22630968	 6.72050417	 -4.36724835
Pt	 42.22630968	 6.72050417	 -1.45574945
Pt	 42.22630968	 6.72050417	 1.45574945
Pt	 42.22630968	 6.72050417	 4.36724835
Pt	 42.22630968	 6.72050417	 7.27874725
Pt	 42.22630968	 6.72050417	 10.19024615
Pt	 42.22630968	 6.72050417	 13.10174505
Pt	 42.22630968	 6.72050417	 16.01324394
Pt	 42.22630968	 6.72050417	 18.92474284
Pt	 42.22630968	 6.72050417	 21.83624174
Pt	 42.22630968	 6.72050417	 24.74774064
Pt	 42.22630968	 6.72050417	 27.65923954
Pt	 42.22630968	 6.72050417	 30.57073844
Pt	 42.22630968	 6.72050417	 33.48223734
Pt	 42.22630968	 6.72050417	 36.39373624
Pt	 42.22630968	 6.72050417	 39.30523514
Pt	 42.22630968	 6.72050417	 42.21673403
Pt	 42.22630968	 6.72050417	 45.12823293
Pt	 42.22630968	 6.72050417	 48.03973183
Pt	 42.22630968	 6.72050417	 50.95123073
Pt	 42.22630968	 6.72050417	 53.86272963
Pt	 42.22630968	 6.72050417	 56.77422853
Pt	 35.88782814	 8.96067223	 -59.68572743
Pt	 35.88782814	 8.96067223	 -56.77422853
Pt	 35.88782814	 8.96067223	 -53.86272963
Pt	 35.88782814	 8.96067223	 -50.95123073
Pt	 35.88782814	 8.96067223	 -48.03973183
Pt	 35.88782814	 8.96067223	 -45.12823293
Pt	 35.88782814	 8.96067223	 -42.21673403
Pt	 35.88782814	 8.96067223	 -39.30523514
Pt	 35.88782814	 8.96067223	 -36.39373624
Pt	 35.88782814	 8.96067223	 -33.48223734
Pt	 35.88782814	 8.96067223	 -30.57073844
Pt	 35.88782814	 8.96067223	 -27.65923954
Pt	 35.88782814	 8.96067223	 -24.74774064
Pt	 35.88782814	 8.96067223	 -21.83624174
Pt	 35.88782814	 8.96067223	 -18.92474284
Pt	 35.88782814	 8.96067223	 -16.01324394
Pt	 35.88782814	 8.96067223	 -13.10174505
Pt	 35.88782814	 8.96067223	 -10.19024615
Pt	 35.88782814	 8.96067223	 -7.27874725
Pt	 35.88782814	 8.96067223	 -4.36724835
Pt	 35.88782814	 8.96067223	 -1.45574945
Pt	 35.88782814	 8.96067223	 1.45574945
Pt	 35.88782814	 8.96067223	 4.36724835
Pt	 35.88782814	 8.96067223	 7.27874725
Pt	 35.88782814	 8.96067223	 10.19024615
Pt	 35.88782814	 8.96067223	 13.10174505
Pt	 35.88782814	 8.96067223	 16.01324394
Pt	 35.88782814	 8.96067223	 18.92474284
Pt	 35.88782814	 8.96067223	 21.83624174
Pt	 35.88782814	 8.96067223	 24.74774064
Pt	 35.88782814	 8.96067223	 27.65923954
Pt	 35.88782814	 8.96067223	 30.57073844
Pt	 35.88782814	 8.96067223	 33.48223734
Pt	 35.88782814	 8.96067223	 36.39373624
Pt	 35.88782814	 8.96067223	 39.30523514
Pt	 35.88782814	 8.96067223	 42.21673403
Pt	 35.88782814	 8.96067223	 45.12823293
Pt	 35.88782814	 8.96067223	 48.03973183
Pt	 35.88782814	 8.96067223	 50.95123073
Pt	 35.88782814	 8.96067223	 53.86272963
Pt	 35.88782814	 8.96067223	 56.77422853
Pt	 35.88782814	 8.96067223	 59.68572743
Pt	 63.59720638	 0.00000000	 -46.58398238
Pt	 63.59720638	 0.00000000	 -43.67248348
Pt	 63.59720638	 0.00000000	 -40.76098458
Pt	 63.59720638	 0.00000000	 -37.84948569
Pt	 63.59720638	 0.00000000	 -34.93798679
Pt	 63.59720638	 0.00000000	 -32.02648789
Pt	 63.59720638	 0.00000000	 -29.11498899
Pt	 63.59720638	 0.00000000	 -26.20349009
Pt	 63.59720638	 0.00000000	 -23.29199119
Pt	 63.59720638	 0.00000000	 -20.38049229
Pt	 63.59720638	 0.00000000	 -17.46899339
Pt	 63.59720638	 0.00000000	 -14.55749449
Pt	 63.59720638	 0.00000000	 -11.64599560
Pt	 63.59720638	 0.00000000	 -8.73449670
Pt	 63.59720638	 0.00000000	 -5.82299780
Pt	 63.59720638	 0.00000000	 -2.91149890
Pt	 63.59720638	 0.00000000	 -0.00000000
Pt	 63.59720638	 0.00000000	 2.91149890
Pt	 63.59720638	 0.00000000	 5.82299780
Pt	 63.59720638	 0.00000000	 8.73449670
Pt	 63.59720638	 0.00000000	 11.64599560
Pt	 63.59720638	 0.00000000	 14.55749449
Pt	 63.59720638	 0.00000000	 17.46899339
Pt	 63.59720638	 0.00000000	 20.38049229
Pt	 63.59720638	 0.00000000	 23.29199119
Pt	 63.59720638	 0.00000000	 26.20349009
Pt	 63.59720638	 0.00000000	 29.11498899
Pt	 63.59720638	 0.00000000	 32.02648789
Pt	 63.59720638	 0.00000000	 34.93798679
Pt	 63.59720638	 0.00000000	 37.84948569
Pt	 63.59720638	 0.00000000	 40.76098458
Pt	 63.59720638	 0.00000000	 43.67248348
Pt	 63.59720638	 0.00000000	 46.58398238
Pt	 29.54934660	 11.20084029	 -62.59722633
Pt	 29.54934660	 11.20084029	 -59.68572743
Pt	 29.54934660	 11.20084029	 -56.77422853
Pt	 29.54934660	 11.20084029	 -53.86272963
Pt	 29.54934660	 11.20084029	 -50.95123073
Pt	 29.54934660	 11.20084029	 -48.03973183
Pt	 29.54934660	 11.20084029	 -45.12823293
Pt	 29.54934660	 11.20084029	 -42.21673403
Pt	 29.54934660	 11.20084029	 -39.30523514
Pt	 29.54934660	 11.20084029	 -36.39373624
Pt	 29.54934660	 11.20084029	 -33.48223734
Pt	 29.54934660	 11.20084029	 -30.57073844
Pt	 29.54934660	 11.20084029	 -27.65923954
Pt	 29.54934660	 11.20084029	 -24.74774064
Pt	 29.54934660	 11.20084029	 -21.83624174
Pt	 29.54934660	 11.20084029	 -18.92474284
Pt	 29.54934660	 11.20084029	 -16.01324394
Pt	 29.54934660	 11.20084029	 -13.10174505
Pt	 29.54934660	 11.20084029	 -10.19024615
Pt	 29.54934660	 11.20084029	 -7.27874725
Pt	 29.54934660	 11.20084029	 -4.36724835
Pt	 29.54934660	 11.20084029	 -1.45574945
Pt	 29.54934660	 11.20084029	 1.45574945
Pt	 29.54934660	 11.20084029	 4.36724835
Pt	 29.54934660	 11.20084029	 7.27874725
Pt	 29.54934660	 11.20084029	 10.19024615
Pt	 29.54934660	 11.20084029	 13.10174505
Pt	 29.54934660	 11.20084029	 16.01324394
Pt	 29.54934660	 11.20084029	 18.92474284
Pt	 29.54934660	 11.20084029	 21.83624174
Pt	 29.54934660	 11.20084029	 24.74774064
Pt	 29.54934660	 11.20084029	 27.65923954
Pt	 29.54934660	 11.20084029	 30.57073844
Pt	 29.54934660	 11.20084029	 33.48223734
Pt	 29.54934660	 11.20084029	 36.39373624
Pt	 29.54934660	 11.20084029	 39.30523514
Pt	 29.54934660	 11.20084029	 42.21673403
Pt	 29.54934660	 11.20084029	 45.12823293
Pt	 29.54934660	 11.20084029	 48.03973183
Pt	 29.54934660	 11.20084029	 50.95123073
Pt	 29.54934660	 11.20084029	 53.86272963
Pt	 29.54934660	 11.20084029	 56.77422853
Pt	 29.54934660	 11.20084029	 59.68572743
Pt	 29.54934660	 11.20084029	 62.59722633
Pt	 57.25872484	 2.24016806	 -49.49548128
Pt	 57.25872484	 2.24016806	 -46.58398238
Pt	 57.25872484	 2.24016806	 -43.67248348
Pt	 57.25872484	 2.24016806	 -40.76098458
Pt	 57.25872484	 2.24016806	 -37.84948569
Pt	 57.25872484	 2.24016806	 -34.93798679
Pt	 57.25872484	 2.24016806	 -32.02648789
Pt	 57.25872484	 2.24016806	 -29.11498899
Pt	 57.25872484	 2.24016806	 -26.20349009
Pt	 57.25872484	 2.24016806	 -23.29199119
Pt	 57.25872484	 2.24016806	 -20.38049229
Pt	 57.25872484	 2.24016806	 -17.46899339
Pt	 57.25872484	 2.24016806	 -14.55749449
Pt	 57.25872484	 2.24016806	 -11.64599560
Pt	 57.25872484	 2.24016806	 -8.73449670
Pt	 57.25872484	 2.24016806	 -5.82299780
Pt	 57.25872484	 2.24016806	 -2.91149890
Pt	 57.25872484	 2.24016806	 -0.00000000
Pt	 57.25872484	 2.24016806	 2.91149890
Pt	 57.25872484	 2.24016806	 5.82299780
Pt	 57.25872484	 2.24016806	 8.73449670
Pt	 57.25872484	 2.24016806	 11.64599560
Pt	 57.25872484	 2.24016806	 14.55749449
Pt	 57.25872484	 2.24016806	 17.46899339
Pt	 57.25872484	 2.24016806	 20.38049229
Pt	 57.25872484	 2.24016806	 23.29199119
Pt	 57.25872484	 2.24016806	 26.20349009
Pt	 57.25872484	 2.24016806	 29.11498899
Pt	 57.25872484	 2.24016806	 32.02648789
Pt	 57.25872484	 2.24016806	 34.93798679
Pt	 57.25872484	 2.24016806	 37.84948569
Pt	 57.25872484	 2.24016806	 40.76098458
Pt	 57.25872484	 2.24016806	 43.67248348
Pt	 57.25872484	 2.24016806	 46.58398238
Pt	 57.25872484	 2.24016806	 49.49548128
Pt	 23.21086505	 13.44100834	 -65.50872523
Pt	 23.21086505	 13.44100834	 -62.59722633
Pt	 23.21086505	 13.44100834	 -59.68572743
Pt	 23.21086505	 13.44100834	 -56.77422853
Pt	 23.21086505	 13.44100834	 -53.86272963
Pt	 23.21086505	 13.44100834	 -50.95123073
Pt	 23.21086505	 13.44100834	 -48.03973183
Pt	 23.21086505	 13.44100834	 -45.12823293
Pt	 23.21086505	 13.44100834	 -42.21673403
Pt	 23.21086505	 13.44100834	 -39.30523514
Pt	 23.21086505	 13.44100834	 -36.39373624
Pt	 23.21086505	 13.44100834	 -33.48223734
Pt	 23.21086505	 13.44100834	 -30.57073844
Pt	 23.21086505	 13.44100834	 -27.65923954
Pt	 23.21086505	 13.44100834	 -24.74774064
Pt	 23.21086505	 13.44100834	 -21.83624174
Pt	 23.21086505	 13.44100834	 -18.92474284
Pt	 23.21086505	 13.44100834	 -16.01324394
Pt	 23.21086505	 13.44100834	 -13.10174505
Pt	 23.21086505	 13.44100834	 -10.19024615
Pt	 23.21086505	 13.44100834	 -7.27874725
Pt	 23.21086505	 13.44100834	 -4.36724835
Pt	 23.21086505	 13.44100834	 -1.45574945
Pt	 23.21086505	 13.44100834	 1.45574945
Pt	 23.21086505	 13.44100834	 4.36724835
Pt	 23.21086505	 13.44100834	 7.27874725
Pt	 23.21086505	 13.44100834	 10.19024615
Pt	 23.21086505	 13.44100834	 13.10174505
Pt	 23.21086505	 13.44100834	 16.01324394
Pt	 23.21086505	 13.44100834	 18.92474284
Pt	 23.21086505	 13.44100834	 21.83624174
Pt	 23.21086505	 13.44100834	 24.74774064
Pt	 23.21086505	 13.44100834	 27.65923954
Pt	 23.21086505	 13.44100834	 30.57073844
Pt	 23.21086505	 13.44100834	 33.48223734
Pt	 23.21086505	 13.44100834	 36.39373624
Pt	 23.21086505	 13.44100834	 39.30523514
Pt	 23.21086505	 13.44100834	 42.21673403
Pt	 23.21086505	 13.44100834	 45.12823293
Pt	 23.21086505	 13.44100834	 48.03973183
Pt	 23.21086505	 13.44100834	 50.95123073
Pt	 23.21086505	 13.44100834	 53.86272963
Pt	 23.21086505	 13.44100834	 56.77422853
Pt	 23.21086505	 13.44100834	 59.68572743
Pt	 23.21086505	 13.44100834	 62.59722633
Pt	 23.21086505	 13.44100834	 65.50872523
Pt	 50.92024330	 4.48033611	 -52.40698018
Pt	 50.92024330	 4.48033611	 -49.49548128
Pt	 50.92024330	 4.48033611	 -46.58398238
Pt	 50.92024330	 4.48033611	 -43.67248348
Pt	 50.92024330	 4.48033611	 -40.76098458
Pt	 50.92024330	 4.48033611	 -37.84948569
Pt	 50.92024330	 4.48033611	 -34.93798679
Pt	 50.92024330	 4.48033611	 -32.02648789
Pt	 50.92024330	 4.48033611	 -29.11498899
Pt	 50.92024330	 4.48033611	 -26.20349009
Pt	 50.92024330	 4.48033611	 -23.29199119
Pt	 50.92024330	 4.48033611	 -20.38049229
Pt	 50.92024330	 4.48033611	 -17.46899339
Pt	 50.92024330	 4.48033611	 -14.55749449
Pt	 50.92024330	 4.48033611	 -11.64599560
Pt	 50.92024330	 4.48033611	 -8.73449670
Pt	 50.92024330	 4.48033611	 -5.82299780
Pt	 50.92024330	 4.48033611	 -2.91149890
Pt	 50.92024330	 4.48033611	 -0.00000000
Pt	 50.92024330	 4.48033611	 2.91149890
Pt	 50.92024330	 4.48033611	 5.82299780
Pt	 50.92024330	 4.48033611	 8.73449670
Pt	 50.92024330	 4.48033611	 11.64599560
Pt	 50.92024330	 4.48033611	 14.55749449
Pt	 50.92024330	 4.48033611	 17.46899339
Pt	 50.92024330	 4.48033611	 20.38049229
Pt	 50.92024330	 4.48033611	 23.29199119
Pt	 50.92024330	 4.48033611	 26.20349009
Pt	 50.92024330	 4.48033611	 29.11498899
Pt	 50.92024330	 4.48033611	 32.02648789
Pt	 50.92024330	 4.48033611	 34.93798679
Pt	 50.92024330	 4.48033611	 37.84948569
Pt	 50.92024330	 4.48033611	 40.76098458
Pt	 50.92024330	 4.48033611	 43.67248348
Pt	 50.92024330	 4.48033611	 46.58398238
Pt	 50.92024330	 4.48033611	 49.49548128
Pt	 50.92024330	 4.48033611	 52.40698018
Pt	 44.58176176	 6.72050417	 -55.31847908
Pt	 44.58176176	 6.72050417	 -52.40698018
Pt	 44.58176176	 6.72050417	 -49.49548128
Pt	 44.58176176	 6.72050417	 -46.58398238
Pt	 44.58176176	 6.72050417	 -43.67248348
Pt	 44.58176176	 6.72050417	 -40.76098458
Pt	 44.58176176	 6.72050417	 -37.84948569
Pt	 44.58176176	 6.72050417	 -34.93798679
Pt	 44.58176176	 6.72050417	 -32.02648789
Pt	 44.58176176	 6.72050417	 -29.11498899
Pt	 44.58176176	 6.72050417	 -26.20349009
Pt	 44.58176176	 6.72050417	 -23.29199119
Pt	 44.58176176	 6.72050417	 -20.38049229
Pt	 44.58176176	 6.72050417	 -17.46899339
Pt	 44.58176176	 6.72050417	 -14.55749449
Pt	 44.58176176	 6.72050417	 -11.64599560
Pt	 44.58176176	 6.72050417	 -8.73449670
Pt	 44.58176176	 6.72050417	 -5.82299780
Pt	 44.58176176	 6.72050417	 -2.91149890
Pt	 44.58176176	 6.72050417	 -0.00000000
Pt	 44.58176176	 6.72050417	 2.91149890
Pt	 44.58176176	 6.72050417	 5.82299780
Pt	 44.58176176	 6.72050417	 8.73449670
Pt	 44.58176176	 6.72050417	 11.64599560
Pt	 44.58176176	 6.72050417	 14.55749449
Pt	 44.58176176	 6.72050417	 17.46899339
Pt	 44.58176176	 6.72050417	 20.38049229
Pt	 44.58176176	 6.72050417	 23.29199119
Pt	 44.58176176	 6.72050417	 26.20349009
Pt	 44.58176176	 6.72050417	 29.11498899
Pt	 44.58176176	 6.72050417	 32.02648789
Pt	 44.58176176	 6.72050417	 34.93798679
Pt	 44.58176176	 6.72050417	 37.84948569
Pt	 44.58176176	 6.72050417	 40.76098458
Pt	 44.58176176	 6.72050417	 43.67248348
Pt	 44.58176176	 6.72050417	 46.58398238
Pt	 44.58176176	 6.72050417	 49.49548128
Pt	 44.58176176	 6.72050417	 52.40698018
Pt	 44.58176176	 6.72050417	 55.31847908
Pt	 38.24328022	 8.96067223	 -58.22997798
Pt	 38.24328022	 8.96067223	 -55.31847908
Pt	 38.24328022	 8.96067223	 -52.40698018
Pt	 38.24328022	 8.96067223	 -49.49548128
Pt	 38.24328022	 8.96067223	 -46.58398238
Pt	 38.24328022	 8.96067223	 -43.67248348
Pt	 38.24328022	 8.96067223	 -40.76098458
Pt	 38.24328022	 8.96067223	 -37.84948569
Pt	 38.24328022	 8.96067223	 -34.93798679
Pt	 38.24328022	 8.96067223	 -32.02648789
Pt	 38.24328022	 8.96067223	 -29.11498899
Pt	 38.24328022	 8.96067223	 -26.20349009
Pt	 38.24328022	 8.96067223	 -23.29199119
Pt	 38.24328022	 8.96067223	 -20.38049229
Pt	 38.24328022	 8.96067223	 -17.46899339
Pt	 38.24328022	 8.96067223	 -14.55749449
Pt	 38.24328022	 8.96067223	 -11.64599560
Pt	 38.24328022	 8.96067223	 -8.73449670
Pt	 38.24328022	 8.96067223	 -5.82299780
Pt	 38.24328022	 8.96067223	 -2.91149890
Pt	 38.24328022	 8.96067223	 -0.00000000
Pt	 38.24328022	 8.96067223	 2.91149890
Pt	 38.24328022	 8.96067223	 5.82299780
Pt	 38.24328022	 8.96067223	 8.73449670
Pt	 38.24328022	 8.96067223	 11.64599560
Pt	 38.24328022	 8.96067223	 14.55749449
Pt	 38.24328022	 8.96067223	 17.46899339
Pt	 38.24328022	 8.96067223	 20.38049229
Pt	 38.24328022	 8.96067223	 23.29199119
Pt	 38.24328022	 8.96067223	 26.20349009
Pt	 38.24328022	 8.96067223	 29.11498899
Pt	 38.24328022	 8.96067223	 32.02648789
Pt	 38.24328022	 8.96067223	 34.93798679
Pt	 38.24328022	 8.96067223	 37.84948569
Pt	 38.24328022	 8.96067223	 40.76098458
Pt	 38.24328022	 8.96067223	 43.67248348
Pt	 38.24328022	 8.96067223	 46.58398238
Pt	 38.24328022	 8.96067223	 49.49548128
Pt	 38.24328022	 8.96067223	 52.40698018
Pt	 38.24328022	 8.96067223	 55.31847908
Pt	 38.24328022	 8.96067223	 58.22997798
Pt	 65.95265847	 0.00000000	 -45.12823293
Pt	 65.95265847	 0.00000000	 -42.21673403
Pt	 65.95265847	 0.00000000	 -39.30523514
Pt	 65.95265847	 0.00000000	 -36.39373624
Pt	 65.95265847	 0.00000000	 -33.48223734
Pt	 65.95265847	 0.00000000	 -30.57073844
Pt	 65.95265847	 0.00000000	 -27.65923954
Pt	 65.95265847	 0.00000000	 -24.74774064
Pt	 65.95265847	 0.00000000	 -21.83624174
Pt	 65.95265847	 0.00000000	 -18.92474284
Pt	 65.95265847	 0.00000000	 -16.01324394
Pt	 65.95265847	 0.00000000	 -13.10174505
Pt	 65.95265847	 0.00000000	 -10.19024615
Pt	 65.95265847	 0.00000000	 -7.27874725
Pt	 65.95265847	 0.00000000	 -4.36724835
Pt	 65.95265847	 0.00000000	 -1.45574945
Pt	 65.95265847	 0.00000000	 1.45574945
Pt	 65.95265847	 0.00000000	 4.36724835
Pt	 65.95265847	 0.00000000	 7.27874725
Pt	 65.95265847	 0.00000000	 10.19024615
Pt	 65.95265847	 0.00000000	 13.10174505
Pt	 65.95265847	 0.00000000	 16.01324394
Pt	 65.95265847	 0.00000000	 18.92474284
Pt	 65.95265847	 0.00000000	 21.83624174
Pt	 65.95265847	 0.00000000	 24.74774064
Pt	 65.95265847	 0.00000000	 27.65923954
Pt	 65.95265847	 0.00000000	 30.57073844
Pt	 65.95265847	 0.00000000	 33.48223734
Pt	 65.95265847	 0.00000000	 36.39373624
Pt	 65.95265847	 0.00000000	 39.30523514
Pt	 65.95265847	 0.00000000	 42.21673403
Pt	 65.95265847	 0.00000000	 45.12823293
Pt	 31.90479868	 11.20084029	 -61.14147688
Pt	 31.90479868	 11.20084029	 -58.22997798
Pt	 31.90479868	 11.20084029	 -55.31847908
Pt	 31.90479868	 11.20084029	 -52.40698018
Pt	 31.90479868	 11.20084029	 -49.49548128
Pt	 31.90479868	 11.20084029	 -46.58398238
Pt	 31.90479868	 11.20084029	 -43.67248348
Pt	 31.90479868	 11.20084029	 -40.76098458
Pt	 31.90479868	 11.20084029	 -37.84948569
Pt	 31.90479868	 11.20084029	 -34.93798679
Pt	 31.90479868	 11.20084029	 -32.02648789
Pt	 31.90479868	 11.20084029	 -29.11498899
Pt	 31.90479868	 11.20084029	 -26.20349009
Pt	 31.90479868	 11.20084029	 -23.29199119
Pt	 31.90479868	 11.20084029	 -20.38049229
Pt	 31.90479868	 11.20084029	 -17.46899339
Pt	 31.90479868	 11.20084029	 -14.55749449
Pt	 31.90479868	 11.20084029	 -11.64599560
Pt	 31.90479868	 11.20084029	 -8.73449670
Pt	 31.90479868	 11.20084029	 -5.82299780
Pt	 31.90479868	 11.20084029	 -2.91149890
Pt	 31.90479868	 11.20084029	 -0.00000000
Pt	 31.90479868	 11.20084029	 2.91149890
Pt	 31.90479868	 11.20084029	 5.82299780
Pt	 31.90479868	 11.20084029	 8.73449670
Pt	 31.90479868	 11.20084029	 11.64599560
Pt	 31.90479868	 11.20084029	 14.55749449
Pt	 31.90479868	 11.20084029	 17.46899339
Pt	 31.90479868	 11.20084029	 20.38049229
Pt	 31.90479868	 11.20084029	 23.29199119
Pt	 31.90479868	 11.20084029	 26.20349009
Pt	 31.90479868	 11.20084029	 29.11498899
Pt	 31.90479868	 11.20084029	 32.02648789
Pt	 31.90479868	 11.20084029	 34.93798679
Pt	 31.90479868	 11.20084029	 37.84948569
Pt	 31.90479868	 11.20084029	 40.76098458
Pt	 31.90479868	 11.20084029	 43.67248348
Pt	 31.90479868	 11.20084029	 46.58398238
Pt	 31.90479868	 11.20084029	 49.49548128
Pt	 31.90479868	 11.20084029	 52.40698018
Pt	 31.90479868	 11.20084029	 55.31847908
Pt	 31.90479868	 11.20084029	 58.22997798
Pt	 31.90479868	 11.20084029	 61.14147688
Pt	 59.61417693	 2.24016806	 -48.03973183
Pt	 59.61417693	 2.24016806	 -45.12823293
Pt	 59.61417693	 2.24016806	 -42.21673403
Pt	 59.61417693	 2.24016806	 -39.30523514
Pt	 59.61417693	 2.24016806	 -36.39373624
Pt	 59.61417693	 2.24016806	 -33.48223734
Pt	 59.61417693	 2.24016806	 -30.57073844
Pt	 59.61417693	 2.24016806	 -27.65923954
Pt	 59.61417693	 2.24016806	 -24.74774064
Pt	 59.61417693	 2.24016806	 -21.83624174
Pt	 59.61417693	 2.24016806	 -18.92474284
Pt	 59.61417693	 2.24016806	 -16.01324394
Pt	 59.61417693	 2.24016806	 -13.10174505
Pt	 59.61417693	 2.24016806	 -10.19024615
Pt	 59.61417693	 2.24016806	 -7.27874725
Pt	 59.61417693	 2.24016806	 -4.36724835
Pt	 59.61417693	 2.24016806	 -1.45574945
Pt	 59.61417693	 2.24016806	 1.45574945
Pt	 59.61417693	 2.24016806	 4.36724835
Pt	 59.61417693	 2.24016806	 7.27874725
Pt	 59.61417693	 2.24016806	 10.19024615
Pt	 59.61417693	 2.24016806	 13.10174505
Pt	 59.61417693	 2.24016806	 16.01324394
Pt	 59.61417693	 2.24016806	 18.92474284
Pt	 59.61417693	 2.24016806	 21.83624174
Pt	 59.61417693	 2.24016806	 24.74774064
Pt	 59.61417693	 2.24016806	 27.65923954
Pt	 59.61417693	 2.24016806	 30.57073844
Pt	 59.61417693	 2.24016806	 33.48223734
Pt	 59.61417693	 2.24016806	 36.39373624
Pt	 59.61417693	 2.24016806	 39.30523514
Pt	 59.61417693	 2.24016806	 42.21673403
Pt	 59.61417693	 2.24016806	 45.12823293
Pt	 59.61417693	 2.24016806	 48.03973183
Pt	 25.56631714	 13.44100834	 -64.05297578
Pt	 25.56631714	 13.44100834	 -61.14147688
Pt	 25.56631714	 13.44100834	 -58.22997798
Pt	 25.56631714	 13.44100834	 -55.31847908
Pt	 25.56631714	 13.44100834	 -52.40698018
Pt	 25.56631714	 13.44100834	 -49.49548128
Pt	 25.56631714	 13.44100834	 -46.58398238
Pt	 25.56631714	 13.44100834	 -43.67248348
Pt	 25.56631714	 13.44100834	 -40.76098458
Pt	 25.56631714	 13.44100834	 -37.84948569
Pt	 25.56631714	 13.44100834	 -34.93798679
Pt	 25.56631714	 13.44100834	 -32.02648789
Pt	 25.56631714	 13.44100834	 -29.11498899
Pt	 25.56631714	 13.44100834	 -26.20349009
Pt	 25.56631714	 13.44100834	 -23.29199119
Pt	 25.56631714	 13.44100834	 -20.38049229
Pt	 25.56631714	 13.44100834	 -17.46899339
Pt	 25.56631714	 13.44100834	 -14.55749449
Pt	 25.56631714	 13.44100834	 -11.64599560
Pt	 25.56631714	 13.44100834	 -8.73449670
Pt	 25.56631714	 13.44100834	 -5.82299780
Pt	 25.56631714	 13.44100834	 -2.91149890
Pt	 25.56631714	 13.44100834	 0.00000000
Pt	 25.56631714	 13.44100834	 2.91149890
Pt	 25.56631714	 13.44100834	 5.82299780
Pt	 25.56631714	 13.44100834	 8.73449670
Pt	 25.56631714	 13.44100834	 11.64599560
Pt	 25.56631714	 13.44100834	 14.55749449
Pt	 25.56631714	 13.44100834	 17.46899339
Pt	 25.56631714	 13.44100834	 20.38049229
Pt	 25.56631714	 13.44100834	 23.29199119
Pt	 25.56631714	 13.44100834	 26.20349009
Pt	 25.56631714	 13.44100834	 29.11498899
Pt	 25.56631714	 13.44100834	 32.02648789
Pt	 25.56631714	 13.44100834	 34.93798679
Pt	 25.56631714	 13.44100834	 37.84948569
Pt	 25.56631714	 13.44100834	 40.76098458
Pt	 25.56631714	 13.44100834	 43.67248348
Pt	 25.56631714	 13.44100834	 46.58398238
Pt	 25.56631714	 13.44100834	 49.49548128
Pt	 25.56631714	 13.44100834	 52.40698018
Pt	 25.56631714	 13.44100834	 55.31847908
Pt	 25.56631714	 13.44100834	 58.22997798
Pt	 25.56631714	 13.44100834	 61.14147688
Pt	 25.56631714	 13.44100834	 64.05297578
Pt	 53.27569539	 4.48033611	 -50.95123073
Pt	 53.27569539	 4.48033611	 -48.03973183
Pt	 53.27569539	 4.48033611	 -45.12823293
Pt	 53.27569539	 4.48033611	 -42.21673403
Pt	 53.27569539	 4.48033611	 -39.30523514
Pt	 53.27569539	 4.48033611	 -36.39373624
Pt	 53.27569539	 4.48033611	 -33.48223734
Pt	 53.27569539	 4.48033611	 -30.57073844
Pt	 53.27569539	 4.48033611	 -27.65923954
Pt	 53.27569539	 4.48033611	 -24.74774064
Pt	 53.27569539	 4.48033611	 -21.83624174
Pt	 53.27569539	 4.48033611	 -18.92474284
Pt	 53.27569539	 4.48033611	 -16.01324394
Pt	 53.27569539	 4.48033611	 -13.10174505
Pt	 53.27569539	 4.48033611	 -10.19024615
Pt	 53.27569539	 4.48033611	 -7.27874725
Pt	 53.27569539	 4.48033611	 -4.36724835
Pt	 53.27569539	 4.48033611	 -1.45574945
Pt	 53.27569539	 4.48033611	 1.45574945
Pt	 53.27569539	 4.48033611	 4.36724835
Pt	 53.27569539	 4.48033611	 7.27874725
Pt	 53.27569539	 4.48033611	 10.19024615
Pt	 53.27569539	 4.48033611	 13.10174505
Pt	 53.27569539	 4.48033611	 16.01324394
Pt	 53.27569539	 4.48033611	 18.92474284
Pt	 53.27569539	 4.48033611	 21.83624174
Pt	 53.27569539	 4.48033611	 24.74774064
Pt	 53.27569539	 4.48033611	 27.65923954
Pt	 53.27569539	 4.48033611	 30.57073844
Pt	 53.27569539	 4.48033611	 33.48223734
Pt	 53.27569539	 4.48033611	 36.39373624
Pt	 53.27569539	 4.48033611	 39.30523514
Pt	 53.27569539	 4.48033611	 42.21673403
Pt	 53.27569539	 4.48033611	 45.12823293
Pt	 53.27569539	 4.48033611	 48.03973183
Pt	 53.27569539	 4.48033611	 50.95123073
Pt	 19.22783560	 15.68117640	 -66.96447468
Pt	 19.22783560	 15.68117640	 -64.05297578
Pt	 19.22783560	 15.68117640	 -61.14147688
Pt	 19.22783560	 15.68117640	 -58.22997798
Pt	 19.22783560	 15.68117640	 -55.31847908
Pt	 19.22783560	 15.68117640	 -52.40698018
Pt	 19.22783560	 15.68117640	 -49.49548128
Pt	 19.22783560	 15.68117640	 -46.58398238
Pt	 19.22783560	 15.68117640	 -43.67248348
Pt	 19.22783560	 15.68117640	 -40.76098458
Pt	 19.22783560	 15.68117640	 -37.84948569
Pt	 19.22783560	 15.68117640	 -34.93798679
Pt	 19.22783560	 15.68117640	 -32.02648789
Pt	 19.22783560	 15.68117640	 -29.11498899
Pt	 19.22783560	 15.68117640	 -26.20349009
Pt	 19.22783560	 15.68117640	 -23.29199119
Pt	 19.22783560	 15.68117640	 -20.38049229
Pt	 19.22783560	 15.68117640	 -17.46899339
Pt	 19.22783560	 15.68117640	 -14.55749449
Pt	 19.22783560	 15.68117640	 -11.64599560
Pt	 19.22783560	 15.68117640	 -8.73449670
Pt	 19.22783560	 15.68117640	 -5.82299780
Pt	 19.22783560	 15.68117640	 -2.91149890
Pt	 19.22783560	 15.68117640	 -0.00000000
Pt	 19.22783560	 15.68117640	 2.91149890
Pt	 19.22783560	 15.68117640	 5.82299780
Pt	 19.22783560	 15.68117640	 8.73449670
Pt	 19.22783560	 15.68117640	 11.64599560
Pt	 19.22783560	 15.68117640	 14.55749449
Pt	 19.22783560	 15.68117640	 17.46899339
Pt	 19.22783560	 15.68117640	 20.38049229
Pt	 19.22783560	 15.68117640	 23.29199119
Pt	 19.22783560	 15.68117640	 26.20349009
Pt	 19.22783560	 15.68117640	 29.11498899
Pt	 19.22783560	 15.68117640	 32.02648789
Pt	 19.22783560	 15.68117640	 34.93798679
Pt	 19.22783560	 15.68117640	 37.84948569
Pt	 19.22783560	 15.68117640	 40.76098458
Pt	 19.22783560	 15.68117640	 43.67248348
Pt	 19.22783560	 15.68117640	 46.58398238
Pt	 19.22783560	 15.68117640	 49.49548128
Pt	 19.22783560	 15.68117640	 52.40698018
Pt	 19.22783560	 15.68117640	 55.31847908
Pt	 19.22783560	 15.68117640	 58.22997798
Pt	 19.22783560	 15.68117640	 61.14147688
Pt	 19.22783560	 15.68117640	 64.05297578
Pt	 19.22783560	 15.68117640	 66.96447468
Pt	 46.93721385	 6.72050417	 -53.86272963
Pt	 46.93721385	 6.72050417	 -50.95123073
Pt	 46.93721385	 6.72050417	 -48.03973183
Pt	 46.93721385	 6.72050417	 -45.12823293
Pt	 46.93721385	 6.72050417	 -42.21673403
Pt	 46.93721385	 6.72050417	 -39.30523514
Pt	 46.93721385	 6.72050417	 -36.39373624
Pt	 46.93721385	 6.72050417	 -33.48223734
Pt	 46.93721385	 6.72050417	 -30.57073844
Pt	 46.93721385	 6.72050417	 -27.65923954
Pt	 46.93721385	 6.72050417	 -24.74774064
Pt	 46.93721385	 6.72050417	 -21.83624174
Pt	 46.93721385	 6.72050417	 -18.92474284
Pt	 46.93721385	 6.72050417	 -16.01324394
Pt	 46.93721385	 6.72050417	 -13.10174505
Pt	 46.93721385	 6.72050417	 -10.19024615
Pt	 46.93721385	 6.72050417	 -7.27874725
Pt	 46.93721385	 6.72050417	 -4.36724835
Pt	 46.93721385	 6.72050417	 -1.45574945
Pt	 46.93721385	 6.72050417	 1.45574945
Pt	 46.93721385	 6.72050417	 4.36724835
Pt	 46.93721385	 6.72050417	 7.27874725
Pt	 46.93721385	 6.72050417	 10.19024615
Pt	 46.93721385	 6.72050417	 13.10174505
Pt	 46.93721385	 6.72050417	 16.01324394
Pt	 46.93721385	 6.72050417	 18.92474284
Pt	 46.93721385	 6.72050417	 21.83624174
Pt	 46.93721385	 6.72050417	 24.74774064
Pt	 46.93721385	 6.72050417	 27.65923954
Pt	 46.93721385	 6.72050417	 30.57073844
Pt	 46.93721385	 6.72050417	 33.48223734
Pt	 46.93721385	 6.72050417	 36.39373624
Pt	 46.93721385	 6.72050417	 39.30523514
Pt	 46.93721385	 6.72050417	 42.21673403
Pt	 46.93721385	 6.72050417	 45.12823293
Pt	 46.93721385	 6.72050417	 48.03973183
Pt	 46.93721385	 6.72050417	 50.95123073
Pt	 46.93721385	 6.72050417	 53.86272963
Pt	 40.59873231	 8.96067223	 -56.77422853
Pt	 40.59873231	 8.96067223	 -53.86272963
Pt	 40.59873231	 8.96067223	 -50.95123073
Pt	 40.59873231	 8.96067223	 -48.03973183
Pt	 40.59873231	 8.96067223	 -45.12823293
Pt	 40.59873231	 8.96067223	 -42.21673403
Pt	 40.59873231	 8.96067223	 -39.30523514
Pt	 40.59873231	 8.96067223	 -36.39373624
Pt	 40.59873231	 8.96067223	 -33.48223734
Pt	 40.59873231	 8.96067223	 -30.57073844
Pt	 40.59873231	 8.96067223	 -27.65923954
Pt	 40.59873231	 8.96067223	 -24.74774064
Pt	 40.59873231	 8.96067223	 -21.83624174
Pt	 40.59873231	 8.96067223	 -18.92474284
Pt	 40.59873231	 8.96067223	 -16.01324394
Pt	 40.59873231	 8.96067223	 -13.10174505
Pt	 40.59873231	 8.96067223	 -10.19024615
Pt	 40.59873231	 8.96067223	 -7.27874725
Pt	 40.59873231	 8.96067223	 -4.36724835
Pt	 40.59873231	 8.96067223	 -1.45574945
Pt	 40.59873231	 8.96067223	 1.45574945
Pt	 40.59873231	 8.96067223	 4.36724835
Pt	 40.59873231	 8.96067223	 7.27874725
Pt	 40.59873231	 8.96067223	 10.19024615
Pt	 40.59873231	 8.96067223	 13.10174505
Pt	 40.59873231	 8.96067223	 16.01324394
Pt	 40.59873231	 8.96067223	 18.92474284
Pt	 40.59873231	 8.96067223	 21.83624174
Pt	 40.59873231	 8.96067223	 24.74774064
Pt	 40.59873231	 8.96067223	 27.65923954
Pt	 40.59873231	 8.96067223	 30.57073844
Pt	 40.59873231	 8.96067223	 33.48223734
Pt	 40.59873231	 8.96067223	 36.39373624
Pt	 40.59873231	 8.96067223	 39.30523514
Pt	 40.59873231	 8.96067223	 42.21673403
Pt	 40.59873231	 8.96067223	 45.12823293
Pt	 40.59873231	 8.96067223	 48.03973183
Pt	 40.59873231	 8.96067223	 50.95123073
Pt	 40.59873231	 8.96067223	 53.86272963
Pt	 40.59873231	 8.96067223	 56.77422853
Pt	 68.30811056	 0.00000000	 -43.67248348
Pt	 68.30811056	 0.00000000	 -40.76098458
Pt	 68.30811056	 0.00000000	 -37.84948569
Pt	 68.30811056	 0.00000000	 -34.93798679
Pt	 68.30811056	 0.00000000	 -32.02648789
Pt	 68.30811056	 0.00000000	 -29.11498899
Pt	 68.30811056	 0.00000000	 -26.20349009
Pt	 68.30811056	 0.00000000	 -23.29199119
Pt	 68.30811056	 0.00000000	 -20.38049229
Pt	 68.30811056	 0.00000000	 -17.46899339
Pt	 68.30811056	 0.00000000	 -14.55749449
Pt	 68.30811056	 0.00000000	 -11.64599560
Pt	 68.30811056	 0.00000000	 -8.73449670
Pt	 68.30811056	 0.00000000	 -5.82299780
Pt	 68.30811056	 0.00000000	 -2.91149890
Pt	 68.30811056	 0.00000000	 -0.00000000
Pt	 68.30811056	 0.00000000	 2.91149890
Pt	 68.30811056	 0.00000000	 5.82299780
Pt	 68.30811056	 0.00000000	 8.73449670
Pt	 68.30811056	 0.00000000	 11.64599560
Pt	 68.30811056	 0.00000000	 14.55749449
Pt	 68.30811056	 0.00000000	 17.46899339
Pt	 68.30811056	 0.00000000	 20.38049229
Pt	 68.30811056	 0.00000000	 23.29199119
Pt	 68.30811056	 0.00000000	 26.20349009
Pt	 68.30811056	 0.00000000	 29.11498899
Pt	 68.30811056	 0.00000000	 32.02648789
Pt	 68.30811056	 0.00000000	 34.93798679
Pt	 68.30811056	 0.00000000	 37.84948569
Pt	 68.30811056	 0.00000000	 40.76098458
Pt	 68.30811056	 0.00000000	 43.67248348
Pt	 34.26025077	 11.20084029	 -59.68572743
Pt	 34.26025077	 11.20084029	 -56.77422853
Pt	 34.26025077	 11.20084029	 -53.86272963
Pt	 34.26025077	 11.20084029	 -50.95123073
Pt	 34.26025077	 11.20084029	 -48.03973183
Pt	 34.26025077	 11.20084029	 -45.12823293
Pt	 34.26025077	 11.20084029	 -42.21673403
Pt	 34.26025077	 11.20084029	 -39.30523514
Pt	 34.26025077	 11.20084029	 -36.39373624
Pt	 34.26025077	 11.20084029	 -33.48223734
Pt	 34.26025077	 11.20084029	 -30.57073844
Pt	 34.26025077	 11.20084029	 -27.65923954
Pt	 34.26025077	 11.20084029	 -24.74774064
Pt	 34.26025077	 11.20084029	 -21.83624174
Pt	 34.26025077	 11.20084029	 -18.92474284
Pt	 34.26025077	 11.20084029	 -16.01324394
Pt	 34.26025077	 11.20084029	 -13.10174505
Pt	 34.26025077	 11.20084029	 -10.19024615
Pt	 34.26025077	 11.20084029	 -7.27874725
Pt	 34.26025077	 11.20084029	 -4.36724835
Pt	 34.26025077	 11.20084029	 -1.45574945
Pt	 34.26025077	 11.20084029	 1.45574945
Pt	 34.26025077	 11.20084029	 4.36724835
Pt	 34.26025077	 11.20084029	 7.27874725
Pt	 34.26025077	 11.20084029	 10.19024615
Pt	 34.26025077	 11.20084029	 13.10174505
Pt	 34.26025077	 11.20084029	 16.01324394
Pt	 34.26025077	 11.20084029	 18.92474284
Pt	 34.26025077	 11.20084029	 21.83624174
Pt	 34.26025077	 11.20084029	 24.74774064
Pt	 34.26025077	 11.20084029	 27.65923954
Pt	 34.26025077	 11.20084029	 30.57073844
Pt	 34.26025077	 11.20084029	 33.48223734
Pt	 34.26025077	 11.20084029	 36.39373624
Pt	 34.26025077	 11.20084029	 39.30523514
Pt	 34.26025077	 11.20084029	 42.21673403
Pt	 34.26025077	 11.20084029	 45.12823293
Pt	 34.26025077	 11.20084029	 48.03973183
Pt	 34.26025077	 11.20084029	 50.95123073
Pt	 34.26025077	 11.20084029	 53.86272963
Pt	 34.26025077	 11.20084029	 56.77422853
Pt	 34.26025077	 11.20084029	 59.68572743
Pt	 61.96962902	 2.24016806	 -46.58398238
Pt	 61.96962902	 2.24016806	 -43.67248348
Pt	 61.96962902	 2.24016806	 -40.76098458
Pt	 61.96962902	 2.24016806	 -37.84948569
Pt	 61.96962902	 2.24016806	 -34.93798679
Pt	 61.96962902	 2.24016806	 -32.02648789
Pt	 61.96962902	 2.24016806	 -29.11498899
Pt	 61.96962902	 2.24016806	 -26.20349009
Pt	 61.96962902	 2.24016806	 -23.29199119
Pt	 61.96962902	 2.24016806	 -20.38049229
Pt	 61.96962902	 2.24016806	 -17.46899339
Pt	 61.96962902	 2.24016806	 -14.55749449
Pt	 61.96962902	 2.24016806	 -11.64599560
Pt	 61.96962902	 2.24016806	 -8.73449670
Pt	 61.96962902	 2.24016806	 -5.82299780
Pt	 61.96962902	 2.24016806	 -2.91149890
Pt	 61.96962902	 2.24016806	 -0.00000000
Pt	 61.96962902	 2.24016806	 2.91149890
Pt	 61.96962902	 2.24016806	 5.82299780
Pt	 61.96962902	 2.24016806	 8.73449670
Pt	 61.96962902	 2.24016806	 11.64599560
Pt	 61.96962902	 2.24016806	 14.55749449
Pt	 61.96962902	 2.24016806	 17.46899339
Pt	 61.96962902	 2.24016806	 20.38049229
Pt	 61.96962902	 2.24016806	 23.29199119
Pt	 61.96962902	 2.24016806	 26.20349009
Pt	 61.96962902	 2.24016806	 29.11498899
Pt	 61.96962902	 2.24016806	 32.02648789
Pt	 61.96962902	 2.24016806	 34.93798679
Pt	 61.96962902	 2.24016806	 37.84948569
Pt	 61.96962902	 2.24016806	 40.76098458
Pt	 61.96962902	 2.24016806	 43.67248348
Pt	 61.96962902	 2.24016806	 46.58398238
Pt	 27.92176923	 13.44100834	 -62.59722633
Pt	 27.92176923	 13.44100834	 -59.68572743
Pt	 27.92176923	 13.44100834	 -56.77422853
Pt	 27.92176923	 13.44100834	 -53.86272963
Pt	 27.92176923	 13.44100834	 -50.95123073
Pt	 27.92176923	 13.44100834	 -48.03973183
Pt	 27.92176923	 13.44100834	 -45.12823293
Pt	 27.92176923	 13.44100834	 -42.21673403
Pt	 27.92176923	 13.44100834	 -39.30523514
Pt	 27.92176923	 13.44100834	 -36.39373624
Pt	 27.92176923	 13.44100834	 -33.48223734
Pt	 27.92176923	 13.44100834	 -30.57073844
Pt	 27.92176923	 13.44100834	 -27.65923954
Pt	 27.92176923	 13.44100834	 -24.74774064
Pt	 27.92176923	 13.44100834	 -21.83624174
Pt	 27.92176923	 13.44100834	 -18.92474284
Pt	 27.92176923	 13.44100834	 -16.01324394
Pt	 27.92176923	 13.44100834	 -13.10174505
Pt	 27.92176923	 13.44100834	 -10.19024615
Pt	 27.92176923	 13.44100834	 -7.27874725
Pt	 27.92176923	 13.44100834	 -4.36724835
Pt	 27.92176923	 13.44100834	 -1.45574945
Pt	 27.92176923	 13.44100834	 1.45574945
Pt	 27.92176923	 13.44100834	 4.36724835
Pt	 27.92176923	 13.44100834	 7.27874725
Pt	 27.92176923	 13.44100834	 10.19024615
Pt	 27.92176923	 13.44100834	 13.10174505
Pt	 27.92176923	 13.44100834	 16.01324394
Pt	 27.92176923	 13.44100834	 18.92474284
Pt	 27.92176923	 13.44100834	 21.83624174
Pt	 27.92176923	 13.44100834	 24.74774064
Pt	 27.92176923	 13.44100834	 27.65923954
Pt	 27.92176923	 13.44100834	 30.57073844
Pt	 27.92176923	 13.44100834	 33.48223734
Pt	 27.92176923	 13.44100834	 36.39373624
Pt	 27.92176923	 13.44100834	 39.30523514
Pt	 27.92176923	 13.44100834	 42.21673403
Pt	 27.92176923	 13.44100834	 45.12823293
Pt	 27.92176923	 13.44100834	 48.03973183
Pt	 27.92176923	 13.44100834	 50.95123073
Pt	 27.92176923	 13.44100834	 53.86272963
Pt	 27.92176923	 13.44100834	 56.77422853
Pt	 27.92176923	 13.44100834	 59.68572743
Pt	 27.92176923	 13.44100834	 62.59722633
Pt	 55.63114748	 4.48033611	 -49.49548128
Pt	 55.63114748	 4.48033611	 -46.58398238
Pt	 55.63114748	 4.48033611	 -43.67248348
Pt	 55.63114748	 4.48033611	 -40.76098458
Pt	 55.63114748	 4.48033611	 -37.84948569
Pt	 55.63114748	 4.48033611	 -34.93798679
Pt	 55.63114748	 4.48033611	 -32.02648789
Pt	 55.63114748	 4.48033611	 -29.11498899
Pt	 55.63114748	 4.48033611	 -26.20349009
Pt	 55.63114748	 4.48033611	 -23.29199119
Pt	 55.63114748	 4.48033611	 -20.38049229
Pt	 55.63114748	 4.48033611	 -17.46899339
Pt	 55.63114748	 4.48033611	 -14.55749449
Pt	 55.63114748	 4.48033611	 -11.64599560
Pt	 55.63114748	 4.48033611	 -8.73449670
Pt	 55.63114748	 4.48033611	 -5.82299780
Pt	 55.63114748	 4.48033611	 -2.91149890
Pt	 55.63114748	 4.48033611	 0.00000000
Pt	 55.63114748	 4.48033611	 2.91149890
Pt	 55.63114748	 4.48033611	 5.82299780
Pt	 55.63114748	 4.48033611	 8.73449670
Pt	 55.63114748	 4.48033611	 11.64599560
Pt	 55.63114748	 4.48033611	 14.55749449
Pt	 55.63114748	 4.48033611	 17.46899339
Pt	 55.63114748	 4.48033611	 20.38049229
Pt	 55.63114748	 4.48033611	 23.29199119
Pt	 55.63114748	 4.48033611	 26.20349009
Pt	 55.63114748	 4.48033611	 29.11498899
Pt	 55.63114748	 4.48033611	 32.02648789
Pt	 55.63114748	 4.48033611	 34.93798679
Pt	 55.63114748	 4.48033611	 37.84948569
Pt	 55.63114748	 4.48033611	 40.76098458
Pt	 55.63114748	 4.48033611	 43.67248348
Pt	 55.63114748	 4.48033611	 46.58398238
Pt	 55.63114748	 4.48033611	 49.49548128
Pt	 21.58328769	 15.68117640	 -65.50872523
Pt	 21.58328769	 15.68117640	 -62.59722633
Pt	 21.58328769	 15.68117640	 -59.68572743
Pt	 21.58328769	 15.68117640	 -56.77422853
Pt	 21.58328769	 15.68117640	 -53.86272963
Pt	 21.58328769	 15.68117640	 -50.95123073
Pt	 21.58328769	 15.68117640	 -48.03973183
Pt	 21.58328769	 15.68117640	 -45.12823293
Pt	 21.58328769	 15.68117640	 -42.21673403
Pt	 21.58328769	 15.68117640	 -39.30523514
Pt	 21.58328769	 15.68117640	 -36.39373624
Pt	 21.58328769	 15.68117640	 -33.48223734
Pt	 21.58328769	 15.68117640	 -30.57073844
Pt	 21.58328769	 15.68117640	 -27.65923954
Pt	 21.58328769	 15.68117640	 -24.74774064
Pt	 21.58328769	 15.68117640	 -21.83624174
Pt	 21.58328769	 15.68117640	 -18.92474284
Pt	 21.58328769	 15.68117640	 -16.01324394
Pt	 21.58328769	 15.68117640	 -13.10174505
Pt	 21.58328769	 15.68117640	 -10.19024615
Pt	 21.58328769	 15.68117640	 -7.27874725
Pt	 21.58328769	 15.68117640	 -4.36724835
Pt	 21.58328769	 15.68117640	 -1.45574945
Pt	 21.58328769	 15.68117640	 1.45574945
Pt	 21.58328769	 15.68117640	 4.36724835
Pt	 21.58328769	 15.68117640	 7.27874725
Pt	 21.58328769	 15.68117640	 10.19024615
Pt	 21.58328769	 15.68117640	 13.10174505
Pt	 21.58328769	 15.68117640	 16.01324394
Pt	 21.58328769	 15.68117640	 18.92474284
Pt	 21.58328769	 15.68117640	 21.83624174
Pt	 21.58328769	 15.68117640	 24.74774064
Pt	 21.58328769	 15.68117640	 27.65923954
Pt	 21.58328769	 15.68117640	 30.57073844
Pt	 21.58328769	 15.68117640	 33.48223734
Pt	 21.58328769	 15.68117640	 36.39373624
Pt	 21.58328769	 15.68117640	 39.30523514
Pt	 21.58328769	 15.68117640	 42.21673403
Pt	 21.58328769	 15.68117640	 45.12823293
Pt	 21.58328769	 15.68117640	 48.03973183
Pt	 21.58328769	 15.68117640	 50.95123073
Pt	 21.58328769	 15.68117640	 53.86272963
Pt	 21.58328769	 15.68117640	 56.77422853
Pt	 21.58328769	 15.68117640	 59.68572743
Pt	 21.58328769	 15.68117640	 62.59722633
Pt	 21.58328769	 15.68117640	 65.50872523
Pt	 49.29266594	 6.72050417	 -52.40698018
Pt	 49.29266594	 6.72050417	 -49.49548128
Pt	 49.29266594	 6.72050417	 -46.58398238
Pt	 49.29266594	 6.72050417	 -43.67248348
Pt	 49.29266594	 6.72050417	 -40.76098458
Pt	 49.29266594	 6.72050417	 -37.84948569
Pt	 49.29266594	 6.72050417	 -34.93798679
Pt	 49.29266594	 6.72050417	 -32.02648789
Pt	 49.29266594	 6.72050417	 -29.11498899
Pt	 49.29266594	 6.72050417	 -26.20349009
Pt	 49.29266594	 6.72050417	 -23.29199119
Pt	 49.29266594	 6.72050417	 -20.38049229
Pt	 49.29266594	 6.72050417	 -17.46899339
Pt	 49.29266594	 6.72050417	 -14.55749449
Pt	 49.29266594	 6.72050417	 -11.64599560
Pt	 49.29266594	 6.72050417	 -8.73449670
Pt	 49.29266594	 6.72050417	 -5.82299780
Pt	 49.29266594	 6.72050417	 -2.91149890
Pt	 49.29266594	 6.72050417	 -0.00000000
Pt	 49.29266594	 6.72050417	 2.91149890
Pt	 49.29266594	 6.72050417	 5.82299780
Pt	 49.29266594	 6.72050417	 8.73449670
Pt	 49.29266594	 6.72050417	 11.64599560
Pt	 49.29266594	 6.72050417	 14.55749449
Pt	 49.29266594	 6.72050417	 17.46899339
Pt	 49.29266594	 6.72050417	 20.38049229
Pt	 49.29266594	 6.72050417	 23.29199119
Pt	 49.29266594	 6.72050417	 26.20349009
Pt	 49.29266594	 6.72050417	 29.11498899
Pt	 49.29266594	 6.72050417	 32.02648789
Pt	 49.29266594	 6.72050417	 34.93798679
Pt	 49.29266594	 6.72050417	 37.84948569
Pt	 49.29266594	 6.72050417	 40.76098458
Pt	 49.29266594	 6.72050417	 43.67248348
Pt	 49.29266594	 6.72050417	 46.58398238
Pt	 49.29266594	 6.72050417	 49.49548128
Pt	 49.29266594	 6.72050417	 52.40698018
Pt	 42.95418440	 8.96067223	 -55.31847908
Pt	 42.95418440	 8.96067223	 -52.40698018
Pt	 42.95418440	 8.96067223	 -49.49548128
Pt	 42.95418440	 8.96067223	 -46.58398238
Pt	 42.95418440	 8.96067223	 -43.67248348
Pt	 42.95418440	 8.96067223	 -40.76098458
Pt	 42.95418440	 8.96067223	 -37.84948569
Pt	 42.95418440	 8.96067223	 -34.93798679
Pt	 42.95418440	 8.96067223	 -32.02648789
Pt	 42.95418440	 8.96067223	 -29.11498899
Pt	 42.95418440	 8.96067223	 -26.20349009
Pt	 42.95418440	 8.96067223	 -23.29199119
Pt	 42.95418440	 8.96067223	 -20.38049229
Pt	 42.95418440	 8.96067223	 -17.46899339
Pt	 42.95418440	 8.96067223	 -14.55749449
Pt	 42.95418440	 8.96067223	 -11.64599560
Pt	 42.95418440	 8.96067223	 -8.73449670
Pt	 42.95418440	 8.96067223	 -5.82299780
Pt	 42.95418440	 8.96067223	 -2.91149890
Pt	 42.95418440	 8.96067223	 -0.00000000
Pt	 42.95418440	 8.96067223	 2.91149890
Pt	 42.95418440	 8.96067223	 5.82299780
Pt	 42.95418440	 8.96067223	 8.73449670
Pt	 42.95418440	 8.96067223	 11.64599560
Pt	 42.95418440	 8.96067223	 14.55749449
Pt	 42.95418440	 8.96067223	 17.46899339
Pt	 42.95418440	 8.96067223	 20.38049229
Pt	 42.95418440	 8.96067223	 23.29199119
Pt	 42.95418440	 8.96067223	 26.20349009
Pt	 42.95418440	 8.96067223	 29.11498899
Pt	 42.95418440	 8.96067223	 32.02648789
Pt	 42.95418440	 8.96067223	 34.93798679
Pt	 42.95418440	 8.96067223	 37.84948569
Pt	 42.95418440	 8.96067223	 40.76098458
Pt	 42.95418440	 8.96067223	 43.67248348
Pt	 42.95418440	 8.96067223	 46.58398238
Pt	 42.95418440	 8.96067223	 49.49548128
Pt	 42.95418440	 8.96067223	 52.40698018
Pt	 42.95418440	 8.96067223	 55.31847908
Pt	 70.66356265	 0.00000000	 -42.21673403
Pt	 70.66356265	 0.00000000	 -39.30523514
Pt	 70.66356265	 0.00000000	 -36.39373624
Pt	 70.66356265	 0.00000000	 -33.48223734
Pt	 70.66356265	 0.00000000	 -30.57073844
Pt	 70.66356265	 0.00000000	 -27.65923954
Pt	 70.66356265	 0.00000000	 -24.74774064
Pt	 70.66356265	 0.00000000	 -21.83624174
Pt	 70.66356265	 0.00000000	 -18.92474284
Pt	 70.66356265	 0.00000000	 -16.01324394
Pt	 70.66356265	 0.00000000	 -13.10174505
Pt	 70.66356265	 0.00000000	 -10.19024615
Pt	 70.66356265	 0.00000000	 -7.27874725
Pt	 70.66356265	 0.00000000	 -4.36724835
Pt	 70.66356265	 0.00000000	 -1.45574945
Pt	 70.66356265	 0.00000000	 1.45574945
Pt	 70.66356265	 0.00000000	 4.36724835
Pt	 70.66356265	 0.00000000	 7.27874725
Pt	 70.66356265	 0.00000000	 10.19024615
Pt	 70.66356265	 0.00000000	 13.10174505
Pt	 70.66356265	 0.00000000	 16.01324394
Pt	 70.66356265	 0.00000000	 18.92474284
Pt	 70.66356265	 0.00000000	 21.83624174
Pt	 70.66356265	 0.00000000	 24.74774064
Pt	 70.66356265	 0.00000000	 27.65923954
Pt	 70.66356265	 0.00000000	 30.57073844
Pt	 70.66356265	 0.00000000	 33.48223734
Pt	 70.66356265	 0.00000000	 36.39373624
Pt	 70.66356265	 0.00000000	 39.30523514
Pt	 70.66356265	 0.00000000	 42.21673403
Pt	 36.61570286	 11.20084029	 -58.22997798
Pt	 36.61570286	 11.20084029	 -55.31847908
Pt	 36.61570286	 11.20084029	 -52.40698018
Pt	 36.61570286	 11.20084029	 -49.49548128
Pt	 36.61570286	 11.20084029	 -46.58398238
Pt	 36.61570286	 11.20084029	 -43.67248348
Pt	 36.61570286	 11.20084029	 -40.76098458
Pt	 36.61570286	 11.20084029	 -37.84948569
Pt	 36.61570286	 11.20084029	 -34.93798679
Pt	 36.61570286	 11.20084029	 -32.02648789
Pt	 36.61570286	 11.20084029	 -29.11498899
Pt	 36.61570286	 11.20084029	 -26.20349009
Pt	 36.61570286	 11.20084029	 -23.29199119
Pt	 36.61570286	 11.20084029	 -20.38049229
Pt	 36.61570286	 11.20084029	 -17.46899339
Pt	 36.61570286	 11.20084029	 -14.55749449
Pt	 36.61570286	 11.20084029	 -11.64599560
Pt	 36.61570286	 11.20084029	 -8.73449670
Pt	 36.61570286	 11.20084029	 -5.82299780
Pt	 36.61570286	 11.20084029	 -2.91149890
Pt	 36.61570286	 11.20084029	 -0.00000000
Pt	 36.61570286	 11.20084029	 2.91149890
Pt	 36.61570286	 11.20084029	 5.82299780
Pt	 36.61570286	 11.20084029	 8.73449670
Pt	 36.61570286	 11.20084029	 11.64599560
Pt	 36.61570286	 11.20084029	 14.55749449
Pt	 36.61570286	 11.20084029	 17.46899339
Pt	 36.61570286	 11.20084029	 20.38049229
Pt	 36.61570286	 11.20084029	 23.29199119
Pt	 36.61570286	 11.20084029	 26.20349009
Pt	 36.61570286	 11.20084029	 29.11498899
Pt	 36.61570286	 11.20084029	 32.02648789
Pt	 36.61570286	 11.20084029	 34.93798679
Pt	 36.61570286	 11.20084029	 37.84948569
Pt	 36.61570286	 11.20084029	 40.76098458
Pt	 36.61570286	 11.20084029	 43.67248348
Pt	 36.61570286	 11.20084029	 46.58398238
Pt	 36.61570286	 11.20084029	 49.49548128
Pt	 36.61570286	 11.20084029	 52.40698018
Pt	 36.61570286	 11.20084029	 55.31847908
Pt	 36.61570286	 11.20084029	 58.22997798
Pt	 64.32508111	 2.24016806	 -45.12823293
Pt	 64.32508111	 2.24016806	 -42.21673403
Pt	 64.32508111	 2.24016806	 -39.30523514
Pt	 64.32508111	 2.24016806	 -36.39373624
Pt	 64.32508111	 2.24016806	 -33.48223734
Pt	 64.32508111	 2.24016806	 -30.57073844
Pt	 64.32508111	 2.24016806	 -27.65923954
Pt	 64.32508111	 2.24016806	 -24.74774064
Pt	 64.32508111	 2.24016806	 -21.83624174
Pt	 64.32508111	 2.24016806	 -18.92474284
Pt	 64.32508111	 2.24016806	 -16.01324394
Pt	 64.32508111	 2.24016806	 -13.10174505
Pt	 64.32508111	 2.24016806	 -10.19024615
Pt	 64.32508111	 2.24016806	 -7.27874725
Pt	 64.32508111	 2.24016806	 -4.36724835
Pt	 64.32508111	 2.24016806	 -1.45574945
Pt	 64.32508111	 2.24016806	 1.45574945
Pt	 64.32508111	 2.24016806	 4.36724835
Pt	 64.32508111	 2.24016806	 7.27874725
Pt	 64.32508111	 2.24016806	 10.19024615
Pt	 64.32508111	 2.24016806	 13.10174505
Pt	 64.32508111	 2.24016806	 16.01324394
Pt	 64.32508111	 2.24016806	 18.92474284
Pt	 64.32508111	 2.24016806	 21.83624174
Pt	 64.32508111	 2.24016806	 24.74774064
Pt	 64.32508111	 2.24016806	 27.65923954
Pt	 64.32508111	 2.24016806	 30.57073844
Pt	 64.32508111	 2.24016806	 33.48223734
Pt	 64.32508111	 2.24016806	 36.39373624
Pt	 64.32508111	 2.24016806	 39.30523514
Pt	 64.32508111	 2.24016806	 42.21673403
Pt	 64.32508111	 2.24016806	 45.12823293
Pt	 30.27722132	 13.44100834	 -61.14147688
Pt	 30.27722132	 13.44100834	 -58.22997798
Pt	 30.27722132	 13.44100834	 -55.31847908
Pt	 30.27722132	 13.44100834	 -52.40698018
Pt	 30.27722132	 13.44100834	 -49.49548128
Pt	 30.27722132	 13.44100834	 -46.58398238
Pt	 30.27722132	 13.44100834	 -43.67248348
Pt	 30.27722132	 13.44100834	 -40.76098458
Pt	 30.27722132	 13.44100834	 -37.84948569
Pt	 30.27722132	 13.44100834	 -34.93798679
Pt	 30.27722132	 13.44100834	 -32.02648789
Pt	 30.27722132	 13.44100834	 -29.11498899
Pt	 30.27722132	 13.44100834	 -26.20349009
Pt	 30.27722132	 13.44100834	 -23.29199119
Pt	 30.27722132	 13.44100834	 -20.38049229
Pt	 30.27722132	 13.44100834	 -17.46899339
Pt	 30.27722132	 13.44100834	 -14.55749449
Pt	 30.27722132	 13.44100834	 -11.64599560
Pt	 30.27722132	 13.44100834	 -8.73449670
Pt	 30.27722132	 13.44100834	 -5.82299780
Pt	 30.27722132	 13.44100834	 -2.91149890
Pt	 30.27722132	 13.44100834	 -0.00000000
Pt	 30.27722132	 13.44100834	 2.91149890
Pt	 30.27722132	 13.44100834	 5.82299780
Pt	 30.27722132	 13.44100834	 8.73449670
Pt	 30.27722132	 13.44100834	 11.64599560
Pt	 30.27722132	 13.44100834	 14.55749449
Pt	 30.27722132	 13.44100834	 17.46899339
Pt	 30.27722132	 13.44100834	 20.38049229
Pt	 30.27722132	 13.44100834	 23.29199119
Pt	 30.27722132	 13.44100834	 26.20349009
Pt	 30.27722132	 13.44100834	 29.11498899
Pt	 30.27722132	 13.44100834	 32.02648789
Pt	 30.27722132	 13.44100834	 34.93798679
Pt	 30.27722132	 13.44100834	 37.84948569
Pt	 30.27722132	 13.44100834	 40.76098458
Pt	 30.27722132	 13.44100834	 43.67248348
Pt	 30.27722132	 13.44100834	 46.58398238
Pt	 30.27722132	 13.44100834	 49.49548128
Pt	 30.27722132	 13.44100834	 52.40698018
Pt	 30.27722132	 13.44100834	 55.31847908
Pt	 30.27722132	 13.44100834	 58.22997798
Pt	 30.27722132	 13.44100834	 61.14147688
Pt	 57.98659957	 4.48033611	 -48.03973183
Pt	 57.98659957	 4.48033611	 -45.12823293
Pt	 57.98659957	 4.48033611	 -42.21673403
Pt	 57.98659957	 4.48033611	 -39.30523514
Pt	 57.98659957	 4.48033611	 -36.39373624
Pt	 57.98659957	 4.48033611	 -33.48223734
Pt	 57.98659957	 4.48033611	 -30.57073844
Pt	 57.98659957	 4.48033611	 -27.65923954
Pt	 57.98659957	 4.48033611	 -24.74774064
Pt	 57.98659957	 4.48033611	 -21.83624174
Pt	 57.98659957	 4.48033611	 -18.92474284
Pt	 57.98659957	 4.48033611	 -16.01324394
Pt	 57.98659957	 4.48033611	 -13.10174505
Pt	 57.98659957	 4.48033611	 -10.19024615
Pt	 57.98659957	 4.48033611	 -7.27874725
Pt	 57.98659957	 4.48033611	 -4.36724835
Pt	 57.98659957	 4.48033611	 -1.45574945
Pt	 57.98659957	 4.48033611	 1.45574945
Pt	 57.98659957	 4.48033611	 4.36724835
Pt	 57.98659957	 4.48033611	 7.27874725
Pt	 57.98659957	 4.48033611	 10.19024615
Pt	 57.98659957	 4.48033611	 13.10174505
Pt	 57.98659957	 4.48033611	 16.01324394
Pt	 57.98659957	 4.48033611	 18.92474284
Pt	 57.98659957	 4.48033611	 21.83624174
Pt	 57.98659957	 4.48033611	 24.74774064
Pt	 57.98659957	 4.48033611	 27.65923954
Pt	 57.98659957	 4.48033611	 30.57073844
Pt	 57.98659957	 4.48033611	 33.48223734
Pt	 57.98659957	 4.48033611	 36.39373624
Pt	 57.98659957	 4.48033611	 39.30523514
Pt	 57.98659957	 4.48033611	 42.21673403
Pt	 57.98659957	 4.48033611	 45.12823293
Pt	 57.98659957	 4.48033611	 48.03973183
Pt	 23.93873978	 15.68117640	 -64.05297578
Pt	 23.93873978	 15.68117640	 -61.14147688
Pt	 23.93873978	 15.68117640	 -58.22997798
Pt	 23.93873978	 15.68117640	 -55.31847908
Pt	 23.93873978	 15.68117640	 -52.40698018
Pt	 23.93873978	 15.68117640	 -49.49548128
Pt	 23.93873978	 15.68117640	 -46.58398238
Pt	 23.93873978	 15.68117640	 -43.67248348
Pt	 23.93873978	 15.68117640	 -40.76098458
Pt	 23.93873978	 15.68117640	 -37.84948569
Pt	 23.93873978	 15.68117640	 -34.93798679
Pt	 23.93873978	 15.68117640	 -32.02648789
Pt	 23.93873978	 15.68117640	 -29.11498899
Pt	 23.93873978	 15.68117640	 -26.20349009
Pt	 23.93873978	 15.68117640	 -23.29199119
Pt	 23.93873978	 15.68117640	 -20.38049229
Pt	 23.93873978	 15.68117640	 -17.46899339
Pt	 23.93873978	 15.68117640	 -14.55749449
Pt	 23.93873978	 15.68117640	 -11.64599560
Pt	 23.93873978	 15.68117640	 -8.73449670
Pt	 23.93873978	 15.68117640	 -5.82299780
Pt	 23.93873978	 15.68117640	 -2.91149890
Pt	 23.93873978	 15.68117640	 -0.00000000
Pt	 23.93873978	 15.68117640	 2.91149890
Pt	 23.93873978	 15.68117640	 5.82299780
Pt	 23.93873978	 15.68117640	 8.73449670
Pt	 23.93873978	 15.68117640	 11.64599560
Pt	 23.93873978	 15.68117640	 14.55749449
Pt	 23.93873978	 15.68117640	 17.46899339
Pt	 23.93873978	 15.68117640	 20.38049229
Pt	 23.93873978	 15.68117640	 23.29199119
Pt	 23.93873978	 15.68117640	 26.20349009
Pt	 23.93873978	 15.68117640	 29.11498899
Pt	 23.93873978	 15.68117640	 32.02648789
Pt	 23.93873978	 15.68117640	 34.93798679
Pt	 23.93873978	 15.68117640	 37.84948569
Pt	 23.93873978	 15.68117640	 40.76098458
Pt	 23.93873978	 15.68117640	 43.67248348
Pt	 23.93873978	 15.68117640	 46.58398238
Pt	 23.93873978	 15.68117640	 49.49548128
Pt	 23.93873978	 15.68117640	 52.40698018
Pt	 23.93873978	 15.68117640	 55.31847908
Pt	 23.93873978	 15.68117640	 58.22997798
Pt	 23.93873978	 15.68117640	 61.14147688
Pt	 23.93873978	 15.68117640	 64.05297578
Pt	 51.64811803	 6.72050417	 -50.95123073
Pt	 51.64811803	 6.72050417	 -48.03973183
Pt	 51.64811803	 6.72050417	 -45.12823293
Pt	 51.64811803	 6.72050417	 -42.21673403
Pt	 51.64811803	 6.72050417	 -39.30523514
Pt	 51.64811803	 6.72050417	 -36.39373624
Pt	 51.64811803	 6.72050417	 -33.48223734
Pt	 51.64811803	 6.72050417	 -30.57073844
Pt	 51.64811803	 6.72050417	 -27.65923954
Pt	 51.64811803	 6.72050417	 -24.74774064
Pt	 51.64811803	 6.72050417	 -21.83624174
Pt	 51.64811803	 6.72050417	 -18.92474284
Pt	 51.64811803	 6.72050417	 -16.01324394
Pt	 51.64811803	 6.72050417	 -13.10174505
Pt	 51.64811803	 6.72050417	 -10.19024615
Pt	 51.64811803	 6.72050417	 -7.27874725
Pt	 51.64811803	 6.72050417	 -4.36724835
Pt	 51.64811803	 6.72050417	 -1.45574945
Pt	 51.64811803	 6.72050417	 1.45574945
Pt	 51.64811803	 6.72050417	 4.36724835
Pt	 51.64811803	 6.72050417	 7.27874725
Pt	 51.64811803	 6.72050417	 10.19024615
Pt	 51.64811803	 6.72050417	 13.10174505
Pt	 51.64811803	 6.72050417	 16.01324394
Pt	 51.64811803	 6.72050417	 18.92474284
Pt	 51.64811803	 6.72050417	 21.83624174
Pt	 51.64811803	 6.72050417	 24.74774064
Pt	 51.64811803	 6.72050417	 27.65923954
Pt	 51.64811803	 6.72050417	 30.57073844
Pt	 51.64811803	 6.72050417	 33.48223734
Pt	 51.64811803	 6.72050417	 36.39373624
Pt	 51.64811803	 6.72050417	 39.30523514
Pt	 51.64811803	 6.72050417	 42.21673403
Pt	 51.64811803	 6.72050417	 45.12823293
Pt	 51.64811803	 6.72050417	 48.03973183
Pt	 51.64811803	 6.72050417	 50.95123073
Pt	 45.30963649	 8.96067223	 -53.86272963
Pt	 45.30963649	 8.96067223	 -50.95123073
Pt	 45.30963649	 8.96067223	 -48.03973183
Pt	 45.30963649	 8.96067223	 -45.12823293
Pt	 45.30963649	 8.96067223	 -42.21673403
Pt	 45.30963649	 8.96067223	 -39.30523514
Pt	 45.30963649	 8.96067223	 -36.39373624
Pt	 45.30963649	 8.96067223	 -33.48223734
Pt	 45.30963649	 8.96067223	 -30.57073844
Pt	 45.30963649	 8.96067223	 -27.65923954
Pt	 45.30963649	 8.96067223	 -24.74774064
Pt	 45.30963649	 8.96067223	 -21.83624174
Pt	 45.30963649	 8.96067223	 -18.92474284
Pt	 45.30963649	 8.96067223	 -16.01324394
Pt	 45.30963649	 8.96067223	 -13.10174505
Pt	 45.30963649	 8.96067223	 -10.19024615
Pt	 45.30963649	 8.96067223	 -7.27874725
Pt	 45.30963649	 8.96067223	 -4.36724835
Pt	 45.30963649	 8.96067223	 -1.45574945
Pt	 45.30963649	 8.96067223	 1.45574945
Pt	 45.30963649	 8.96067223	 4.36724835
Pt	 45.30963649	 8.96067223	 7.27874725
Pt	 45.30963649	 8.96067223	 10.19024615
Pt	 45.30963649	 8.96067223	 13.10174505
Pt	 45.30963649	 8.96067223	 16.01324394
Pt	 45.30963649	 8.96067223	 18.92474284
Pt	 45.30963649	 8.96067223	 21.83624174
Pt	 45.30963649	 8.96067223	 24.74774064
Pt	 45.30963649	 8.96067223	 27.65923954
Pt	 45.30963649	 8.96067223	 30.57073844
Pt	 45.30963649	 8.96067223	 33.48223734
Pt	 45.30963649	 8.96067223	 36.39373624
Pt	 45.30963649	 8.96067223	 39.30523514
Pt	 45.30963649	 8.96067223	 42.21673403
Pt	 45.30963649	 8.96067223	 45.12823293
Pt	 45.30963649	 8.96067223	 48.03973183
Pt	 45.30963649	 8.96067223	 50.95123073
Pt	 45.30963649	 8.96067223	 53.86272963
Pt	 73.01901474	 0.00000000	 -40.76098458
Pt	 73.01901474	 0.00000000	 -37.84948569
Pt	 73.01901474	 0.00000000	 -34.93798679
Pt	 73.01901474	 0.00000000	 -32.02648789
Pt	 73.01901474	 0.00000000	 -29.11498899
Pt	 73.01901474	 0.00000000	 -26.20349009
Pt	 73.01901474	 0.00000000	 -23.29199119
Pt	 73.01901474	 0.00000000	 -20.38049229
Pt	 73.01901474	 0.00000000	 -17.46899339
Pt	 73.01901474	 0.00000000	 -14.55749449
Pt	 73.01901474	 0.00000000	 -11.64599560
Pt	 73.01901474	 0.00000000	 -8.73449670
Pt	 73.01901474	 0.00000000	 -5.82299780
Pt	 73.01901474	 0.00000000	 -2.91149890
Pt	 73.01901474	 0.00000000	 -0.00000000
Pt	 73.01901474	 0.00000000	 2.91149890
Pt	 73.01901474	 0.00000000	 5.82299780
Pt	 73.01901474	 0.00000000	 8.73449670
Pt	 73.01901474	 0.00000000	 11.64599560
Pt	 73.01901474	 0.00000000	 14.55749449
Pt	 73.01901474	 0.00000000	 17.46899339
Pt	 73.01901474	 0.00000000	 20.38049229
Pt	 73.01901474	 0.00000000	 23.29199119
Pt	 73.01901474	 0.00000000	 26.20349009
Pt	 73.01901474	 0.00000000	 29.11498899
Pt	 73.01901474	 0.00000000	 32.02648789
Pt	 73.01901474	 0.00000000	 34.93798679
Pt	 73.01901474	 0.00000000	 37.84948569
Pt	 73.01901474	 0.00000000	 40.76098458
Pt	 38.97115495	 11.20084029	 -56.77422853
Pt	 38.97115495	 11.20084029	 -53.86272963
Pt	 38.97115495	 11.20084029	 -50.95123073
Pt	 38.97115495	 11.20084029	 -48.03973183
Pt	 38.97115495	 11.20084029	 -45.12823293
Pt	 38.97115495	 11.20084029	 -42.21673403
Pt	 38.97115495	 11.20084029	 -39.30523514
Pt	 38.97115495	 11.20084029	 -36.39373624
Pt	 38.97115495	 11.20084029	 -33.48223734
Pt	 38.97115495	 11.20084029	 -30.57073844
Pt	 38.97115495	 11.20084029	 -27.65923954
Pt	 38.97115495	 11.20084029	 -24.74774064
Pt	 38.97115495	 11.20084029	 -21.83624174
Pt	 38.97115495	 11.20084029	 -18.92474284
Pt	 38.97115495	 11.20084029	 -16.01324394
Pt	 38.97115495	 11.20084029	 -13.10174505
Pt	 38.97115495	 11.20084029	 -10.19024615
Pt	 38.97115495	 11.20084029	 -7.27874725
Pt	 38.97115495	 11.20084029	 -4.36724835
Pt	 38.97115495	 11.20084029	 -1.45574945
Pt	 38.97115495	 11.20084029	 1.45574945
Pt	 38.97115495	 11.20084029	 4.36724835
Pt	 38.97115495	 11.20084029	 7.27874725
Pt	 38.97115495	 11.20084029	 10.19024615
Pt	 38.97115495	 11.20084029	 13.10174505
Pt	 38.97115495	 11.20084029	 16.01324394
Pt	 38.97115495	 11.20084029	 18.92474284
Pt	 38.97115495	 11.20084029	 21.83624174
Pt	 38.97115495	 11.20084029	 24.74774064
Pt	 38.97115495	 11.20084029	 27.65923954
Pt	 38.97115495	 11.20084029	 30.57073844
Pt	 38.97115495	 11.20084029	 33.48223734
Pt	 38.97115495	 11.20084029	 36.39373624
Pt	 38.97115495	 11.20084029	 39.30523514
Pt	 38.97115495	 11.20084029	 42.21673403
Pt	 38.97115495	 11.20084029	 45.12823293
Pt	 38.97115495	 11.20084029	 48.03973183
Pt	 38.97115495	 11.20084029	 50.95123073
Pt	 38.97115495	 11.20084029	 53.86272963
Pt	 38.97115495	 11.20084029	 56.77422853
Pt	 66.68053320	 2.24016806	 -43.67248348
Pt	 66.68053320	 2.24016806	 -40.76098458
Pt	 66.68053320	 2.24016806	 -37.84948569
Pt	 66.68053320	 2.24016806	 -34.93798679
Pt	 66.68053320	 2.24016806	 -32.02648789
Pt	 66.68053320	 2.24016806	 -29.11498899
Pt	 66.68053320	 2.24016806	 -26.20349009
Pt	 66.68053320	 2.24016806	 -23.29199119
Pt	 66.68053320	 2.24016806	 -20.38049229
Pt	 66.68053320	 2.24016806	 -17.46899339
Pt	 66.68053320	 2.24016806	 -14.55749449
Pt	 66.68053320	 2.24016806	 -11.64599560
Pt	 66.68053320	 2.24016806	 -8.73449670
Pt	 66.68053320	 2.24016806	 -5.82299780
Pt	 66.68053320	 2.24016806	 -2.91149890
Pt	 66.68053320	 2.24016806	 -0.00000000
Pt	 66.68053320	 2.24016806	 2.91149890
Pt	 66.68053320	 2.24016806	 5.82299780
Pt	 66.68053320	 2.24016806	 8.73449670
Pt	 66.68053320	 2.24016806	 11.64599560
Pt	 66.68053320	 2.24016806	 14.55749449
Pt	 66.68053320	 2.24016806	 17.46899339
Pt	 66.68053320	 2.24016806	 20.38049229
Pt	 66.68053320	 2.24016806	 23.29199119
Pt	 66.68053320	 2.24016806	 26.20349009
Pt	 66.68053320	 2.24016806	 29.11498899
Pt	 66.68053320	 2.24016806	 32.02648789
Pt	 66.68053320	 2.24016806	 34.93798679
Pt	 66.68053320	 2.24016806	 37.84948569
Pt	 66.68053320	 2.24016806	 40.76098458
Pt	 66.68053320	 2.24016806	 43.67248348
Pt	 32.63267341	 13.44100834	 -59.68572743
Pt	 32.63267341	 13.44100834	 -56.77422853
Pt	 32.63267341	 13.44100834	 -53.86272963
Pt	 32.63267341	 13.44100834	 -50.95123073
Pt	 32.63267341	 13.44100834	 -48.03973183
Pt	 32.63267341	 13.44100834	 -45.12823293
Pt	 32.63267341	 13.44100834	 -42.21673403
Pt	 32.63267341	 13.44100834	 -39.30523514
Pt	 32.63267341	 13.44100834	 -36.39373624
Pt	 32.63267341	 13.44100834	 -33.48223734
Pt	 32.63267341	 13.44100834	 -30.57073844
Pt	 32.63267341	 13.44100834	 -27.65923954
Pt	 32.63267341	 13.44100834	 -24.74774064
Pt	 32.63267341	 13.44100834	 -21.83624174
Pt	 32.63267341	 13.44100834	 -18.92474284
Pt	 32.63267341	 13.44100834	 -16.01324394
Pt	 32.63267341	 13.44100834	 -13.10174505
Pt	 32.63267341	 13.44100834	 -10.19024615
Pt	 32.63267341	 13.44100834	 -7.27874725
Pt	 32.63267341	 13.44100834	 -4.36724835
Pt	 32.63267341	 13.44100834	 -1.45574945
Pt	 32.63267341	 13.44100834	 1.45574945
Pt	 32.63267341	 13.44100834	 4.36724835
Pt	 32.63267341	 13.44100834	 7.27874725
Pt	 32.63267341	 13.44100834	 10.19024615
Pt	 32.63267341	 13.44100834	 13.10174505
Pt	 32.63267341	 13.44100834	 16.01324394
Pt	 32.63267341	 13.44100834	 18.92474284
Pt	 32.63267341	 13.44100834	 21.83624174
Pt	 32.63267341	 13.44100834	 24.74774064
Pt	 32.63267341	 13.44100834	 27.65923954
Pt	 32.63267341	 13.44100834	 30.57073844
Pt	 32.63267341	 13.44100834	 33.48223734
Pt	 32.63267341	 13.44100834	 36.39373624
Pt	 32.63267341	 13.44100834	 39.30523514
Pt	 32.63267341	 13.44100834	 42.21673403
Pt	 32.63267341	 13.44100834	 45.12823293
Pt	 32.63267341	 13.44100834	 48.03973183
Pt	 32.63267341	 13.44100834	 50.95123073
Pt	 32.63267341	 13.44100834	 53.86272963
Pt	 32.63267341	 13.44100834	 56.77422853
Pt	 32.63267341	 13.44100834	 59.68572743
Pt	 60.34205166	 4.48033611	 -46.58398238
Pt	 60.34205166	 4.48033611	 -43.67248348
Pt	 60.34205166	 4.48033611	 -40.76098458
Pt	 60.34205166	 4.48033611	 -37.84948569
Pt	 60.34205166	 4.48033611	 -34.93798679
Pt	 60.34205166	 4.48033611	 -32.02648789
Pt	 60.34205166	 4.48033611	 -29.11498899
Pt	 60.34205166	 4.48033611	 -26.20349009
Pt	 60.34205166	 4.48033611	 -23.29199119
Pt	 60.34205166	 4.48033611	 -20.38049229
Pt	 60.34205166	 4.48033611	 -17.46899339
Pt	 60.34205166	 4.48033611	 -14.55749449
Pt	 60.34205166	 4.48033611	 -11.64599560
Pt	 60.34205166	 4.48033611	 -8.73449670
Pt	 60.34205166	 4.48033611	 -5.82299780
Pt	 60.34205166	 4.48033611	 -2.91149890
Pt	 60.34205166	 4.48033611	 -0.00000000
Pt	 60.34205166	 4.48033611	 2.91149890
Pt	 60.34205166	 4.48033611	 5.82299780
Pt	 60.34205166	 4.48033611	 8.73449670
Pt	 60.34205166	 4.48033611	 11.64599560
Pt	 60.34205166	 4.48033611	 14.55749449
Pt	 60.34205166	 4.48033611	 17.46899339
Pt	 60.34205166	 4.48033611	 20.38049229
Pt	 60.34205166	 4.48033611	 23.29199119
Pt	 60.34205166	 4.48033611	 26.20349009
Pt	 60.34205166	 4.48033611	 29.11498899
Pt	 60.34205166	 4.48033611	 32.02648789
Pt	 60.34205166	 4.48033611	 34.93798679
Pt	 60.34205166	 4.48033611	 37.84948569
Pt	 60.34205166	 4.48033611	 40.76098458
Pt	 60.34205166	 4.48033611	 43.67248348
Pt	 60.34205166	 4.48033611	 46.58398238
Pt	 26.29419187	 15.68117640	 -62.59722633
Pt	 26.29419187	 15.68117640	 -59.68572743
Pt	 26.29419187	 15.68117640	 -56.77422853
Pt	 26.29419187	 15.68117640	 -53.86272963
Pt	 26.29419187	 15.68117640	 -50.95123073
Pt	 26.29419187	 15.68117640	 -48.03973183
Pt	 26.29419187	 15.68117640	 -45.12823293
Pt	 26.29419187	 15.68117640	 -42.21673403
Pt	 26.29419187	 15.68117640	 -39.30523514
Pt	 26.29419187	 15.68117640	 -36.39373624
Pt	 26.29419187	 15.68117640	 -33.48223734
Pt	 26.29419187	 15.68117640	 -30.57073844
Pt	 26.29419187	 15.68117640	 -27.65923954
Pt	 26.29419187	 15.68117640	 -24.74774064
Pt	 26.29419187	 15.68117640	 -21.83624174
Pt	 26.29419187	 15.68117640	 -18.92474284
Pt	 26.29419187	 15.68117640	 -16.01324394
Pt	 26.29419187	 15.68117640	 -13.10174505
Pt	 26.29419187	 15.68117640	 -10.19024615
Pt	 26.29419187	 15.68117640	 -7.27874725
Pt	 26.29419187	 15.68117640	 -4.36724835
Pt	 26.29419187	 15.68117640	 -1.45574945
Pt	 26.29419187	 15.68117640	 1.45574945
Pt	 26.29419187	 15.68117640	 4.36724835
Pt	 26.29419187	 15.68117640	 7.27874725
Pt	 26.29419187	 15.68117640	 10.19024615
Pt	 26.29419187	 15.68117640	 13.10174505
Pt	 26.29419187	 15.68117640	 16.01324394
Pt	 26.29419187	 15.68117640	 18.92474284
Pt	 26.29419187	 15.68117640	 21.83624174
Pt	 26.29419187	 15.68117640	 24.74774064
Pt	 26.29419187	 15.68117640	 27.65923954
Pt	 26.29419187	 15.68117640	 30.57073844
Pt	 26.29419187	 15.68117640	 33.48223734
Pt	 26.29419187	 15.68117640	 36.39373624
Pt	 26.29419187	 15.68117640	 39.30523514
Pt	 26.29419187	 15.68117640	 42.21673403
Pt	 26.29419187	 15.68117640	 45.12823293
Pt	 26.29419187	 15.68117640	 48.03973183
Pt	 26.29419187	 15.68117640	 50.95123073
Pt	 26.29419187	 15.68117640	 53.86272963
Pt	 26.29419187	 15.68117640	 56.77422853
Pt	 26.29419187	 15.68117640	 59.68572743
Pt	 26.29419187	 15.68117640	 62.59722633
Pt	 54.00357012	 6.72050417	 -49.49548128
Pt	 54.00357012	 6.72050417	 -46.58398238
Pt	 54.00357012	 6.72050417	 -43.67248348
Pt	 54.00357012	 6.72050417	 -40.76098458
Pt	 54.00357012	 6.72050417	 -37.84948569
Pt	 54.00357012	 6.72050417	 -34.93798679
Pt	 54.00357012	 6.72050417	 -32.02648789
Pt	 54.00357012	 6.72050417	 -29.11498899
Pt	 54.00357012	 6.72050417	 -26.20349009
Pt	 54.00357012	 6.72050417	 -23.29199119
Pt	 54.00357012	 6.72050417	 -20.38049229
Pt	 54.00357012	 6.72050417	 -17.46899339
Pt	 54.00357012	 6.72050417	 -14.55749449
Pt	 54.00357012	 6.72050417	 -11.64599560
Pt	 54.00357012	 6.72050417	 -8.73449670
Pt	 54.00357012	 6.72050417	 -5.82299780
Pt	 54.00357012	 6.72050417	 -2.91149890
Pt	 54.00357012	 6.72050417	 0.00000000
Pt	 54.00357012	 6.72050417	 2.91149890
Pt	 54.00357012	 6.72050417	 5.82299780
Pt	 54.00357012	 6.72050417	 8.73449670
Pt	 54.00357012	 6.72050417	 11.64599560
Pt	 54.00357012	 6.72050417	 14.55749449
Pt	 54.00357012	 6.72050417	 17.46899339
Pt	 54.00357012	 6.72050417	 20.38049229
Pt	 54.00357012	 6.72050417	 23.29199119
Pt	 54.00357012	 6.72050417	 26.20349009
Pt	 54.00357012	 6.72050417	 29.11498899
Pt	 54.00357012	 6.72050417	 32.02648789
Pt	 54.00357012	 6.72050417	 34.93798679
Pt	 54.00357012	 6.72050417	 37.84948569
Pt	 54.00357012	 6.72050417	 40.76098458
Pt	 54.00357012	 6.72050417	 43.67248348
Pt	 54.00357012	 6.72050417	 46.58398238
Pt	 54.00357012	 6.72050417	 49.49548128
Pt	 19.95571033	 17.92134446	 -65.50872523
Pt	 19.95571033	 17.92134446	 -62.59722633
Pt	 19.95571033	 17.92134446	 -59.68572743
Pt	 19.95571033	 17.92134446	 -56.77422853
Pt	 19.95571033	 17.92134446	 -53.86272963
Pt	 19.95571033	 17.92134446	 -50.95123073
Pt	 19.95571033	 17.92134446	 -48.03973183
Pt	 19.95571033	 17.92134446	 -45.12823293
Pt	 19.95571033	 17.92134446	 -42.21673403
Pt	 19.95571033	 17.92134446	 -39.30523514
Pt	 19.95571033	 17.92134446	 -36.39373624
Pt	 19.95571033	 17.92134446	 -33.48223734
Pt	 19.95571033	 17.92134446	 -30.57073844
Pt	 19.95571033	 17.92134446	 -27.65923954
Pt	 19.95571033	 17.92134446	 -24.74774064
Pt	 19.95571033	 17.92134446	 -21.83624174
Pt	 19.95571033	 17.92134446	 -18.92474284
Pt	 19.95571033	 17.92134446	 -16.01324394
Pt	 19.95571033	 17.92134446	 -13.10174505
Pt	 19.95571033	 17.92134446	 -10.19024615
Pt	 19.95571033	 17.92134446	 -7.27874725
Pt	 19.95571033	 17.92134446	 -4.36724835
Pt	 19.95571033	 17.92134446	 -1.45574945
Pt	 19.95571033	 17.92134446	 1.45574945
Pt	 19.95571033	 17.92134446	 4.36724835
Pt	 19.95571033	 17.92134446	 7.27874725
Pt	 19.95571033	 17.92134446	 10.19024615
Pt	 19.95571033	 17.92134446	 13.10174505
Pt	 19.95571033	 17.92134446	 16.01324394
Pt	 19.95571033	 17.92134446	 18.92474284
Pt	 19.95571033	 17.92134446	 21.83624174
Pt	 19.95571033	 17.92134446	 24.74774064
Pt	 19.95571033	 17.92134446	 27.65923954
Pt	 19.95571033	 17.92134446	 30.57073844
Pt	 19.95571033	 17.92134446	 33.48223734
Pt	 19.95571033	 17.92134446	 36.39373624
Pt	 19.95571033	 17.92134446	 39.30523514
Pt	 19.95571033	 17.92134446	 42.21673403
Pt	 19.95571033	 17.92134446	 45.12823293
Pt	 19.95571033	 17.92134446	 48.03973183
Pt	 19.95571033	 17.92134446	 50.95123073
Pt	 19.95571033	 17.92134446	 53.86272963
Pt	 19.95571033	 17.92134446	 56.77422853
Pt	 19.95571033	 17.92134446	 59.68572743
Pt	 19.95571033	 17.92134446	 62.59722633
Pt	 19.95571033	 17.92134446	 65.50872523
Pt	 47.66508858	 8.96067223	 -52.40698018
Pt	 47.66508858	 8.96067223	 -49.49548128
Pt	 47.66508858	 8.96067223	 -46.58398238
Pt	 47.66508858	 8.96067223	 -43.67248348
Pt	 47.66508858	 8.96067223	 -40.76098458
Pt	 47.66508858	 8.96067223	 -37.84948569
Pt	 47.66508858	 8.96067223	 -34.93798679
Pt	 47.66508858	 8.96067223	 -32.02648789
Pt	 47.66508858	 8.96067223	 -29.11498899
Pt	 47.66508858	 8.96067223	 -26.20349009
Pt	 47.66508858	 8.96067223	 -23.29199119
Pt	 47.66508858	 8.96067223	 -20.38049229
Pt	 47.66508858	 8.96067223	 -17.46899339
Pt	 47.66508858	 8.96067223	 -14.55749449
Pt	 47.66508858	 8.96067223	 -11.64599560
Pt	 47.66508858	 8.96067223	 -8.73449670
Pt	 47.66508858	 8.96067223	 -5.82299780
Pt	 47.66508858	 8.96067223	 -2.91149890
Pt	 47.66508858	 8.96067223	 -0.00000000
Pt	 47.66508858	 8.96067223	 2.91149890
Pt	 47.66508858	 8.96067223	 5.82299780
Pt	 47.66508858	 8.96067223	 8.73449670
Pt	 47.66508858	 8.96067223	 11.64599560
Pt	 47.66508858	 8.96067223	 14.55749449
Pt	 47.66508858	 8.96067223	 17.46899339
Pt	 47.66508858	 8.96067223	 20.38049229
Pt	 47.66508858	 8.96067223	 23.29199119
Pt	 47.66508858	 8.96067223	 26.20349009
Pt	 47.66508858	 8.96067223	 29.11498899
Pt	 47.66508858	 8.96067223	 32.02648789
Pt	 47.66508858	 8.96067223	 34.93798679
Pt	 47.66508858	 8.96067223	 37.84948569
Pt	 47.66508858	 8.96067223	 40.76098458
Pt	 47.66508858	 8.96067223	 43.67248348
Pt	 47.66508858	 8.96067223	 46.58398238
Pt	 47.66508858	 8.96067223	 49.49548128
Pt	 47.66508858	 8.96067223	 52.40698018
Pt	 75.37446683	 0.00000000	 -39.30523514
Pt	 75.37446683	 0.00000000	 -36.39373624
Pt	 75.37446683	 0.00000000	 -33.48223734
Pt	 75.37446683	 0.00000000	 -30.57073844
Pt	 75.37446683	 0.00000000	 -27.65923954
Pt	 75.37446683	 0.00000000	 -24.74774064
Pt	 75.37446683	 0.00000000	 -21.83624174
Pt	 75.37446683	 0.00000000	 -18.92474284
Pt	 75.37446683	 0.00000000	 -16.01324394
Pt	 75.37446683	 0.00000000	 -13.10174505
Pt	 75.37446683	 0.00000000	 -10.19024615
Pt	 75.37446683	 0.00000000	 -7.27874725
Pt	 75.37446683	 0.00000000	 -4.36724835
Pt	 75.37446683	 0.00000000	 -1.45574945
Pt	 75.37446683	 0.00000000	 1.45574945
Pt	 75.37446683	 0.00000000	 4.36724835
Pt	 75.37446683	 0.00000000	 7.27874725
Pt	 75.37446683	 0.00000000	 10.19024615
Pt	 75.37446683	 0.00000000	 13.10174505
Pt	 75.37446683	 0.00000000	 16.01324394
Pt	 75.37446683	 0.00000000	 18.92474284
Pt	 75.37446683	 0.00000000	 21.83624174
Pt	 75.37446683	 0.00000000	 24.74774064
Pt	 75.37446683	 0.00000000	 27.65923954
Pt	 75.37446683	 0.00000000	 30.57073844
Pt	 75.37446683	 0.00000000	 33.48223734
Pt	 75.37446683	 0.00000000	 36.39373624
Pt	 75.37446683	 0.00000000	 39.30523514
Pt	 41.32660704	 11.20084029	 -55.31847908
Pt	 41.32660704	 11.20084029	 -52.40698018
Pt	 41.32660704	 11.20084029	 -49.49548128
Pt	 41.32660704	 11.20084029	 -46.58398238
Pt	 41.32660704	 11.20084029	 -43.67248348
Pt	 41.32660704	 11.20084029	 -40.76098458
Pt	 41.32660704	 11.20084029	 -37.84948569
Pt	 41.32660704	 11.20084029	 -34.93798679
Pt	 41.32660704	 11.20084029	 -32.02648789
Pt	 41.32660704	 11.20084029	 -29.11498899
Pt	 41.32660704	 11.20084029	 -26.20349009
Pt	 41.32660704	 11.20084029	 -23.29199119
Pt	 41.32660704	 11.20084029	 -20.38049229
Pt	 41.32660704	 11.20084029	 -17.46899339
Pt	 41.32660704	 11.20084029	 -14.55749449
Pt	 41.32660704	 11.20084029	 -11.64599560
Pt	 41.32660704	 11.20084029	 -8.73449670
Pt	 41.32660704	 11.20084029	 -5.82299780
Pt	 41.32660704	 11.20084029	 -2.91149890
Pt	 41.32660704	 11.20084029	 0.00000000
Pt	 41.32660704	 11.20084029	 2.91149890
Pt	 41.32660704	 11.20084029	 5.82299780
Pt	 41.32660704	 11.20084029	 8.73449670
Pt	 41.32660704	 11.20084029	 11.64599560
Pt	 41.32660704	 11.20084029	 14.55749449
Pt	 41.32660704	 11.20084029	 17.46899339
Pt	 41.32660704	 11.20084029	 20.38049229
Pt	 41.32660704	 11.20084029	 23.29199119
Pt	 41.32660704	 11.20084029	 26.20349009
Pt	 41.32660704	 11.20084029	 29.11498899
Pt	 41.32660704	 11.20084029	 32.02648789
Pt	 41.32660704	 11.20084029	 34.93798679
Pt	 41.32660704	 11.20084029	 37.84948569
Pt	 41.32660704	 11.20084029	 40.76098458
Pt	 41.32660704	 11.20084029	 43.67248348
Pt	 41.32660704	 11.20084029	 46.58398238
Pt	 41.32660704	 11.20084029	 49.49548128
Pt	 41.32660704	 11.20084029	 52.40698018
Pt	 41.32660704	 11.20084029	 55.31847908
Pt	 69.03598529	 2.24016806	 -42.21673403
Pt	 69.03598529	 2.24016806	 -39.30523514
Pt	 69.03598529	 2.24016806	 -36.39373624
Pt	 69.03598529	 2.24016806	 -33.48223734
Pt	 69.03598529	 2.24016806	 -30.57073844
Pt	 69.03598529	 2.24016806	 -27.65923954
Pt	 69.03598529	 2.24016806	 -24.74774064
Pt	 69.03598529	 2.24016806	 -21.83624174
Pt	 69.03598529	 2.24016806	 -18.92474284
Pt	 69.03598529	 2.24016806	 -16.01324394
Pt	 69.03598529	 2.24016806	 -13.10174505
Pt	 69.03598529	 2.24016806	 -10.19024615
Pt	 69.03598529	 2.24016806	 -7.27874725
Pt	 69.03598529	 2.24016806	 -4.36724835
Pt	 69.03598529	 2.24016806	 -1.45574945
Pt	 69.03598529	 2.24016806	 1.45574945
Pt	 69.03598529	 2.24016806	 4.36724835
Pt	 69.03598529	 2.24016806	 7.27874725
Pt	 69.03598529	 2.24016806	 10.19024615
Pt	 69.03598529	 2.24016806	 13.10174505
Pt	 69.03598529	 2.24016806	 16.01324394
Pt	 69.03598529	 2.24016806	 18.92474284
Pt	 69.03598529	 2.24016806	 21.83624174
Pt	 69.03598529	 2.24016806	 24.74774064
Pt	 69.03598529	 2.24016806	 27.65923954
Pt	 69.03598529	 2.24016806	 30.57073844
Pt	 69.03598529	 2.24016806	 33.48223734
Pt	 69.03598529	 2.24016806	 36.39373624
Pt	 69.03598529	 2.24016806	 39.30523514
Pt	 69.03598529	 2.24016806	 42.21673403
Pt	 34.98812550	 13.44100834	 -58.22997798
Pt	 34.98812550	 13.44100834	 -55.31847908
Pt	 34.98812550	 13.44100834	 -52.40698018
Pt	 34.98812550	 13.44100834	 -49.49548128
Pt	 34.98812550	 13.44100834	 -46.58398238
Pt	 34.98812550	 13.44100834	 -43.67248348
Pt	 34.98812550	 13.44100834	 -40.76098458
Pt	 34.98812550	 13.44100834	 -37.84948569
Pt	 34.98812550	 13.44100834	 -34.93798679
Pt	 34.98812550	 13.44100834	 -32.02648789
Pt	 34.98812550	 13.44100834	 -29.11498899
Pt	 34.98812550	 13.44100834	 -26.20349009
Pt	 34.98812550	 13.44100834	 -23.29199119
Pt	 34.98812550	 13.44100834	 -20.38049229
Pt	 34.98812550	 13.44100834	 -17.46899339
Pt	 34.98812550	 13.44100834	 -14.55749449
Pt	 34.98812550	 13.44100834	 -11.64599560
Pt	 34.98812550	 13.44100834	 -8.73449670
Pt	 34.98812550	 13.44100834	 -5.82299780
Pt	 34.98812550	 13.44100834	 -2.91149890
Pt	 34.98812550	 13.44100834	 -0.00000000
Pt	 34.98812550	 13.44100834	 2.91149890
Pt	 34.98812550	 13.44100834	 5.82299780
Pt	 34.98812550	 13.44100834	 8.73449670
Pt	 34.98812550	 13.44100834	 11.64599560
Pt	 34.98812550	 13.44100834	 14.55749449
Pt	 34.98812550	 13.44100834	 17.46899339
Pt	 34.98812550	 13.44100834	 20.38049229
Pt	 34.98812550	 13.44100834	 23.29199119
Pt	 34.98812550	 13.44100834	 26.20349009
Pt	 34.98812550	 13.44100834	 29.11498899
Pt	 34.98812550	 13.44100834	 32.02648789
Pt	 34.98812550	 13.44100834	 34.93798679
Pt	 34.98812550	 13.44100834	 37.84948569
Pt	 34.98812550	 13.44100834	 40.76098458
Pt	 34.98812550	 13.44100834	 43.67248348
Pt	 34.98812550	 13.44100834	 46.58398238
Pt	 34.98812550	 13.44100834	 49.49548128
Pt	 34.98812550	 13.44100834	 52.40698018
Pt	 34.98812550	 13.44100834	 55.31847908
Pt	 34.98812550	 13.44100834	 58.22997798
Pt	 62.69750375	 4.48033611	 -45.12823293
Pt	 62.69750375	 4.48033611	 -42.21673403
Pt	 62.69750375	 4.48033611	 -39.30523514
Pt	 62.69750375	 4.48033611	 -36.39373624
Pt	 62.69750375	 4.48033611	 -33.48223734
Pt	 62.69750375	 4.48033611	 -30.57073844
Pt	 62.69750375	 4.48033611	 -27.65923954
Pt	 62.69750375	 4.48033611	 -24.74774064
Pt	 62.69750375	 4.48033611	 -21.83624174
Pt	 62.69750375	 4.48033611	 -18.92474284
Pt	 62.69750375	 4.48033611	 -16.01324394
Pt	 62.69750375	 4.48033611	 -13.10174505
Pt	 62.69750375	 4.48033611	 -10.19024615
Pt	 62.69750375	 4.48033611	 -7.27874725
Pt	 62.69750375	 4.48033611	 -4.36724835
Pt	 62.69750375	 4.48033611	 -1.45574945
Pt	 62.69750375	 4.48033611	 1.45574945
Pt	 62.69750375	 4.48033611	 4.36724835
Pt	 62.69750375	 4.48033611	 7.27874725
Pt	 62.69750375	 4.48033611	 10.19024615
Pt	 62.69750375	 4.48033611	 13.10174505
Pt	 62.69750375	 4.48033611	 16.01324394
Pt	 62.69750375	 4.48033611	 18.92474284
Pt	 62.69750375	 4.48033611	 21.83624174
Pt	 62.69750375	 4.48033611	 24.74774064
Pt	 62.69750375	 4.48033611	 27.65923954
Pt	 62.69750375	 4.48033611	 30.57073844
Pt	 62.69750375	 4.48033611	 33.48223734
Pt	 62.69750375	 4.48033611	 36.39373624
Pt	 62.69750375	 4.48033611	 39.30523514
Pt	 62.69750375	 4.48033611	 42.21673403
Pt	 62.69750375	 4.48033611	 45.12823293
Pt	 28.64964396	 15.68117640	 -61.14147688
Pt	 28.64964396	 15.68117640	 -58.22997798
Pt	 28.64964396	 15.68117640	 -55.31847908
Pt	 28.64964396	 15.68117640	 -52.40698018
Pt	 28.64964396	 15.68117640	 -49.49548128
Pt	 28.64964396	 15.68117640	 -46.58398238
Pt	 28.64964396	 15.68117640	 -43.67248348
Pt	 28.64964396	 15.68117640	 -40.76098458
Pt	 28.64964396	 15.68117640	 -37.84948569
Pt	 28.64964396	 15.68117640	 -34.93798679
Pt	 28.64964396	 15.68117640	 -32.02648789
Pt	 28.64964396	 15.68117640	 -29.11498899
Pt	 28.64964396	 15.68117640	 -26.20349009
Pt	 28.64964396	 15.68117640	 -23.29199119
Pt	 28.64964396	 15.68117640	 -20.38049229
Pt	 28.64964396	 15.68117640	 -17.46899339
Pt	 28.64964396	 15.68117640	 -14.55749449
Pt	 28.64964396	 15.68117640	 -11.64599560
Pt	 28.64964396	 15.68117640	 -8.73449670
Pt	 28.64964396	 15.68117640	 -5.82299780
Pt	 28.64964396	 15.68117640	 -2.91149890
Pt	 28.64964396	 15.68117640	 -0.00000000
Pt	 28.64964396	 15.68117640	 2.91149890
Pt	 28.64964396	 15.68117640	 5.82299780
Pt	 28.64964396	 15.68117640	 8.73449670
Pt	 28.64964396	 15.68117640	 11.64599560
Pt	 28.64964396	 15.68117640	 14.55749449
Pt	 28.64964396	 15.68117640	 17.46899339
Pt	 28.64964396	 15.68117640	 20.38049229
Pt	 28.64964396	 15.68117640	 23.29199119
Pt	 28.64964396	 15.68117640	 26.20349009
Pt	 28.64964396	 15.68117640	 29.11498899
Pt	 28.64964396	 15.68117640	 32.02648789
Pt	 28.64964396	 15.68117640	 34.93798679
Pt	 28.64964396	 15.68117640	 37.84948569
Pt	 28.64964396	 15.68117640	 40.76098458
Pt	 28.64964396	 15.68117640	 43.67248348
Pt	 28.64964396	 15.68117640	 46.58398238
Pt	 28.64964396	 15.68117640	 49.49548128
Pt	 28.64964396	 15.68117640	 52.40698018
Pt	 28.64964396	 15.68117640	 55.31847908
Pt	 28.64964396	 15.68117640	 58.22997798
Pt	 28.64964396	 15.68117640	 61.14147688
Pt	 56.35902221	 6.72050417	 -48.03973183
Pt	 56.35902221	 6.72050417	 -45.12823293
Pt	 56.35902221	 6.72050417	 -42.21673403
Pt	 56.35902221	 6.72050417	 -39.30523514
Pt	 56.35902221	 6.72050417	 -36.39373624
Pt	 56.35902221	 6.72050417	 -33.48223734
Pt	 56.35902221	 6.72050417	 -30.57073844
Pt	 56.35902221	 6.72050417	 -27.65923954
Pt	 56.35902221	 6.72050417	 -24.74774064
Pt	 56.35902221	 6.72050417	 -21.83624174
Pt	 56.35902221	 6.72050417	 -18.92474284
Pt	 56.35902221	 6.72050417	 -16.01324394
Pt	 56.35902221	 6.72050417	 -13.10174505
Pt	 56.35902221	 6.72050417	 -10.19024615
Pt	 56.35902221	 6.72050417	 -7.27874725
Pt	 56.35902221	 6.72050417	 -4.36724835
Pt	 56.35902221	 6.72050417	 -1.45574945
Pt	 56.35902221	 6.72050417	 1.45574945
Pt	 56.35902221	 6.72050417	 4.36724835
Pt	 56.35902221	 6.72050417	 7.27874725
Pt	 56.35902221	 6.72050417	 10.19024615
Pt	 56.35902221	 6.72050417	 13.10174505
Pt	 56.35902221	 6.72050417	 16.01324394
Pt	 56.35902221	 6.72050417	 18.92474284
Pt	 56.35902221	 6.72050417	 21.83624174
Pt	 56.35902221	 6.72050417	 24.74774064
Pt	 56.35902221	 6.72050417	 27.65923954
Pt	 56.35902221	 6.72050417	 30.57073844
Pt	 56.35902221	 6.72050417	 33.48223734
Pt	 56.35902221	 6.72050417	 36.39373624
Pt	 56.35902221	 6.72050417	 39.30523514
Pt	 56.35902221	 6.72050417	 42.21673403
Pt	 56.35902221	 6.72050417	 45.12823293
Pt	 56.35902221	 6.72050417	 48.03973183
Pt	 22.31116242	 17.92134446	 -64.05297578
Pt	 22.31116242	 17.92134446	 -61.14147688
Pt	 22.31116242	 17.92134446	 -58.22997798
Pt	 22.31116242	 17.92134446	 -55.31847908
Pt	 22.31116242	 17.92134446	 -52.40698018
Pt	 22.31116242	 17.92134446	 -49.49548128
Pt	 22.31116242	 17.92134446	 -46.58398238
Pt	 22.31116242	 17.92134446	 -43.67248348
Pt	 22.31116242	 17.92134446	 -40.76098458
Pt	 22.31116242	 17.92134446	 -37.84948569
Pt	 22.31116242	 17.92134446	 -34.93798679
Pt	 22.31116242	 17.92134446	 -32.02648789
Pt	 22.31116242	 17.92134446	 -29.11498899
Pt	 22.31116242	 17.92134446	 -26.20349009
Pt	 22.31116242	 17.92134446	 -23.29199119
Pt	 22.31116242	 17.92134446	 -20.38049229
Pt	 22.31116242	 17.92134446	 -17.46899339
Pt	 22.31116242	 17.92134446	 -14.55749449
Pt	 22.31116242	 17.92134446	 -11.64599560
Pt	 22.31116242	 17.92134446	 -8.73449670
Pt	 22.31116242	 17.92134446	 -5.82299780
Pt	 22.31116242	 17.92134446	 -2.91149890
Pt	 22.31116242	 17.92134446	 -0.00000000
Pt	 22.31116242	 17.92134446	 2.91149890
Pt	 22.31116242	 17.92134446	 5.82299780
Pt	 22.31116242	 17.92134446	 8.73449670
Pt	 22.31116242	 17.92134446	 11.64599560
Pt	 22.31116242	 17.92134446	 14.55749449
Pt	 22.31116242	 17.92134446	 17.46899339
Pt	 22.31116242	 17.92134446	 20.38049229
Pt	 22.31116242	 17.92134446	 23.29199119
Pt	 22.31116242	 17.92134446	 26.20349009
Pt	 22.31116242	 17.92134446	 29.11498899
Pt	 22.31116242	 17.92134446	 32.02648789
Pt	 22.31116242	 17.92134446	 34.93798679
Pt	 22.31116242	 17.92134446	 37.84948569
Pt	 22.31116242	 17.92134446	 40.76098458
Pt	 22.31116242	 17.92134446	 43.67248348
Pt	 22.31116242	 17.92134446	 46.58398238
Pt	 22.31116242	 17.92134446	 49.49548128
Pt	 22.31116242	 17.92134446	 52.40698018
Pt	 22.31116242	 17.92134446	 55.31847908
Pt	 22.31116242	 17.92134446	 58.22997798
Pt	 22.31116242	 17.92134446	 61.14147688
Pt	 22.31116242	 17.92134446	 64.05297578
Pt	 50.02054067	 8.96067223	 -50.95123073
Pt	 50.02054067	 8.96067223	 -48.03973183
Pt	 50.02054067	 8.96067223	 -45.12823293
Pt	 50.02054067	 8.96067223	 -42.21673403
Pt	 50.02054067	 8.96067223	 -39.30523514
Pt	 50.02054067	 8.96067223	 -36.39373624
Pt	 50.02054067	 8.96067223	 -33.48223734
Pt	 50.02054067	 8.96067223	 -30.57073844
Pt	 50.02054067	 8.96067223	 -27.65923954
Pt	 50.02054067	 8.96067223	 -24.74774064
Pt	 50.02054067	 8.96067223	 -21.83624174
Pt	 50.02054067	 8.96067223	 -18.92474284
Pt	 50.02054067	 8.96067223	 -16.01324394
Pt	 50.02054067	 8.96067223	 -13.10174505
Pt	 50.02054067	 8.96067223	 -10.19024615
Pt	 50.02054067	 8.96067223	 -7.27874725
Pt	 50.02054067	 8.96067223	 -4.36724835
Pt	 50.02054067	 8.96067223	 -1.45574945
Pt	 50.02054067	 8.96067223	 1.45574945
Pt	 50.02054067	 8.96067223	 4.36724835
Pt	 50.02054067	 8.96067223	 7.27874725
Pt	 50.02054067	 8.96067223	 10.19024615
Pt	 50.02054067	 8.96067223	 13.10174505
Pt	 50.02054067	 8.96067223	 16.01324394
Pt	 50.02054067	 8.96067223	 18.92474284
Pt	 50.02054067	 8.96067223	 21.83624174
Pt	 50.02054067	 8.96067223	 24.74774064
Pt	 50.02054067	 8.96067223	 27.65923954
Pt	 50.02054067	 8.96067223	 30.57073844
Pt	 50.02054067	 8.96067223	 33.48223734
Pt	 50.02054067	 8.96067223	 36.39373624
Pt	 50.02054067	 8.96067223	 39.30523514
Pt	 50.02054067	 8.96067223	 42.21673403
Pt	 50.02054067	 8.96067223	 45.12823293
Pt	 50.02054067	 8.96067223	 48.03973183
Pt	 50.02054067	 8.96067223	 50.95123073
Pt	 77.72991891	 0.00000000	 -37.84948569
Pt	 77.72991891	 0.00000000	 -34.93798679
Pt	 77.72991891	 0.00000000	 -32.02648789
Pt	 77.72991891	 0.00000000	 -29.11498899
Pt	 77.72991891	 0.00000000	 -26.20349009
Pt	 77.72991891	 0.00000000	 -23.29199119
Pt	 77.72991891	 0.00000000	 -20.38049229
Pt	 77.72991891	 0.00000000	 -17.46899339
Pt	 77.72991891	 0.00000000	 -14.55749449
Pt	 77.72991891	 0.00000000	 -11.64599560
Pt	 77.72991891	 0.00000000	 -8.73449670
Pt	 77.72991891	 0.00000000	 -5.82299780
Pt	 77.72991891	 0.00000000	 -2.91149890
Pt	 77.72991891	 0.00000000	 -0.00000000
Pt	 77.72991891	 0.00000000	 2.91149890
Pt	 77.72991891	 0.00000000	 5.82299780
Pt	 77.72991891	 0.00000000	 8.73449670
Pt	 77.72991891	 0.00000000	 11.64599560
Pt	 77.72991891	 0.00000000	 14.55749449
Pt	 77.72991891	 0.00000000	 17.46899339
Pt	 77.72991891	 0.00000000	 20.38049229
Pt	 77.72991891	 0.00000000	 23.29199119
Pt	 77.72991891	 0.00000000	 26.20349009
Pt	 77.72991891	 0.00000000	 29.11498899
Pt	 77.72991891	 0.00000000	 32.02648789
Pt	 77.72991891	 0.00000000	 34.93798679
Pt	 77.72991891	 0.00000000	 37.84948569
Pt	 43.68205913	 11.20084029	 -53.86272963
Pt	 43.68205913	 11.20084029	 -50.95123073
Pt	 43.68205913	 11.20084029	 -48.03973183
Pt	 43.68205913	 11.20084029	 -45.12823293
Pt	 43.68205913	 11.20084029	 -42.21673403
Pt	 43.68205913	 11.20084029	 -39.30523514
Pt	 43.68205913	 11.20084029	 -36.39373624
Pt	 43.68205913	 11.20084029	 -33.48223734
Pt	 43.68205913	 11.20084029	 -30.57073844
Pt	 43.68205913	 11.20084029	 -27.65923954
Pt	 43.68205913	 11.20084029	 -24.74774064
Pt	 43.68205913	 11.20084029	 -21.83624174
Pt	 43.68205913	 11.20084029	 -18.92474284
Pt	 43.68205913	 11.20084029	 -16.01324394
Pt	 43.68205913	 11.20084029	 -13.10174505
Pt	 43.68205913	 11.20084029	 -10.19024615
Pt	 43.68205913	 11.20084029	 -7.27874725
Pt	 43.68205913	 11.20084029	 -4.36724835
Pt	 43.68205913	 11.20084029	 -1.45574945
Pt	 43.68205913	 11.20084029	 1.45574945
Pt	 43.68205913	 11.20084029	 4.36724835
Pt	 43.68205913	 11.20084029	 7.27874725
Pt	 43.68205913	 11.20084029	 10.19024615
Pt	 43.68205913	 11.20084029	 13.10174505
Pt	 43.68205913	 11.20084029	 16.01324394
Pt	 43.68205913	 11.20084029	 18.92474284
Pt	 43.68205913	 11.20084029	 21.83624174
Pt	 43.68205913	 11.20084029	 24.74774064
Pt	 43.68205913	 11.20084029	 27.65923954
Pt	 43.68205913	 11.20084029	 30.57073844
Pt	 43.68205913	 11.20084029	 33.48223734
Pt	 43.68205913	 11.20084029	 36.39373624
Pt	 43.68205913	 11.20084029	 39.30523514
Pt	 43.68205913	 11.20084029	 42.21673403
Pt	 43.68205913	 11.20084029	 45.12823293
Pt	 43.68205913	 11.20084029	 48.03973183
Pt	 43.68205913	 11.20084029	 50.95123073
Pt	 43.68205913	 11.20084029	 53.86272963
Pt	 71.39143737	 2.24016806	 -40.76098458
Pt	 71.39143737	 2.24016806	 -37.84948569
Pt	 71.39143737	 2.24016806	 -34.93798679
Pt	 71.39143737	 2.24016806	 -32.02648789
Pt	 71.39143737	 2.24016806	 -29.11498899
Pt	 71.39143737	 2.24016806	 -26.20349009
Pt	 71.39143737	 2.24016806	 -23.29199119
Pt	 71.39143737	 2.24016806	 -20.38049229
Pt	 71.39143737	 2.24016806	 -17.46899339
Pt	 71.39143737	 2.24016806	 -14.55749449
Pt	 71.39143737	 2.24016806	 -11.64599560
Pt	 71.39143737	 2.24016806	 -8.73449670
Pt	 71.39143737	 2.24016806	 -5.82299780
Pt	 71.39143737	 2.24016806	 -2.91149890
Pt	 71.39143737	 2.24016806	 0.00000000
Pt	 71.39143737	 2.24016806	 2.91149890
Pt	 71.39143737	 2.24016806	 5.82299780
Pt	 71.39143737	 2.24016806	 8.73449670
Pt	 71.39143737	 2.24016806	 11.64599560
Pt	 71.39143737	 2.24016806	 14.55749449
Pt	 71.39143737	 2.24016806	 17.46899339
Pt	 71.39143737	 2.24016806	 20.38049229
Pt	 71.39143737	 2.24016806	 23.29199119
Pt	 71.39143737	 2.24016806	 26.20349009
Pt	 71.39143737	 2.24016806	 29.11498899
Pt	 71.39143737	 2.24016806	 32.02648789
Pt	 71.39143737	 2.24016806	 34.93798679
Pt	 71.39143737	 2.24016806	 37.84948569
Pt	 71.39143737	 2.24016806	 40.76098458
Pt	 37.34357758	 13.44100834	 -56.77422853
Pt	 37.34357758	 13.44100834	 -53.86272963
Pt	 37.34357758	 13.44100834	 -50.95123073
Pt	 37.34357758	 13.44100834	 -48.03973183
Pt	 37.34357758	 13.44100834	 -45.12823293
Pt	 37.34357758	 13.44100834	 -42.21673403
Pt	 37.34357758	 13.44100834	 -39.30523514
Pt	 37.34357758	 13.44100834	 -36.39373624
Pt	 37.34357758	 13.44100834	 -33.48223734
Pt	 37.34357758	 13.44100834	 -30.57073844
Pt	 37.34357758	 13.44100834	 -27.65923954
Pt	 37.34357758	 13.44100834	 -24.74774064
Pt	 37.34357758	 13.44100834	 -21.83624174
Pt	 37.34357758	 13.44100834	 -18.92474284
Pt	 37.34357758	 13.44100834	 -16.01324394
Pt	 37.34357758	 13.44100834	 -13.10174505
Pt	 37.34357758	 13.44100834	 -10.19024615
Pt	 37.34357758	 13.44100834	 -7.27874725
Pt	 37.34357758	 13.44100834	 -4.36724835
Pt	 37.34357758	 13.44100834	 -1.45574945
Pt	 37.34357758	 13.44100834	 1.45574945
Pt	 37.34357758	 13.44100834	 4.36724835
Pt	 37.34357758	 13.44100834	 7.27874725
Pt	 37.34357758	 13.44100834	 10.19024615
Pt	 37.34357758	 13.44100834	 13.10174505
Pt	 37.34357758	 13.44100834	 16.01324394
Pt	 37.34357758	 13.44100834	 18.92474284
Pt	 37.34357758	 13.44100834	 21.83624174
Pt	 37.34357758	 13.44100834	 24.74774064
Pt	 37.34357758	 13.44100834	 27.65923954
Pt	 37.34357758	 13.44100834	 30.57073844
Pt	 37.34357758	 13.44100834	 33.48223734
Pt	 37.34357758	 13.44100834	 36.39373624
Pt	 37.34357758	 13.44100834	 39.30523514
Pt	 37.34357758	 13.44100834	 42.21673403
Pt	 37.34357758	 13.44100834	 45.12823293
Pt	 37.34357758	 13.44100834	 48.03973183
Pt	 37.34357758	 13.44100834	 50.95123073
Pt	 37.34357758	 13.44100834	 53.86272963
Pt	 37.34357758	 13.44100834	 56.77422853
Pt	 65.05295583	 4.48033611	 -43.67248348
Pt	 65.05295583	 4.48033611	 -40.76098458
Pt	 65.05295583	 4.48033611	 -37.84948569
Pt	 65.05295583	 4.48033611	 -34.93798679
Pt	 65.05295583	 4.48033611	 -32.02648789
Pt	 65.05295583	 4.48033611	 -29.11498899
Pt	 65.05295583	 4.48033611	 -26.20349009
Pt	 65.05295583	 4.48033611	 -23.29199119
Pt	 65.05295583	 4.48033611	 -20.38049229
Pt	 65.05295583	 4.48033611	 -17.46899339
Pt	 65.05295583	 4.48033611	 -14.55749449
Pt	 65.05295583	 4.48033611	 -11.64599560
Pt	 65.05295583	 4.48033611	 -8.73449670
Pt	 65.05295583	 4.48033611	 -5.82299780
Pt	 65.05295583	 4.48033611	 -2.91149890
Pt	 65.05295583	 4.48033611	 -0.00000000
Pt	 65.05295583	 4.48033611	 2.91149890
Pt	 65.05295583	 4.48033611	 5.82299780
Pt	 65.05295583	 4.48033611	 8.73449670
Pt	 65.05295583	 4.48033611	 11.64599560
Pt	 65.05295583	 4.48033611	 14.55749449
Pt	 65.05295583	 4.48033611	 17.46899339
Pt	 65.05295583	 4.48033611	 20.38049229
Pt	 65.05295583	 4.48033611	 23.29199119
Pt	 65.05295583	 4.48033611	 26.20349009
Pt	 65.05295583	 4.48033611	 29.11498899
Pt	 65.05295583	 4.48033611	 32.02648789
Pt	 65.05295583	 4.48033611	 34.93798679
Pt	 65.05295583	 4.48033611	 37.84948569
Pt	 65.05295583	 4.48033611	 40.76098458
Pt	 65.05295583	 4.48033611	 43.67248348
Pt	 31.00509604	 15.68117640	 -59.68572743
Pt	 31.00509604	 15.68117640	 -56.77422853
Pt	 31.00509604	 15.68117640	 -53.86272963
Pt	 31.00509604	 15.68117640	 -50.95123073
Pt	 31.00509604	 15.68117640	 -48.03973183
Pt	 31.00509604	 15.68117640	 -45.12823293
Pt	 31.00509604	 15.68117640	 -42.21673403
Pt	 31.00509604	 15.68117640	 -39.30523514
Pt	 31.00509604	 15.68117640	 -36.39373624
Pt	 31.00509604	 15.68117640	 -33.48223734
Pt	 31.00509604	 15.68117640	 -30.57073844
Pt	 31.00509604	 15.68117640	 -27.65923954
Pt	 31.00509604	 15.68117640	 -24.74774064
Pt	 31.00509604	 15.68117640	 -21.83624174
Pt	 31.00509604	 15.68117640	 -18.92474284
Pt	 31.00509604	 15.68117640	 -16.01324394
Pt	 31.00509604	 15.68117640	 -13.10174505
Pt	 31.00509604	 15.68117640	 -10.19024615
Pt	 31.00509604	 15.68117640	 -7.27874725
Pt	 31.00509604	 15.68117640	 -4.36724835
Pt	 31.00509604	 15.68117640	 -1.45574945
Pt	 31.00509604	 15.68117640	 1.45574945
Pt	 31.00509604	 15.68117640	 4.36724835
Pt	 31.00509604	 15.68117640	 7.27874725
Pt	 31.00509604	 15.68117640	 10.19024615
Pt	 31.00509604	 15.68117640	 13.10174505
Pt	 31.00509604	 15.68117640	 16.01324394
Pt	 31.00509604	 15.68117640	 18.92474284
Pt	 31.00509604	 15.68117640	 21.83624174
Pt	 31.00509604	 15.68117640	 24.74774064
Pt	 31.00509604	 15.68117640	 27.65923954
Pt	 31.00509604	 15.68117640	 30.57073844
Pt	 31.00509604	 15.68117640	 33.48223734
Pt	 31.00509604	 15.68117640	 36.39373624
Pt	 31.00509604	 15.68117640	 39.30523514
Pt	 31.00509604	 15.68117640	 42.21673403
Pt	 31.00509604	 15.68117640	 45.12823293
Pt	 31.00509604	 15.68117640	 48.03973183
Pt	 31.00509604	 15.68117640	 50.95123073
Pt	 31.00509604	 15.68117640	 53.86272963
Pt	 31.00509604	 15.68117640	 56.77422853
Pt	 31.00509604	 15.68117640	 59.68572743
Pt	 58.71447429	 6.72050417	 -46.58398238
Pt	 58.71447429	 6.72050417	 -43.67248348
Pt	 58.71447429	 6.72050417	 -40.76098458
Pt	 58.71447429	 6.72050417	 -37.84948569
Pt	 58.71447429	 6.72050417	 -34.93798679
Pt	 58.71447429	 6.72050417	 -32.02648789
Pt	 58.71447429	 6.72050417	 -29.11498899
Pt	 58.71447429	 6.72050417	 -26.20349009
Pt	 58.71447429	 6.72050417	 -23.29199119
Pt	 58.71447429	 6.72050417	 -20.38049229
Pt	 58.71447429	 6.72050417	 -17.46899339
Pt	 58.71447429	 6.72050417	 -14.55749449
Pt	 58.71447429	 6.72050417	 -11.64599560
Pt	 58.71447429	 6.72050417	 -8.73449670
Pt	 58.71447429	 6.72050417	 -5.82299780
Pt	 58.71447429	 6.72050417	 -2.91149890
Pt	 58.71447429	 6.72050417	 -0.00000000
Pt	 58.71447429	 6.72050417	 2.91149890
Pt	 58.71447429	 6.72050417	 5.82299780
Pt	 58.71447429	 6.72050417	 8.73449670
Pt	 58.71447429	 6.72050417	 11.64599560
Pt	 58.71447429	 6.72050417	 14.55749449
Pt	 58.71447429	 6.72050417	 17.46899339
Pt	 58.71447429	 6.72050417	 20.38049229
Pt	 58.71447429	 6.72050417	 23.29199119
Pt	 58.71447429	 6.72050417	 26.20349009
Pt	 58.71447429	 6.72050417	 29.11498899
Pt	 58.71447429	 6.72050417	 32.02648789
Pt	 58.71447429	 6.72050417	 34.93798679
Pt	 58.71447429	 6.72050417	 37.84948569
Pt	 58.71447429	 6.72050417	 40.76098458
Pt	 58.71447429	 6.72050417	 43.67248348
Pt	 58.71447429	 6.72050417	 46.58398238
Pt	 24.66661450	 17.92134446	 -62.59722633
Pt	 24.66661450	 17.92134446	 -59.68572743
Pt	 24.66661450	 17.92134446	 -56.77422853
Pt	 24.66661450	 17.92134446	 -53.86272963
Pt	 24.66661450	 17.92134446	 -50.95123073
Pt	 24.66661450	 17.92134446	 -48.03973183
Pt	 24.66661450	 17.92134446	 -45.12823293
Pt	 24.66661450	 17.92134446	 -42.21673403
Pt	 24.66661450	 17.92134446	 -39.30523514
Pt	 24.66661450	 17.92134446	 -36.39373624
Pt	 24.66661450	 17.92134446	 -33.48223734
Pt	 24.66661450	 17.92134446	 -30.57073844
Pt	 24.66661450	 17.92134446	 -27.65923954
Pt	 24.66661450	 17.92134446	 -24.74774064
Pt	 24.66661450	 17.92134446	 -21.83624174
Pt	 24.66661450	 17.92134446	 -18.92474284
Pt	 24.66661450	 17.92134446	 -16.01324394
Pt	 24.66661450	 17.92134446	 -13.10174505
Pt	 24.66661450	 17.92134446	 -10.19024615
Pt	 24.66661450	 17.92134446	 -7.27874725
Pt	 24.66661450	 17.92134446	 -4.36724835
Pt	 24.66661450	 17.92134446	 -1.45574945
Pt	 24.66661450	 17.92134446	 1.45574945
Pt	 24.66661450	 17.92134446	 4.36724835
Pt	 24.66661450	 17.92134446	 7.27874725
Pt	 24.66661450	 17.92134446	 10.19024615
Pt	 24.66661450	 17.92134446	 13.10174505
Pt	 24.66661450	 17.92134446	 16.01324394
Pt	 24.66661450	 17.92134446	 18.92474284
Pt	 24.66661450	 17.92134446	 21.83624174
Pt	 24.66661450	 17.92134446	 24.74774064
Pt	 24.66661450	 17.92134446	 27.65923954
Pt	 24.66661450	 17.92134446	 30.57073844
Pt	 24.66661450	 17.92134446	 33.48223734
Pt	 24.66661450	 17.92134446	 36.39373624
Pt	 24.66661450	 17.92134446	 39.30523514
Pt	 24.66661450	 17.92134446	 42.21673403
Pt	 24.66661450	 17.92134446	 45.12823293
Pt	 24.66661450	 17.92134446	 48.03973183
Pt	 24.66661450	 17.92134446	 50.95123073
Pt	 24.66661450	 17.92134446	 53.86272963
Pt	 24.66661450	 17.92134446	 56.77422853
Pt	 24.66661450	 17.92134446	 59.68572743
Pt	 24.66661450	 17.92134446	 62.59722633
Pt	 52.37599275	 8.96067223	 -49.49548128
Pt	 52.37599275	 8.96067223	 -46.58398238
Pt	 52.37599275	 8.96067223	 -43.67248348
Pt	 52.37599275	 8.96067223	 -40.76098458
Pt	 52.37599275	 8.96067223	 -37.84948569
Pt	 52.37599275	 8.96067223	 -34.93798679
Pt	 52.37599275	 8.96067223	 -32.02648789
Pt	 52.37599275	 8.96067223	 -29.11498899
Pt	 52.37599275	 8.96067223	 -26.20349009
Pt	 52.37599275	 8.96067223	 -23.29199119
Pt	 52.37599275	 8.96067223	 -20.38049229
Pt	 52.37599275	 8.96067223	 -17.46899339
Pt	 52.37599275	 8.96067223	 -14.55749449
Pt	 52.37599275	 8.96067223	 -11.64599560
Pt	 52.37599275	 8.96067223	 -8.73449670
Pt	 52.37599275	 8.96067223	 -5.82299780
Pt	 52.37599275	 8.96067223	 -2.91149890
Pt	 52.37599275	 8.96067223	 -0.00000000
Pt	 52.37599275	 8.96067223	 2.91149890
Pt	 52.37599275	 8.96067223	 5.82299780
Pt	 52.37599275	 8.96067223	 8.73449670
Pt	 52.37599275	 8.96067223	 11.64599560
Pt	 52.37599275	 8.96067223	 14.55749449
Pt	 52.37599275	 8.96067223	 17.46899339
Pt	 52.37599275	 8.96067223	 20.38049229
Pt	 52.37599275	 8.96067223	 23.29199119
Pt	 52.37599275	 8.96067223	 26.20349009
Pt	 52.37599275	 8.96067223	 29.11498899
Pt	 52.37599275	 8.96067223	 32.02648789
Pt	 52.37599275	 8.96067223	 34.93798679
Pt	 52.37599275	 8.96067223	 37.84948569
Pt	 52.37599275	 8.96067223	 40.76098458
Pt	 52.37599275	 8.96067223	 43.67248348
Pt	 52.37599275	 8.96067223	 46.58398238
Pt	 52.37599275	 8.96067223	 49.49548128
Pt	 80.08537100	 0.00000000	 -36.39373624
Pt	 80.08537100	 0.00000000	 -33.48223734
Pt	 80.08537100	 0.00000000	 -30.57073844
Pt	 80.08537100	 0.00000000	 -27.65923954
Pt	 80.08537100	 0.00000000	 -24.74774064
Pt	 80.08537100	 0.00000000	 -21.83624174
Pt	 80.08537100	 0.00000000	 -18.92474284
Pt	 80.08537100	 0.00000000	 -16.01324394
Pt	 80.08537100	 0.00000000	 -13.10174505
Pt	 80.08537100	 0.00000000	 -10.19024615
Pt	 80.08537100	 0.00000000	 -7.27874725
Pt	 80.08537100	 0.00000000	 -4.36724835
Pt	 80.08537100	 0.00000000	 -1.45574945
Pt	 80.08537100	 0.00000000	 1.45574945
Pt	 80.08537100	 0.00000000	 4.36724835
Pt	 80.08537100	 0.00000000	 7.27874725
Pt	 80.08537100	 0.00000000	 10.19024615
Pt	 80.08537100	 0.00000000	 13.10174505
Pt	 80.08537100	 0.00000000	 16.01324394
Pt	 80.08537100	 0.00000000	 18.92474284
Pt	 80.08537100	 0.00000000	 21.83624174
Pt	 80.08537100	 0.00000000	 24.74774064
Pt	 80.08537100	 0.00000000	 27.65923954
Pt	 80.08537100	 0.00000000	 30.57073844
Pt	 80.08537100	 0.00000000	 33.48223734
Pt	 80.08537100	 0.00000000	 36.39373624
Pt	 46.03751121	 11.20084029	 -52.40698018
Pt	 46.03751121	 11.20084029	 -49.49548128
Pt	 46.03751121	 11.20084029	 -46.58398238
Pt	 46.03751121	 11.20084029	 -43.67248348
Pt	 46.03751121	 11.20084029	 -40.76098458
Pt	 46.03751121	 11.20084029	 -37.84948569
Pt	 46.03751121	 11.20084029	 -34.93798679
Pt	 46.03751121	 11.20084029	 -32.02648789
Pt	 46.03751121	 11.20084029	 -29.11498899
Pt	 46.03751121	 11.20084029	 -26.20349009
Pt	 46.03751121	 11.20084029	 -23.29199119
Pt	 46.03751121	 11.20084029	 -20.38049229
Pt	 46.03751121	 11.20084029	 -17.46899339
Pt	 46.03751121	 11.20084029	 -14.55749449
Pt	 46.03751121	 11.20084029	 -11.64599560
Pt	 46.03751121	 11.20084029	 -8.73449670
Pt	 46.03751121	 11.20084029	 -5.82299780
Pt	 46.03751121	 11.20084029	 -2.91149890
Pt	 46.03751121	 11.20084029	 -0.00000000
Pt	 46.03751121	 11.20084029	 2.91149890
Pt	 46.03751121	 11.20084029	 5.82299780
Pt	 46.03751121	 11.20084029	 8.73449670
Pt	 46.03751121	 11.20084029	 11.64599560
Pt	 46.03751121	 11.20084029	 14.55749449
Pt	 46.03751121	 11.20084029	 17.46899339
Pt	 46.03751121	 11.20084029	 20.38049229
Pt	 46.03751121	 11.20084029	 23.29199119
Pt	 46.03751121	 11.20084029	 26.20349009
Pt	 46.03751121	 11.20084029	 29.11498899
Pt	 46.03751121	 11.20084029	 32.02648789
Pt	 46.03751121	 11.20084029	 34.93798679
Pt	 46.03751121	 11.20084029	 37.84948569
Pt	 46.03751121	 11.20084029	 40.76098458
Pt	 46.03751121	 11.20084029	 43.67248348
Pt	 46.03751121	 11.20084029	 46.58398238
Pt	 46.03751121	 11.20084029	 49.49548128
Pt	 46.03751121	 11.20084029	 52.40698018
Pt	 73.74688946	 2.24016806	 -39.30523514
Pt	 73.74688946	 2.24016806	 -36.39373624
Pt	 73.74688946	 2.24016806	 -33.48223734
Pt	 73.74688946	 2.24016806	 -30.57073844
Pt	 73.74688946	 2.24016806	 -27.65923954
Pt	 73.74688946	 2.24016806	 -24.74774064
Pt	 73.74688946	 2.24016806	 -21.83624174
Pt	 73.74688946	 2.24016806	 -18.92474284
Pt	 73.74688946	 2.24016806	 -16.01324394
Pt	 73.74688946	 2.24016806	 -13.10174505
Pt	 73.74688946	 2.24016806	 -10.19024615
Pt	 73.74688946	 2.24016806	 -7.27874725
Pt	 73.74688946	 2.24016806	 -4.36724835
Pt	 73.74688946	 2.24016806	 -1.45574945
Pt	 73.74688946	 2.24016806	 1.45574945
Pt	 73.74688946	 2.24016806	 4.36724835
Pt	 73.74688946	 2.24016806	 7.27874725
Pt	 73.74688946	 2.24016806	 10.19024615
Pt	 73.74688946	 2.24016806	 13.10174505
Pt	 73.74688946	 2.24016806	 16.01324394
Pt	 73.74688946	 2.24016806	 18.92474284
Pt	 73.74688946	 2.24016806	 21.83624174
Pt	 73.74688946	 2.24016806	 24.74774064
Pt	 73.74688946	 2.24016806	 27.65923954
Pt	 73.74688946	 2.24016806	 30.57073844
Pt	 73.74688946	 2.24016806	 33.48223734
Pt	 73.74688946	 2.24016806	 36.39373624
Pt	 73.74688946	 2.24016806	 39.30523514
Pt	 39.69902967	 13.44100834	 -55.31847908
Pt	 39.69902967	 13.44100834	 -52.40698018
Pt	 39.69902967	 13.44100834	 -49.49548128
Pt	 39.69902967	 13.44100834	 -46.58398238
Pt	 39.69902967	 13.44100834	 -43.67248348
Pt	 39.69902967	 13.44100834	 -40.76098458
Pt	 39.69902967	 13.44100834	 -37.84948569
Pt	 39.69902967	 13.44100834	 -34.93798679
Pt	 39.69902967	 13.44100834	 -32.02648789
Pt	 39.69902967	 13.44100834	 -29.11498899
Pt	 39.69902967	 13.44100834	 -26.20349009
Pt	 39.69902967	 13.44100834	 -23.29199119
Pt	 39.69902967	 13.44100834	 -20.38049229
Pt	 39.69902967	 13.44100834	 -17.46899339
Pt	 39.69902967	 13.44100834	 -14.55749449
Pt	 39.69902967	 13.44100834	 -11.64599560
Pt	 39.69902967	 13.44100834	 -8.73449670
Pt	 39.69902967	 13.44100834	 -5.82299780
Pt	 39.69902967	 13.44100834	 -2.91149890
Pt	 39.69902967	 13.44100834	 0.00000000
Pt	 39.69902967	 13.44100834	 2.91149890
Pt	 39.69902967	 13.44100834	 5.82299780
Pt	 39.69902967	 13.44100834	 8.73449670
Pt	 39.69902967	 13.44100834	 11.64599560
Pt	 39.69902967	 13.44100834	 14.55749449
Pt	 39.69902967	 13.44100834	 17.46899339
Pt	 39.69902967	 13.44100834	 20.38049229
Pt	 39.69902967	 13.44100834	 23.29199119
Pt	 39.69902967	 13.44100834	 26.20349009
Pt	 39.69902967	 13.44100834	 29.11498899
Pt	 39.69902967	 13.44100834	 32.02648789
Pt	 39.69902967	 13.44100834	 34.93798679
Pt	 39.69902967	 13.44100834	 37.84948569
Pt	 39.69902967	 13.44100834	 40.76098458
Pt	 39.69902967	 13.44100834	 43.67248348
Pt	 39.69902967	 13.44100834	 46.58398238
Pt	 39.69902967	 13.44100834	 49.49548128
Pt	 39.69902967	 13.44100834	 52.40698018
Pt	 39.69902967	 13.44100834	 55.31847908
Pt	 67.40840792	 4.48033611	 -42.21673403
Pt	 67.40840792	 4.48033611	 -39.30523514
Pt	 67.40840792	 4.48033611	 -36.39373624
Pt	 67.40840792	 4.48033611	 -33.48223734
Pt	 67.40840792	 4.48033611	 -30.57073844
Pt	 67.40840792	 4.48033611	 -27.65923954
Pt	 67.40840792	 4.48033611	 -24.74774064
Pt	 67.40840792	 4.48033611	 -21.83624174
Pt	 67.40840792	 4.48033611	 -18.92474284
Pt	 67.40840792	 4.48033611	 -16.01324394
Pt	 67.40840792	 4.48033611	 -13.10174505
Pt	 67.40840792	 4.48033611	 -10.19024615
Pt	 67.40840792	 4.48033611	 -7.27874725
Pt	 67.40840792	 4.48033611	 -4.36724835
Pt	 67.40840792	 4.48033611	 -1.45574945
Pt	 67.40840792	 4.48033611	 1.45574945
Pt	 67.40840792	 4.48033611	 4.36724835
Pt	 67.40840792	 4.48033611	 7.27874725
Pt	 67.40840792	 4.48033611	 10.19024615
Pt	 67.40840792	 4.48033611	 13.10174505
Pt	 67.40840792	 4.48033611	 16.01324394
Pt	 67.40840792	 4.48033611	 18.92474284
Pt	 67.40840792	 4.48033611	 21.83624174
Pt	 67.40840792	 4.48033611	 24.74774064
Pt	 67.40840792	 4.48033611	 27.65923954
Pt	 67.40840792	 4.48033611	 30.57073844
Pt	 67.40840792	 4.48033611	 33.48223734
Pt	 67.40840792	 4.48033611	 36.39373624
Pt	 67.40840792	 4.48033611	 39.30523514
Pt	 67.40840792	 4.48033611	 42.21673403
Pt	 33.36054813	 15.68117640	 -58.22997798
Pt	 33.36054813	 15.68117640	 -55.31847908
Pt	 33.36054813	 15.68117640	 -52.40698018
Pt	 33.36054813	 15.68117640	 -49.49548128
Pt	 33.36054813	 15.68117640	 -46.58398238
Pt	 33.36054813	 15.68117640	 -43.67248348
Pt	 33.36054813	 15.68117640	 -40.76098458
Pt	 33.36054813	 15.68117640	 -37.84948569
Pt	 33.36054813	 15.68117640	 -34.93798679
Pt	 33.36054813	 15.68117640	 -32.02648789
Pt	 33.36054813	 15.68117640	 -29.11498899
Pt	 33.36054813	 15.68117640	 -26.20349009
Pt	 33.36054813	 15.68117640	 -23.29199119
Pt	 33.36054813	 15.68117640	 -20.38049229
Pt	 33.36054813	 15.68117640	 -17.46899339
Pt	 33.36054813	 15.68117640	 -14.55749449
Pt	 33.36054813	 15.68117640	 -11.64599560
Pt	 33.36054813	 15.68117640	 -8.73449670
Pt	 33.36054813	 15.68117640	 -5.82299780
Pt	 33.36054813	 15.68117640	 -2.91149890
Pt	 33.36054813	 15.68117640	 -0.00000000
Pt	 33.36054813	 15.68117640	 2.91149890
Pt	 33.36054813	 15.68117640	 5.82299780
Pt	 33.36054813	 15.68117640	 8.73449670
Pt	 33.36054813	 15.68117640	 11.64599560
Pt	 33.36054813	 15.68117640	 14.55749449
Pt	 33.36054813	 15.68117640	 17.46899339
Pt	 33.36054813	 15.68117640	 20.38049229
Pt	 33.36054813	 15.68117640	 23.29199119
Pt	 33.36054813	 15.68117640	 26.20349009
Pt	 33.36054813	 15.68117640	 29.11498899
Pt	 33.36054813	 15.68117640	 32.02648789
Pt	 33.36054813	 15.68117640	 34.93798679
Pt	 33.36054813	 15.68117640	 37.84948569
Pt	 33.36054813	 15.68117640	 40.76098458
Pt	 33.36054813	 15.68117640	 43.67248348
Pt	 33.36054813	 15.68117640	 46.58398238
Pt	 33.36054813	 15.68117640	 49.49548128
Pt	 33.36054813	 15.68117640	 52.40698018
Pt	 33.36054813	 15.68117640	 55.31847908
Pt	 33.36054813	 15.68117640	 58.22997798
Pt	 61.06992638	 6.72050417	 -45.12823293
Pt	 61.06992638	 6.72050417	 -42.21673403
Pt	 61.06992638	 6.72050417	 -39.30523514
Pt	 61.06992638	 6.72050417	 -36.39373624
Pt	 61.06992638	 6.72050417	 -33.48223734
Pt	 61.06992638	 6.72050417	 -30.57073844
Pt	 61.06992638	 6.72050417	 -27.65923954
Pt	 61.06992638	 6.72050417	 -24.74774064
Pt	 61.06992638	 6.72050417	 -21.83624174
Pt	 61.06992638	 6.72050417	 -18.92474284
Pt	 61.06992638	 6.72050417	 -16.01324394
Pt	 61.06992638	 6.72050417	 -13.10174505
Pt	 61.06992638	 6.72050417	 -10.19024615
Pt	 61.06992638	 6.72050417	 -7.27874725
Pt	 61.06992638	 6.72050417	 -4.36724835
Pt	 61.06992638	 6.72050417	 -1.45574945
Pt	 61.06992638	 6.72050417	 1.45574945
Pt	 61.06992638	 6.72050417	 4.36724835
Pt	 61.06992638	 6.72050417	 7.27874725
Pt	 61.06992638	 6.72050417	 10.19024615
Pt	 61.06992638	 6.72050417	 13.10174505
Pt	 61.06992638	 6.72050417	 16.01324394
Pt	 61.06992638	 6.72050417	 18.92474284
Pt	 61.06992638	 6.72050417	 21.83624174
Pt	 61.06992638	 6.72050417	 24.74774064
Pt	 61.06992638	 6.72050417	 27.65923954
Pt	 61.06992638	 6.72050417	 30.57073844
Pt	 61.06992638	 6.72050417	 33.48223734
Pt	 61.06992638	 6.72050417	 36.39373624
Pt	 61.06992638	 6.72050417	 39.30523514
Pt	 61.06992638	 6.72050417	 42.21673403
Pt	 61.06992638	 6.72050417	 45.12823293
Pt	 27.02206659	 17.92134446	 -61.14147688
Pt	 27.02206659	 17.92134446	 -58.22997798
Pt	 27.02206659	 17.92134446	 -55.31847908
Pt	 27.02206659	 17.92134446	 -52.40698018
Pt	 27.02206659	 17.92134446	 -49.49548128
Pt	 27.02206659	 17.92134446	 -46.58398238
Pt	 27.02206659	 17.92134446	 -43.67248348
Pt	 27.02206659	 17.92134446	 -40.76098458
Pt	 27.02206659	 17.92134446	 -37.84948569
Pt	 27.02206659	 17.92134446	 -34.93798679
Pt	 27.02206659	 17.92134446	 -32.02648789
Pt	 27.02206659	 17.92134446	 -29.11498899
Pt	 27.02206659	 17.92134446	 -26.20349009
Pt	 27.02206659	 17.92134446	 -23.29199119
Pt	 27.02206659	 17.92134446	 -20.38049229
Pt	 27.02206659	 17.92134446	 -17.46899339
Pt	 27.02206659	 17.92134446	 -14.55749449
Pt	 27.02206659	 17.92134446	 -11.64599560
Pt	 27.02206659	 17.92134446	 -8.73449670
Pt	 27.02206659	 17.92134446	 -5.82299780
Pt	 27.02206659	 17.92134446	 -2.91149890
Pt	 27.02206659	 17.92134446	 -0.00000000
Pt	 27.02206659	 17.92134446	 2.91149890
Pt	 27.02206659	 17.92134446	 5.82299780
Pt	 27.02206659	 17.92134446	 8.73449670
Pt	 27.02206659	 17.92134446	 11.64599560
Pt	 27.02206659	 17.92134446	 14.55749449
Pt	 27.02206659	 17.92134446	 17.46899339
Pt	 27.02206659	 17.92134446	 20.38049229
Pt	 27.02206659	 17.92134446	 23.29199119
Pt	 27.02206659	 17.92134446	 26.20349009
Pt	 27.02206659	 17.92134446	 29.11498899
Pt	 27.02206659	 17.92134446	 32.02648789
Pt	 27.02206659	 17.92134446	 34.93798679
Pt	 27.02206659	 17.92134446	 37.84948569
Pt	 27.02206659	 17.92134446	 40.76098458
Pt	 27.02206659	 17.92134446	 43.67248348
Pt	 27.02206659	 17.92134446	 46.58398238
Pt	 27.02206659	 17.92134446	 49.49548128
Pt	 27.02206659	 17.92134446	 52.40698018
Pt	 27.02206659	 17.92134446	 55.31847908
Pt	 27.02206659	 17.92134446	 58.22997798
Pt	 27.02206659	 17.92134446	 61.14147688
Pt	 54.73144484	 8.96067223	 -48.03973183
Pt	 54.73144484	 8.96067223	 -45.12823293
Pt	 54.73144484	 8.96067223	 -42.21673403
Pt	 54.73144484	 8.96067223	 -39.30523514
Pt	 54.73144484	 8.96067223	 -36.39373624
Pt	 54.73144484	 8.96067223	 -33.48223734
Pt	 54.73144484	 8.96067223	 -30.57073844
Pt	 54.73144484	 8.96067223	 -27.65923954
Pt	 54.73144484	 8.96067223	 -24.74774064
Pt	 54.73144484	 8.96067223	 -21.83624174
Pt	 54.73144484	 8.96067223	 -18.92474284
Pt	 54.73144484	 8.96067223	 -16.01324394
Pt	 54.73144484	 8.96067223	 -13.10174505
Pt	 54.73144484	 8.96067223	 -10.19024615
Pt	 54.73144484	 8.96067223	 -7.27874725
Pt	 54.73144484	 8.96067223	 -4.36724835
Pt	 54.73144484	 8.96067223	 -1.45574945
Pt	 54.73144484	 8.96067223	 1.45574945
Pt	 54.73144484	 8.96067223	 4.36724835
Pt	 54.73144484	 8.96067223	 7.27874725
Pt	 54.73144484	 8.96067223	 10.19024615
Pt	 54.73144484	 8.96067223	 13.10174505
Pt	 54.73144484	 8.96067223	 16.01324394
Pt	 54.73144484	 8.96067223	 18.92474284
Pt	 54.73144484	 8.96067223	 21.83624174
Pt	 54.73144484	 8.96067223	 24.74774064
Pt	 54.73144484	 8.96067223	 27.65923954
Pt	 54.73144484	 8.96067223	 30.57073844
Pt	 54.73144484	 8.96067223	 33.48223734
Pt	 54.73144484	 8.96067223	 36.39373624
Pt	 54.73144484	 8.96067223	 39.30523514
Pt	 54.73144484	 8.96067223	 42.21673403
Pt	 54.73144484	 8.96067223	 45.12823293
Pt	 54.73144484	 8.96067223	 48.03973183
Pt	 82.44082309	 0.00000000	 -34.93798679
Pt	 82.44082309	 0.00000000	 -32.02648789
Pt	 82.44082309	 0.00000000	 -29.11498899
Pt	 82.44082309	 0.00000000	 -26.20349009
Pt	 82.44082309	 0.00000000	 -23.29199119
Pt	 82.44082309	 0.00000000	 -20.38049229
Pt	 82.44082309	 0.00000000	 -17.46899339
Pt	 82.44082309	 0.00000000	 -14.55749449
Pt	 82.44082309	 0.00000000	 -11.64599560
Pt	 82.44082309	 0.00000000	 -8.73449670
Pt	 82.44082309	 0.00000000	 -5.82299780
Pt	 82.44082309	 0.00000000	 -2.91149890
Pt	 82.44082309	 0.00000000	 0.00000000
Pt	 82.44082309	 0.00000000	 2.91149890
Pt	 82.44082309	 0.00000000	 5.82299780
Pt	 82.44082309	 0.00000000	 8.73449670
Pt	 82.44082309	 0.00000000	 11.64599560
Pt	 82.44082309	 0.00000000	 14.55749449
Pt	 82.44082309	 0.00000000	 17.46899339
Pt	 82.44082309	 0.00000000	 20.38049229
Pt	 82.44082309	 0.00000000	 23.29199119
Pt	 82.44082309	 0.00000000	 26.20349009
Pt	 82.44082309	 0.00000000	 29.11498899
Pt	 82.44082309	 0.00000000	 32.02648789
Pt	 82.44082309	 0.00000000	 34.93798679
Pt	 48.39296330	 11.20084029	 -50.95123073
Pt	 48.39296330	 11.20084029	 -48.03973183
Pt	 48.39296330	 11.20084029	 -45.12823293
Pt	 48.39296330	 11.20084029	 -42.21673403
Pt	 48.39296330	 11.20084029	 -39.30523514
Pt	 48.39296330	 11.20084029	 -36.39373624
Pt	 48.39296330	 11.20084029	 -33.48223734
Pt	 48.39296330	 11.20084029	 -30.57073844
Pt	 48.39296330	 11.20084029	 -27.65923954
Pt	 48.39296330	 11.20084029	 -24.74774064
Pt	 48.39296330	 11.20084029	 -21.83624174
Pt	 48.39296330	 11.20084029	 -18.92474284
Pt	 48.39296330	 11.20084029	 -16.01324394
Pt	 48.39296330	 11.20084029	 -13.10174505
Pt	 48.39296330	 11.20084029	 -10.19024615
Pt	 48.39296330	 11.20084029	 -7.27874725
Pt	 48.39296330	 11.20084029	 -4.36724835
Pt	 48.39296330	 11.20084029	 -1.45574945
Pt	 48.39296330	 11.20084029	 1.45574945
Pt	 48.39296330	 11.20084029	 4.36724835
Pt	 48.39296330	 11.20084029	 7.27874725
Pt	 48.39296330	 11.20084029	 10.19024615
Pt	 48.39296330	 11.20084029	 13.10174505
Pt	 48.39296330	 11.20084029	 16.01324394
Pt	 48.39296330	 11.20084029	 18.92474284
Pt	 48.39296330	 11.20084029	 21.83624174
Pt	 48.39296330	 11.20084029	 24.74774064
Pt	 48.39296330	 11.20084029	 27.65923954
Pt	 48.39296330	 11.20084029	 30.57073844
Pt	 48.39296330	 11.20084029	 33.48223734
Pt	 48.39296330	 11.20084029	 36.39373624
Pt	 48.39296330	 11.20084029	 39.30523514
Pt	 48.39296330	 11.20084029	 42.21673403
Pt	 48.39296330	 11.20084029	 45.12823293
Pt	 48.39296330	 11.20084029	 48.03973183
Pt	 48.39296330	 11.20084029	 50.95123073
Pt	 76.10234155	 2.24016806	 -37.84948569
Pt	 76.10234155	 2.24016806	 -34.93798679
Pt	 76.10234155	 2.24016806	 -32.02648789
Pt	 76.10234155	 2.24016806	 -29.11498899
Pt	 76.10234155	 2.24016806	 -26.20349009
Pt	 76.10234155	 2.24016806	 -23.29199119
Pt	 76.10234155	 2.24016806	 -20.38049229
Pt	 76.10234155	 2.24016806	 -17.46899339
Pt	 76.10234155	 2.24016806	 -14.55749449
Pt	 76.10234155	 2.24016806	 -11.64599560
Pt	 76.10234155	 2.24016806	 -8.73449670
Pt	 76.10234155	 2.24016806	 -5.82299780
Pt	 76.10234155	 2.24016806	 -2.91149890
Pt	 76.10234155	 2.24016806	 -0.00000000
Pt	 76.10234155	 2.24016806	 2.91149890
Pt	 76.10234155	 2.24016806	 5.82299780
Pt	 76.10234155	 2.24016806	 8.73449670
Pt	 76.10234155	 2.24016806	 11.64599560
Pt	 76.10234155	 2.24016806	 14.55749449
Pt	 76.10234155	 2.24016806	 17.46899339
Pt	 76.10234155	 2.24016806	 20.38049229
Pt	 76.10234155	 2.24016806	 23.29199119
Pt	 76.10234155	 2.24016806	 26.20349009
Pt	 76.10234155	 2.24016806	 29.11498899
Pt	 76.10234155	 2.24016806	 32.02648789
Pt	 76.10234155	 2.24016806	 34.93798679
Pt	 76.10234155	 2.24016806	 37.84948569
Pt	 42.05448176	 13.44100834	 -53.86272963
Pt	 42.05448176	 13.44100834	 -50.95123073
Pt	 42.05448176	 13.44100834	 -48.03973183
Pt	 42.05448176	 13.44100834	 -45.12823293
Pt	 42.05448176	 13.44100834	 -42.21673403
Pt	 42.05448176	 13.44100834	 -39.30523514
Pt	 42.05448176	 13.44100834	 -36.39373624
Pt	 42.05448176	 13.44100834	 -33.48223734
Pt	 42.05448176	 13.44100834	 -30.57073844
Pt	 42.05448176	 13.44100834	 -27.65923954
Pt	 42.05448176	 13.44100834	 -24.74774064
Pt	 42.05448176	 13.44100834	 -21.83624174
Pt	 42.05448176	 13.44100834	 -18.92474284
Pt	 42.05448176	 13.44100834	 -16.01324394
Pt	 42.05448176	 13.44100834	 -13.10174505
Pt	 42.05448176	 13.44100834	 -10.19024615
Pt	 42.05448176	 13.44100834	 -7.27874725
Pt	 42.05448176	 13.44100834	 -4.36724835
Pt	 42.05448176	 13.44100834	 -1.45574945
Pt	 42.05448176	 13.44100834	 1.45574945
Pt	 42.05448176	 13.44100834	 4.36724835
Pt	 42.05448176	 13.44100834	 7.27874725
Pt	 42.05448176	 13.44100834	 10.19024615
Pt	 42.05448176	 13.44100834	 13.10174505
Pt	 42.05448176	 13.44100834	 16.01324394
Pt	 42.05448176	 13.44100834	 18.92474284
Pt	 42.05448176	 13.44100834	 21.83624174
Pt	 42.05448176	 13.44100834	 24.74774064
Pt	 42.05448176	 13.44100834	 27.65923954
Pt	 42.05448176	 13.44100834	 30.57073844
Pt	 42.05448176	 13.44100834	 33.48223734
Pt	 42.05448176	 13.44100834	 36.39373624
Pt	 42.05448176	 13.44100834	 39.30523514
Pt	 42.05448176	 13.44100834	 42.21673403
Pt	 42.05448176	 13.44100834	 45.12823293
Pt	 42.05448176	 13.44100834	 48.03973183
Pt	 42.05448176	 13.44100834	 50.95123073
Pt	 42.05448176	 13.44100834	 53.86272963
Pt	 69.76386001	 4.48033611	 -40.76098458
Pt	 69.76386001	 4.48033611	 -37.84948569
Pt	 69.76386001	 4.48033611	 -34.93798679
Pt	 69.76386001	 4.48033611	 -32.02648789
Pt	 69.76386001	 4.48033611	 -29.11498899
Pt	 69.76386001	 4.48033611	 -26.20349009
Pt	 69.76386001	 4.48033611	 -23.29199119
Pt	 69.76386001	 4.48033611	 -20.38049229
Pt	 69.76386001	 4.48033611	 -17.46899339
Pt	 69.76386001	 4.48033611	 -14.55749449
Pt	 69.76386001	 4.48033611	 -11.64599560
Pt	 69.76386001	 4.48033611	 -8.73449670
Pt	 69.76386001	 4.48033611	 -5.82299780
Pt	 69.76386001	 4.48033611	 -2.91149890
Pt	 69.76386001	 4.48033611	 0.00000000
Pt	 69.76386001	 4.48033611	 2.91149890
Pt	 69.76386001	 4.48033611	 5.82299780
Pt	 69.76386001	 4.48033611	 8.73449670
Pt	 69.76386001	 4.48033611	 11.64599560
Pt	 69.76386001	 4.48033611	 14.55749449
Pt	 69.76386001	 4.48033611	 17.46899339
Pt	 69.76386001	 4.48033611	 20.38049229
Pt	 69.76386001	 4.48033611	 23.29199119
Pt	 69.76386001	 4.48033611	 26.20349009
Pt	 69.76386001	 4.48033611	 29.11498899
Pt	 69.76386001	 4.48033611	 32.02648789
Pt	 69.76386001	 4.48033611	 34.93798679
Pt	 69.76386001	 4.48033611	 37.84948569
Pt	 69.76386001	 4.48033611	 40.76098458
Pt	 35.71600022	 15.68117640	 -56.77422853
Pt	 35.71600022	 15.68117640	 -53.86272963
Pt	 35.71600022	 15.68117640	 -50.95123073
Pt	 35.71600022	 15.68117640	 -48.03973183
Pt	 35.71600022	 15.68117640	 -45.12823293
Pt	 35.71600022	 15.68117640	 -42.21673403
Pt	 35.71600022	 15.68117640	 -39.30523514
Pt	 35.71600022	 15.68117640	 -36.39373624
Pt	 35.71600022	 15.68117640	 -33.48223734
Pt	 35.71600022	 15.68117640	 -30.57073844
Pt	 35.71600022	 15.68117640	 -27.65923954
Pt	 35.71600022	 15.68117640	 -24.74774064
Pt	 35.71600022	 15.68117640	 -21.83624174
Pt	 35.71600022	 15.68117640	 -18.92474284
Pt	 35.71600022	 15.68117640	 -16.01324394
Pt	 35.71600022	 15.68117640	 -13.10174505
Pt	 35.71600022	 15.68117640	 -10.19024615
Pt	 35.71600022	 15.68117640	 -7.27874725
Pt	 35.71600022	 15.68117640	 -4.36724835
Pt	 35.71600022	 15.68117640	 -1.45574945
Pt	 35.71600022	 15.68117640	 1.45574945
Pt	 35.71600022	 15.68117640	 4.36724835
Pt	 35.71600022	 15.68117640	 7.27874725
Pt	 35.71600022	 15.68117640	 10.19024615
Pt	 35.71600022	 15.68117640	 13.10174505
Pt	 35.71600022	 15.68117640	 16.01324394
Pt	 35.71600022	 15.68117640	 18.92474284
Pt	 35.71600022	 15.68117640	 21.83624174
Pt	 35.71600022	 15.68117640	 24.74774064
Pt	 35.71600022	 15.68117640	 27.65923954
Pt	 35.71600022	 15.68117640	 30.57073844
Pt	 35.71600022	 15.68117640	 33.48223734
Pt	 35.71600022	 15.68117640	 36.39373624
Pt	 35.71600022	 15.68117640	 39.30523514
Pt	 35.71600022	 15.68117640	 42.21673403
Pt	 35.71600022	 15.68117640	 45.12823293
Pt	 35.71600022	 15.68117640	 48.03973183
Pt	 35.71600022	 15.68117640	 50.95123073
Pt	 35.71600022	 15.68117640	 53.86272963
Pt	 35.71600022	 15.68117640	 56.77422853
Pt	 63.42537847	 6.72050417	 -43.67248348
Pt	 63.42537847	 6.72050417	 -40.76098458
Pt	 63.42537847	 6.72050417	 -37.84948569
Pt	 63.42537847	 6.72050417	 -34.93798679
Pt	 63.42537847	 6.72050417	 -32.02648789
Pt	 63.42537847	 6.72050417	 -29.11498899
Pt	 63.42537847	 6.72050417	 -26.20349009
Pt	 63.42537847	 6.72050417	 -23.29199119
Pt	 63.42537847	 6.72050417	 -20.38049229
Pt	 63.42537847	 6.72050417	 -17.46899339
Pt	 63.42537847	 6.72050417	 -14.55749449
Pt	 63.42537847	 6.72050417	 -11.64599560
Pt	 63.42537847	 6.72050417	 -8.73449670
Pt	 63.42537847	 6.72050417	 -5.82299780
Pt	 63.42537847	 6.72050417	 -2.91149890
Pt	 63.42537847	 6.72050417	 -0.00000000
Pt	 63.42537847	 6.72050417	 2.91149890
Pt	 63.42537847	 6.72050417	 5.82299780
Pt	 63.42537847	 6.72050417	 8.73449670
Pt	 63.42537847	 6.72050417	 11.64599560
Pt	 63.42537847	 6.72050417	 14.55749449
Pt	 63.42537847	 6.72050417	 17.46899339
Pt	 63.42537847	 6.72050417	 20.38049229
Pt	 63.42537847	 6.72050417	 23.29199119
Pt	 63.42537847	 6.72050417	 26.20349009
Pt	 63.42537847	 6.72050417	 29.11498899
Pt	 63.42537847	 6.72050417	 32.02648789
Pt	 63.42537847	 6.72050417	 34.93798679
Pt	 63.42537847	 6.72050417	 37.84948569
Pt	 63.42537847	 6.72050417	 40.76098458
Pt	 63.42537847	 6.72050417	 43.67248348
Pt	 29.37751868	 17.92134446	 -59.68572743
Pt	 29.37751868	 17.92134446	 -56.77422853
Pt	 29.37751868	 17.92134446	 -53.86272963
Pt	 29.37751868	 17.92134446	 -50.95123073
Pt	 29.37751868	 17.92134446	 -48.03973183
Pt	 29.37751868	 17.92134446	 -45.12823293
Pt	 29.37751868	 17.92134446	 -42.21673403
Pt	 29.37751868	 17.92134446	 -39.30523514
Pt	 29.37751868	 17.92134446	 -36.39373624
Pt	 29.37751868	 17.92134446	 -33.48223734
Pt	 29.37751868	 17.92134446	 -30.57073844
Pt	 29.37751868	 17.92134446	 -27.65923954
Pt	 29.37751868	 17.92134446	 -24.74774064
Pt	 29.37751868	 17.92134446	 -21.83624174
Pt	 29.37751868	 17.92134446	 -18.92474284
Pt	 29.37751868	 17.92134446	 -16.01324394
Pt	 29.37751868	 17.92134446	 -13.10174505
Pt	 29.37751868	 17.92134446	 -10.19024615
Pt	 29.37751868	 17.92134446	 -7.27874725
Pt	 29.37751868	 17.92134446	 -4.36724835
Pt	 29.37751868	 17.92134446	 -1.45574945
Pt	 29.37751868	 17.92134446	 1.45574945
Pt	 29.37751868	 17.92134446	 4.36724835
Pt	 29.37751868	 17.92134446	 7.27874725
Pt	 29.37751868	 17.92134446	 10.19024615
Pt	 29.37751868	 17.92134446	 13.10174505
Pt	 29.37751868	 17.92134446	 16.01324394
Pt	 29.37751868	 17.92134446	 18.92474284
Pt	 29.37751868	 17.92134446	 21.83624174
Pt	 29.37751868	 17.92134446	 24.74774064
Pt	 29.37751868	 17.92134446	 27.65923954
Pt	 29.37751868	 17.92134446	 30.57073844
Pt	 29.37751868	 17.92134446	 33.48223734
Pt	 29.37751868	 17.92134446	 36.39373624
Pt	 29.37751868	 17.92134446	 39.30523514
Pt	 29.37751868	 17.92134446	 42.21673403
Pt	 29.37751868	 17.92134446	 45.12823293
Pt	 29.37751868	 17.92134446	 48.03973183
Pt	 29.37751868	 17.92134446	 50.95123073
Pt	 29.37751868	 17.92134446	 53.86272963
Pt	 29.37751868	 17.92134446	 56.77422853
Pt	 29.37751868	 17.92134446	 59.68572743
Pt	 57.08689693	 8.96067223	 -46.58398238
Pt	 57.08689693	 8.96067223	 -43.67248348
Pt	 57.08689693	 8.96067223	 -40.76098458
Pt	 57.08689693	 8.96067223	 -37.84948569
Pt	 57.08689693	 8.96067223	 -34.93798679
Pt	 57.08689693	 8.96067223	 -32.02648789
Pt	 57.08689693	 8.96067223	 -29.11498899
Pt	 57.08689693	 8.96067223	 -26.20349009
Pt	 57.08689693	 8.96067223	 -23.29199119
Pt	 57.08689693	 8.96067223	 -20.38049229
Pt	 57.08689693	 8.96067223	 -17.46899339
Pt	 57.08689693	 8.96067223	 -14.55749449
Pt	 57.08689693	 8.96067223	 -11.64599560
Pt	 57.08689693	 8.96067223	 -8.73449670
Pt	 57.08689693	 8.96067223	 -5.82299780
Pt	 57.08689693	 8.96067223	 -2.91149890
Pt	 57.08689693	 8.96067223	 -0.00000000
Pt	 57.08689693	 8.96067223	 2.91149890
Pt	 57.08689693	 8.96067223	 5.82299780
Pt	 57.08689693	 8.96067223	 8.73449670
Pt	 57.08689693	 8.96067223	 11.64599560
Pt	 57.08689693	 8.96067223	 14.55749449
Pt	 57.08689693	 8.96067223	 17.46899339
Pt	 57.08689693	 8.96067223	 20.38049229
Pt	 57.08689693	 8.96067223	 23.29199119
Pt	 57.08689693	 8.96067223	 26.20349009
Pt	 57.08689693	 8.96067223	 29.11498899
Pt	 57.08689693	 8.96067223	 32.02648789
Pt	 57.08689693	 8.96067223	 34.93798679
Pt	 57.08689693	 8.96067223	 37.84948569
Pt	 57.08689693	 8.96067223	 40.76098458
Pt	 57.08689693	 8.96067223	 43.67248348
Pt	 57.08689693	 8.96067223	 46.58398238
Pt	 84.79627518	 0.00000000	 -33.48223734
Pt	 84.79627518	 0.00000000	 -30.57073844
Pt	 84.79627518	 0.00000000	 -27.65923954
Pt	 84.79627518	 0.00000000	 -24.74774064
Pt	 84.79627518	 0.00000000	 -21.83624174
Pt	 84.79627518	 0.00000000	 -18.92474284
Pt	 84.79627518	 0.00000000	 -16.01324394
Pt	 84.79627518	 0.00000000	 -13.10174505
Pt	 84.79627518	 0.00000000	 -10.19024615
Pt	 84.79627518	 0.00000000	 -7.27874725
Pt	 84.79627518	 0.00000000	 -4.36724835
Pt	 84.79627518	 0.00000000	 -1.45574945
Pt	 84.79627518	 0.00000000	 1.45574945
Pt	 84.79627518	 0.00000000	 4.36724835
Pt	 84.79627518	 0.00000000	 7.27874725
Pt	 84.79627518	 0.00000000	 10.19024615
Pt	 84.79627518	 0.00000000	 13.10174505
Pt	 84.79627518	 0.00000000	 16.01324394
Pt	 84.79627518	 0.00000000	 18.92474284
Pt	 84.79627518	 0.00000000	 21.83624174
Pt	 84.79627518	 0.00000000	 24.74774064
Pt	 84.79627518	 0.00000000	 27.65923954
Pt	 84.79627518	 0.00000000	 30.57073844
Pt	 84.79627518	 0.00000000	 33.48223734
Pt	 50.74841539	 11.20084029	 -49.49548128
Pt	 50.74841539	 11.20084029	 -46.58398238
Pt	 50.74841539	 11.20084029	 -43.67248348
Pt	 50.74841539	 11.20084029	 -40.76098458
Pt	 50.74841539	 11.20084029	 -37.84948569
Pt	 50.74841539	 11.20084029	 -34.93798679
Pt	 50.74841539	 11.20084029	 -32.02648789
Pt	 50.74841539	 11.20084029	 -29.11498899
Pt	 50.74841539	 11.20084029	 -26.20349009
Pt	 50.74841539	 11.20084029	 -23.29199119
Pt	 50.74841539	 11.20084029	 -20.38049229
Pt	 50.74841539	 11.20084029	 -17.46899339
Pt	 50.74841539	 11.20084029	 -14.55749449
Pt	 50.74841539	 11.20084029	 -11.64599560
Pt	 50.74841539	 11.20084029	 -8.73449670
Pt	 50.74841539	 11.20084029	 -5.82299780
Pt	 50.74841539	 11.20084029	 -2.91149890
Pt	 50.74841539	 11.20084029	 0.00000000
Pt	 50.74841539	 11.20084029	 2.91149890
Pt	 50.74841539	 11.20084029	 5.82299780
Pt	 50.74841539	 11.20084029	 8.73449670
Pt	 50.74841539	 11.20084029	 11.64599560
Pt	 50.74841539	 11.20084029	 14.55749449
Pt	 50.74841539	 11.20084029	 17.46899339
Pt	 50.74841539	 11.20084029	 20.38049229
Pt	 50.74841539	 11.20084029	 23.29199119
Pt	 50.74841539	 11.20084029	 26.20349009
Pt	 50.74841539	 11.20084029	 29.11498899
Pt	 50.74841539	 11.20084029	 32.02648789
Pt	 50.74841539	 11.20084029	 34.93798679
Pt	 50.74841539	 11.20084029	 37.84948569
Pt	 50.74841539	 11.20084029	 40.76098458
Pt	 50.74841539	 11.20084029	 43.67248348
Pt	 50.74841539	 11.20084029	 46.58398238
Pt	 50.74841539	 11.20084029	 49.49548128
Pt	 78.45779364	 2.24016806	 -36.39373624
Pt	 78.45779364	 2.24016806	 -33.48223734
Pt	 78.45779364	 2.24016806	 -30.57073844
Pt	 78.45779364	 2.24016806	 -27.65923954
Pt	 78.45779364	 2.24016806	 -24.74774064
Pt	 78.45779364	 2.24016806	 -21.83624174
Pt	 78.45779364	 2.24016806	 -18.92474284
Pt	 78.45779364	 2.24016806	 -16.01324394
Pt	 78.45779364	 2.24016806	 -13.10174505
Pt	 78.45779364	 2.24016806	 -10.19024615
Pt	 78.45779364	 2.24016806	 -7.27874725
Pt	 78.45779364	 2.24016806	 -4.36724835
Pt	 78.45779364	 2.24016806	 -1.45574945
Pt	 78.45779364	 2.24016806	 1.45574945
Pt	 78.45779364	 2.24016806	 4.36724835
Pt	 78.45779364	 2.24016806	 7.27874725
Pt	 78.45779364	 2.24016806	 10.19024615
Pt	 78.45779364	 2.24016806	 13.10174505
Pt	 78.45779364	 2.24016806	 16.01324394
Pt	 78.45779364	 2.24016806	 18.92474284
Pt	 78.45779364	 2.24016806	 21.83624174
Pt	 78.45779364	 2.24016806	 24.74774064
Pt	 78.45779364	 2.24016806	 27.65923954
Pt	 78.45779364	 2.24016806	 30.57073844
Pt	 78.45779364	 2.24016806	 33.48223734
Pt	 78.45779364	 2.24016806	 36.39373624
Pt	 44.40993385	 13.44100834	 -52.40698018
Pt	 44.40993385	 13.44100834	 -49.49548128
Pt	 44.40993385	 13.44100834	 -46.58398238
Pt	 44.40993385	 13.44100834	 -43.67248348
Pt	 44.40993385	 13.44100834	 -40.76098458
Pt	 44.40993385	 13.44100834	 -37.84948569
Pt	 44.40993385	 13.44100834	 -34.93798679
Pt	 44.40993385	 13.44100834	 -32.02648789
Pt	 44.40993385	 13.44100834	 -29.11498899
Pt	 44.40993385	 13.44100834	 -26.20349009
Pt	 44.40993385	 13.44100834	 -23.29199119
Pt	 44.40993385	 13.44100834	 -20.38049229
Pt	 44.40993385	 13.44100834	 -17.46899339
Pt	 44.40993385	 13.44100834	 -14.55749449
Pt	 44.40993385	 13.44100834	 -11.64599560
Pt	 44.40993385	 13.44100834	 -8.73449670
Pt	 44.40993385	 13.44100834	 -5.82299780
Pt	 44.40993385	 13.44100834	 -2.91149890
Pt	 44.40993385	 13.44100834	 -0.00000000
Pt	 44.40993385	 13.44100834	 2.91149890
Pt	 44.40993385	 13.44100834	 5.82299780
Pt	 44.40993385	 13.44100834	 8.73449670
Pt	 44.40993385	 13.44100834	 11.64599560
Pt	 44.40993385	 13.44100834	 14.55749449
Pt	 44.40993385	 13.44100834	 17.46899339
Pt	 44.40993385	 13.44100834	 20.38049229
Pt	 44.40993385	 13.44100834	 23.29199119
Pt	 44.40993385	 13.44100834	 26.20349009
Pt	 44.40993385	 13.44100834	 29.11498899
Pt	 44.40993385	 13.44100834	 32.02648789
Pt	 44.40993385	 13.44100834	 34.93798679
Pt	 44.40993385	 13.44100834	 37.84948569
Pt	 44.40993385	 13.44100834	 40.76098458
Pt	 44.40993385	 13.44100834	 43.67248348
Pt	 44.40993385	 13.44100834	 46.58398238
Pt	 44.40993385	 13.44100834	 49.49548128
Pt	 44.40993385	 13.44100834	 52.40698018
Pt	 72.11931210	 4.48033611	 -39.30523514
Pt	 72.11931210	 4.48033611	 -36.39373624
Pt	 72.11931210	 4.48033611	 -33.48223734
Pt	 72.11931210	 4.48033611	 -30.57073844
Pt	 72.11931210	 4.48033611	 -27.65923954
Pt	 72.11931210	 4.48033611	 -24.74774064
Pt	 72.11931210	 4.48033611	 -21.83624174
Pt	 72.11931210	 4.48033611	 -18.92474284
Pt	 72.11931210	 4.48033611	 -16.01324394
Pt	 72.11931210	 4.48033611	 -13.10174505
Pt	 72.11931210	 4.48033611	 -10.19024615
Pt	 72.11931210	 4.48033611	 -7.27874725
Pt	 72.11931210	 4.48033611	 -4.36724835
Pt	 72.11931210	 4.48033611	 -1.45574945
Pt	 72.11931210	 4.48033611	 1.45574945
Pt	 72.11931210	 4.48033611	 4.36724835
Pt	 72.11931210	 4.48033611	 7.27874725
Pt	 72.11931210	 4.48033611	 10.19024615
Pt	 72.11931210	 4.48033611	 13.10174505
Pt	 72.11931210	 4.48033611	 16.01324394
Pt	 72.11931210	 4.48033611	 18.92474284
Pt	 72.11931210	 4.48033611	 21.83624174
Pt	 72.11931210	 4.48033611	 24.74774064
Pt	 72.11931210	 4.48033611	 27.65923954
Pt	 72.11931210	 4.48033611	 30.57073844
Pt	 72.11931210	 4.48033611	 33.48223734
Pt	 72.11931210	 4.48033611	 36.39373624
Pt	 72.11931210	 4.48033611	 39.30523514
Pt	 38.07145231	 15.68117640	 -55.31847908
Pt	 38.07145231	 15.68117640	 -52.40698018
Pt	 38.07145231	 15.68117640	 -49.49548128
Pt	 38.07145231	 15.68117640	 -46.58398238
Pt	 38.07145231	 15.68117640	 -43.67248348
Pt	 38.07145231	 15.68117640	 -40.76098458
Pt	 38.07145231	 15.68117640	 -37.84948569
Pt	 38.07145231	 15.68117640	 -34.93798679
Pt	 38.07145231	 15.68117640	 -32.02648789
Pt	 38.07145231	 15.68117640	 -29.11498899
Pt	 38.07145231	 15.68117640	 -26.20349009
Pt	 38.07145231	 15.68117640	 -23.29199119
Pt	 38.07145231	 15.68117640	 -20.38049229
Pt	 38.07145231	 15.68117640	 -17.46899339
Pt	 38.07145231	 15.68117640	 -14.55749449
Pt	 38.07145231	 15.68117640	 -11.64599560
Pt	 38.07145231	 15.68117640	 -8.73449670
Pt	 38.07145231	 15.68117640	 -5.82299780
Pt	 38.07145231	 15.68117640	 -2.91149890
Pt	 38.07145231	 15.68117640	 -0.00000000
Pt	 38.07145231	 15.68117640	 2.91149890
Pt	 38.07145231	 15.68117640	 5.82299780
Pt	 38.07145231	 15.68117640	 8.73449670
Pt	 38.07145231	 15.68117640	 11.64599560
Pt	 38.07145231	 15.68117640	 14.55749449
Pt	 38.07145231	 15.68117640	 17.46899339
Pt	 38.07145231	 15.68117640	 20.38049229
Pt	 38.07145231	 15.68117640	 23.29199119
Pt	 38.07145231	 15.68117640	 26.20349009
Pt	 38.07145231	 15.68117640	 29.11498899
Pt	 38.07145231	 15.68117640	 32.02648789
Pt	 38.07145231	 15.68117640	 34.93798679
Pt	 38.07145231	 15.68117640	 37.84948569
Pt	 38.07145231	 15.68117640	 40.76098458
Pt	 38.07145231	 15.68117640	 43.67248348
Pt	 38.07145231	 15.68117640	 46.58398238
Pt	 38.07145231	 15.68117640	 49.49548128
Pt	 38.07145231	 15.68117640	 52.40698018
Pt	 38.07145231	 15.68117640	 55.31847908
Pt	 65.78083056	 6.72050417	 -42.21673403
Pt	 65.78083056	 6.72050417	 -39.30523514
Pt	 65.78083056	 6.72050417	 -36.39373624
Pt	 65.78083056	 6.72050417	 -33.48223734
Pt	 65.78083056	 6.72050417	 -30.57073844
Pt	 65.78083056	 6.72050417	 -27.65923954
Pt	 65.78083056	 6.72050417	 -24.74774064
Pt	 65.78083056	 6.72050417	 -21.83624174
Pt	 65.78083056	 6.72050417	 -18.92474284
Pt	 65.78083056	 6.72050417	 -16.01324394
Pt	 65.78083056	 6.72050417	 -13.10174505
Pt	 65.78083056	 6.72050417	 -10.19024615
Pt	 65.78083056	 6.72050417	 -7.27874725
Pt	 65.78083056	 6.72050417	 -4.36724835
Pt	 65.78083056	 6.72050417	 -1.45574945
Pt	 65.78083056	 6.72050417	 1.45574945
Pt	 65.78083056	 6.72050417	 4.36724835
Pt	 65.78083056	 6.72050417	 7.27874725
Pt	 65.78083056	 6.72050417	 10.19024615
Pt	 65.78083056	 6.72050417	 13.10174505
Pt	 65.78083056	 6.72050417	 16.01324394
Pt	 65.78083056	 6.72050417	 18.92474284
Pt	 65.78083056	 6.72050417	 21.83624174
Pt	 65.78083056	 6.72050417	 24.74774064
Pt	 65.78083056	 6.72050417	 27.65923954
Pt	 65.78083056	 6.72050417	 30.57073844
Pt	 65.78083056	 6.72050417	 33.48223734
Pt	 65.78083056	 6.72050417	 36.39373624
Pt	 65.78083056	 6.72050417	 39.30523514
Pt	 65.78083056	 6.72050417	 42.21673403
Pt	 31.73297077	 17.92134446	 -58.22997798
Pt	 31.73297077	 17.92134446	 -55.31847908
Pt	 31.73297077	 17.92134446	 -52.40698018
Pt	 31.73297077	 17.92134446	 -49.49548128
Pt	 31.73297077	 17.92134446	 -46.58398238
Pt	 31.73297077	 17.92134446	 -43.67248348
Pt	 31.73297077	 17.92134446	 -40.76098458
Pt	 31.73297077	 17.92134446	 -37.84948569
Pt	 31.73297077	 17.92134446	 -34.93798679
Pt	 31.73297077	 17.92134446	 -32.02648789
Pt	 31.73297077	 17.92134446	 -29.11498899
Pt	 31.73297077	 17.92134446	 -26.20349009
Pt	 31.73297077	 17.92134446	 -23.29199119
Pt	 31.73297077	 17.92134446	 -20.38049229
Pt	 31.73297077	 17.92134446	 -17.46899339
Pt	 31.73297077	 17.92134446	 -14.55749449
Pt	 31.73297077	 17.92134446	 -11.64599560
Pt	 31.73297077	 17.92134446	 -8.73449670
Pt	 31.73297077	 17.92134446	 -5.82299780
Pt	 31.73297077	 17.92134446	 -2.91149890
Pt	 31.73297077	 17.92134446	 -0.00000000
Pt	 31.73297077	 17.92134446	 2.91149890
Pt	 31.73297077	 17.92134446	 5.82299780
Pt	 31.73297077	 17.92134446	 8.73449670
Pt	 31.73297077	 17.92134446	 11.64599560
Pt	 31.73297077	 17.92134446	 14.55749449
Pt	 31.73297077	 17.92134446	 17.46899339
Pt	 31.73297077	 17.92134446	 20.38049229
Pt	 31.73297077	 17.92134446	 23.29199119
Pt	 31.73297077	 17.92134446	 26.20349009
Pt	 31.73297077	 17.92134446	 29.11498899
Pt	 31.73297077	 17.92134446	 32.02648789
Pt	 31.73297077	 17.92134446	 34.93798679
Pt	 31.73297077	 17.92134446	 37.84948569
Pt	 31.73297077	 17.92134446	 40.76098458
Pt	 31.73297077	 17.92134446	 43.67248348
Pt	 31.73297077	 17.92134446	 46.58398238
Pt	 31.73297077	 17.92134446	 49.49548128
Pt	 31.73297077	 17.92134446	 52.40698018
Pt	 31.73297077	 17.92134446	 55.31847908
Pt	 31.73297077	 17.92134446	 58.22997798
Pt	 59.44234902	 8.96067223	 -45.12823293
Pt	 59.44234902	 8.96067223	 -42.21673403
Pt	 59.44234902	 8.96067223	 -39.30523514
Pt	 59.44234902	 8.96067223	 -36.39373624
Pt	 59.44234902	 8.96067223	 -33.48223734
Pt	 59.44234902	 8.96067223	 -30.57073844
Pt	 59.44234902	 8.96067223	 -27.65923954
Pt	 59.44234902	 8.96067223	 -24.74774064
Pt	 59.44234902	 8.96067223	 -21.83624174
Pt	 59.44234902	 8.96067223	 -18.92474284
Pt	 59.44234902	 8.96067223	 -16.01324394
Pt	 59.44234902	 8.96067223	 -13.10174505
Pt	 59.44234902	 8.96067223	 -10.19024615
Pt	 59.44234902	 8.96067223	 -7.27874725
Pt	 59.44234902	 8.96067223	 -4.36724835
Pt	 59.44234902	 8.96067223	 -1.45574945
Pt	 59.44234902	 8.96067223	 1.45574945
Pt	 59.44234902	 8.96067223	 4.36724835
Pt	 59.44234902	 8.96067223	 7.27874725
Pt	 59.44234902	 8.96067223	 10.19024615
Pt	 59.44234902	 8.96067223	 13.10174505
Pt	 59.44234902	 8.96067223	 16.01324394
Pt	 59.44234902	 8.96067223	 18.92474284
Pt	 59.44234902	 8.96067223	 21.83624174
Pt	 59.44234902	 8.96067223	 24.74774064
Pt	 59.44234902	 8.96067223	 27.65923954
Pt	 59.44234902	 8.96067223	 30.57073844
Pt	 59.44234902	 8.96067223	 33.48223734
Pt	 59.44234902	 8.96067223	 36.39373624
Pt	 59.44234902	 8.96067223	 39.30523514
Pt	 59.44234902	 8.96067223	 42.21673403
Pt	 59.44234902	 8.96067223	 45.12823293
Pt	 87.15172727	 0.00000000	 -32.02648789
Pt	 87.15172727	 0.00000000	 -29.11498899
Pt	 87.15172727	 0.00000000	 -26.20349009
Pt	 87.15172727	 0.00000000	 -23.29199119
Pt	 87.15172727	 0.00000000	 -20.38049229
Pt	 87.15172727	 0.00000000	 -17.46899339
Pt	 87.15172727	 0.00000000	 -14.55749449
Pt	 87.15172727	 0.00000000	 -11.64599560
Pt	 87.15172727	 0.00000000	 -8.73449670
Pt	 87.15172727	 0.00000000	 -5.82299780
Pt	 87.15172727	 0.00000000	 -2.91149890
Pt	 87.15172727	 0.00000000	 -0.00000000
Pt	 87.15172727	 0.00000000	 2.91149890
Pt	 87.15172727	 0.00000000	 5.82299780
Pt	 87.15172727	 0.00000000	 8.73449670
Pt	 87.15172727	 0.00000000	 11.64599560
Pt	 87.15172727	 0.00000000	 14.55749449
Pt	 87.15172727	 0.00000000	 17.46899339
Pt	 87.15172727	 0.00000000	 20.38049229
Pt	 87.15172727	 0.00000000	 23.29199119
Pt	 87.15172727	 0.00000000	 26.20349009
Pt	 87.15172727	 0.00000000	 29.11498899
Pt	 87.15172727	 0.00000000	 32.02648789
Pt	 53.10386748	 11.20084029	 -48.03973183
Pt	 53.10386748	 11.20084029	 -45.12823293
Pt	 53.10386748	 11.20084029	 -42.21673403
Pt	 53.10386748	 11.20084029	 -39.30523514
Pt	 53.10386748	 11.20084029	 -36.39373624
Pt	 53.10386748	 11.20084029	 -33.48223734
Pt	 53.10386748	 11.20084029	 -30.57073844
Pt	 53.10386748	 11.20084029	 -27.65923954
Pt	 53.10386748	 11.20084029	 -24.74774064
Pt	 53.10386748	 11.20084029	 -21.83624174
Pt	 53.10386748	 11.20084029	 -18.92474284
Pt	 53.10386748	 11.20084029	 -16.01324394
Pt	 53.10386748	 11.20084029	 -13.10174505
Pt	 53.10386748	 11.20084029	 -10.19024615
Pt	 53.10386748	 11.20084029	 -7.27874725
Pt	 53.10386748	 11.20084029	 -4.36724835
Pt	 53.10386748	 11.20084029	 -1.45574945
Pt	 53.10386748	 11.20084029	 1.45574945
Pt	 53.10386748	 11.20084029	 4.36724835
Pt	 53.10386748	 11.20084029	 7.27874725
Pt	 53.10386748	 11.20084029	 10.19024615
Pt	 53.10386748	 11.20084029	 13.10174505
Pt	 53.10386748	 11.20084029	 16.01324394
Pt	 53.10386748	 11.20084029	 18.92474284
Pt	 53.10386748	 11.20084029	 21.83624174
Pt	 53.10386748	 11.20084029	 24.74774064
Pt	 53.10386748	 11.20084029	 27.65923954
Pt	 53.10386748	 11.20084029	 30.57073844
Pt	 53.10386748	 11.20084029	 33.48223734
Pt	 53.10386748	 11.20084029	 36.39373624
Pt	 53.10386748	 11.20084029	 39.30523514
Pt	 53.10386748	 11.20084029	 42.21673403
Pt	 53.10386748	 11.20084029	 45.12823293
Pt	 53.10386748	 11.20084029	 48.03973183
Pt	 80.81324573	 2.24016806	 -34.93798679
Pt	 80.81324573	 2.24016806	 -32.02648789
Pt	 80.81324573	 2.24016806	 -29.11498899
Pt	 80.81324573	 2.24016806	 -26.20349009
Pt	 80.81324573	 2.24016806	 -23.29199119
Pt	 80.81324573	 2.24016806	 -20.38049229
Pt	 80.81324573	 2.24016806	 -17.46899339
Pt	 80.81324573	 2.24016806	 -14.55749449
Pt	 80.81324573	 2.24016806	 -11.64599560
Pt	 80.81324573	 2.24016806	 -8.73449670
Pt	 80.81324573	 2.24016806	 -5.82299780
Pt	 80.81324573	 2.24016806	 -2.91149890
Pt	 80.81324573	 2.24016806	 0.00000000
Pt	 80.81324573	 2.24016806	 2.91149890
Pt	 80.81324573	 2.24016806	 5.82299780
Pt	 80.81324573	 2.24016806	 8.73449670
Pt	 80.81324573	 2.24016806	 11.64599560
Pt	 80.81324573	 2.24016806	 14.55749449
Pt	 80.81324573	 2.24016806	 17.46899339
Pt	 80.81324573	 2.24016806	 20.38049229
Pt	 80.81324573	 2.24016806	 23.29199119
Pt	 80.81324573	 2.24016806	 26.20349009
Pt	 80.81324573	 2.24016806	 29.11498899
Pt	 80.81324573	 2.24016806	 32.02648789
Pt	 80.81324573	 2.24016806	 34.93798679
Pt	 46.76538594	 13.44100834	 -50.95123073
Pt	 46.76538594	 13.44100834	 -48.03973183
Pt	 46.76538594	 13.44100834	 -45.12823293
Pt	 46.76538594	 13.44100834	 -42.21673403
Pt	 46.76538594	 13.44100834	 -39.30523514
Pt	 46.76538594	 13.44100834	 -36.39373624
Pt	 46.76538594	 13.44100834	 -33.48223734
Pt	 46.76538594	 13.44100834	 -30.57073844
Pt	 46.76538594	 13.44100834	 -27.65923954
Pt	 46.76538594	 13.44100834	 -24.74774064
Pt	 46.76538594	 13.44100834	 -21.83624174
Pt	 46.76538594	 13.44100834	 -18.92474284
Pt	 46.76538594	 13.44100834	 -16.01324394
Pt	 46.76538594	 13.44100834	 -13.10174505
Pt	 46.76538594	 13.44100834	 -10.19024615
Pt	 46.76538594	 13.44100834	 -7.27874725
Pt	 46.76538594	 13.44100834	 -4.36724835
Pt	 46.76538594	 13.44100834	 -1.45574945
Pt	 46.76538594	 13.44100834	 1.45574945
Pt	 46.76538594	 13.44100834	 4.36724835
Pt	 46.76538594	 13.44100834	 7.27874725
Pt	 46.76538594	 13.44100834	 10.19024615
Pt	 46.76538594	 13.44100834	 13.10174505
Pt	 46.76538594	 13.44100834	 16.01324394
Pt	 46.76538594	 13.44100834	 18.92474284
Pt	 46.76538594	 13.44100834	 21.83624174
Pt	 46.76538594	 13.44100834	 24.74774064
Pt	 46.76538594	 13.44100834	 27.65923954
Pt	 46.76538594	 13.44100834	 30.57073844
Pt	 46.76538594	 13.44100834	 33.48223734
Pt	 46.76538594	 13.44100834	 36.39373624
Pt	 46.76538594	 13.44100834	 39.30523514
Pt	 46.76538594	 13.44100834	 42.21673403
Pt	 46.76538594	 13.44100834	 45.12823293
Pt	 46.76538594	 13.44100834	 48.03973183
Pt	 46.76538594	 13.44100834	 50.95123073
Pt	 74.47476419	 4.48033611	 -37.84948569
Pt	 74.47476419	 4.48033611	 -34.93798679
Pt	 74.47476419	 4.48033611	 -32.02648789
Pt	 74.47476419	 4.48033611	 -29.11498899
Pt	 74.47476419	 4.48033611	 -26.20349009
Pt	 74.47476419	 4.48033611	 -23.29199119
Pt	 74.47476419	 4.48033611	 -20.38049229
Pt	 74.47476419	 4.48033611	 -17.46899339
Pt	 74.47476419	 4.48033611	 -14.55749449
Pt	 74.47476419	 4.48033611	 -11.64599560
Pt	 74.47476419	 4.48033611	 -8.73449670
Pt	 74.47476419	 4.48033611	 -5.82299780
Pt	 74.47476419	 4.48033611	 -2.91149890
Pt	 74.47476419	 4.48033611	 -0.00000000
Pt	 74.47476419	 4.48033611	 2.91149890
Pt	 74.47476419	 4.48033611	 5.82299780
Pt	 74.47476419	 4.48033611	 8.73449670
Pt	 74.47476419	 4.48033611	 11.64599560
Pt	 74.47476419	 4.48033611	 14.55749449
Pt	 74.47476419	 4.48033611	 17.46899339
Pt	 74.47476419	 4.48033611	 20.38049229
Pt	 74.47476419	 4.48033611	 23.29199119
Pt	 74.47476419	 4.48033611	 26.20349009
Pt	 74.47476419	 4.48033611	 29.11498899
Pt	 74.47476419	 4.48033611	 32.02648789
Pt	 74.47476419	 4.48033611	 34.93798679
Pt	 74.47476419	 4.48033611	 37.84948569
Pt	 40.42690440	 15.68117640	 -53.86272963
Pt	 40.42690440	 15.68117640	 -50.95123073
Pt	 40.42690440	 15.68117640	 -48.03973183
Pt	 40.42690440	 15.68117640	 -45.12823293
Pt	 40.42690440	 15.68117640	 -42.21673403
Pt	 40.42690440	 15.68117640	 -39.30523514
Pt	 40.42690440	 15.68117640	 -36.39373624
Pt	 40.42690440	 15.68117640	 -33.48223734
Pt	 40.42690440	 15.68117640	 -30.57073844
Pt	 40.42690440	 15.68117640	 -27.65923954
Pt	 40.42690440	 15.68117640	 -24.74774064
Pt	 40.42690440	 15.68117640	 -21.83624174
Pt	 40.42690440	 15.68117640	 -18.92474284
Pt	 40.42690440	 15.68117640	 -16.01324394
Pt	 40.42690440	 15.68117640	 -13.10174505
Pt	 40.42690440	 15.68117640	 -10.19024615
Pt	 40.42690440	 15.68117640	 -7.27874725
Pt	 40.42690440	 15.68117640	 -4.36724835
Pt	 40.42690440	 15.68117640	 -1.45574945
Pt	 40.42690440	 15.68117640	 1.45574945
Pt	 40.42690440	 15.68117640	 4.36724835
Pt	 40.42690440	 15.68117640	 7.27874725
Pt	 40.42690440	 15.68117640	 10.19024615
Pt	 40.42690440	 15.68117640	 13.10174505
Pt	 40.42690440	 15.68117640	 16.01324394
Pt	 40.42690440	 15.68117640	 18.92474284
Pt	 40.42690440	 15.68117640	 21.83624174
Pt	 40.42690440	 15.68117640	 24.74774064
Pt	 40.42690440	 15.68117640	 27.65923954
Pt	 40.42690440	 15.68117640	 30.57073844
Pt	 40.42690440	 15.68117640	 33.48223734
Pt	 40.42690440	 15.68117640	 36.39373624
Pt	 40.42690440	 15.68117640	 39.30523514
Pt	 40.42690440	 15.68117640	 42.21673403
Pt	 40.42690440	 15.68117640	 45.12823293
Pt	 40.42690440	 15.68117640	 48.03973183
Pt	 40.42690440	 15.68117640	 50.95123073
Pt	 40.42690440	 15.68117640	 53.86272963
Pt	 68.13628265	 6.72050417	 -40.76098458
Pt	 68.13628265	 6.72050417	 -37.84948569
Pt	 68.13628265	 6.72050417	 -34.93798679
Pt	 68.13628265	 6.72050417	 -32.02648789
Pt	 68.13628265	 6.72050417	 -29.11498899
Pt	 68.13628265	 6.72050417	 -26.20349009
Pt	 68.13628265	 6.72050417	 -23.29199119
Pt	 68.13628265	 6.72050417	 -20.38049229
Pt	 68.13628265	 6.72050417	 -17.46899339
Pt	 68.13628265	 6.72050417	 -14.55749449
Pt	 68.13628265	 6.72050417	 -11.64599560
Pt	 68.13628265	 6.72050417	 -8.73449670
Pt	 68.13628265	 6.72050417	 -5.82299780
Pt	 68.13628265	 6.72050417	 -2.91149890
Pt	 68.13628265	 6.72050417	 0.00000000
Pt	 68.13628265	 6.72050417	 2.91149890
Pt	 68.13628265	 6.72050417	 5.82299780
Pt	 68.13628265	 6.72050417	 8.73449670
Pt	 68.13628265	 6.72050417	 11.64599560
Pt	 68.13628265	 6.72050417	 14.55749449
Pt	 68.13628265	 6.72050417	 17.46899339
Pt	 68.13628265	 6.72050417	 20.38049229
Pt	 68.13628265	 6.72050417	 23.29199119
Pt	 68.13628265	 6.72050417	 26.20349009
Pt	 68.13628265	 6.72050417	 29.11498899
Pt	 68.13628265	 6.72050417	 32.02648789
Pt	 68.13628265	 6.72050417	 34.93798679
Pt	 68.13628265	 6.72050417	 37.84948569
Pt	 68.13628265	 6.72050417	 40.76098458
Pt	 34.08842286	 17.92134446	 -56.77422853
Pt	 34.08842286	 17.92134446	 -53.86272963
Pt	 34.08842286	 17.92134446	 -50.95123073
Pt	 34.08842286	 17.92134446	 -48.03973183
Pt	 34.08842286	 17.92134446	 -45.12823293
Pt	 34.08842286	 17.92134446	 -42.21673403
Pt	 34.08842286	 17.92134446	 -39.30523514
Pt	 34.08842286	 17.92134446	 -36.39373624
Pt	 34.08842286	 17.92134446	 -33.48223734
Pt	 34.08842286	 17.92134446	 -30.57073844
Pt	 34.08842286	 17.92134446	 -27.65923954
Pt	 34.08842286	 17.92134446	 -24.74774064
Pt	 34.08842286	 17.92134446	 -21.83624174
Pt	 34.08842286	 17.92134446	 -18.92474284
Pt	 34.08842286	 17.92134446	 -16.01324394
Pt	 34.08842286	 17.92134446	 -13.10174505
Pt	 34.08842286	 17.92134446	 -10.19024615
Pt	 34.08842286	 17.92134446	 -7.27874725
Pt	 34.08842286	 17.92134446	 -4.36724835
Pt	 34.08842286	 17.92134446	 -1.45574945
Pt	 34.08842286	 17.92134446	 1.45574945
Pt	 34.08842286	 17.92134446	 4.36724835
Pt	 34.08842286	 17.92134446	 7.27874725
Pt	 34.08842286	 17.92134446	 10.19024615
Pt	 34.08842286	 17.92134446	 13.10174505
Pt	 34.08842286	 17.92134446	 16.01324394
Pt	 34.08842286	 17.92134446	 18.92474284
Pt	 34.08842286	 17.92134446	 21.83624174
Pt	 34.08842286	 17.92134446	 24.74774064
Pt	 34.08842286	 17.92134446	 27.65923954
Pt	 34.08842286	 17.92134446	 30.57073844
Pt	 34.08842286	 17.92134446	 33.48223734
Pt	 34.08842286	 17.92134446	 36.39373624
Pt	 34.08842286	 17.92134446	 39.30523514
Pt	 34.08842286	 17.92134446	 42.21673403
Pt	 34.08842286	 17.92134446	 45.12823293
Pt	 34.08842286	 17.92134446	 48.03973183
Pt	 34.08842286	 17.92134446	 50.95123073
Pt	 34.08842286	 17.92134446	 53.86272963
Pt	 34.08842286	 17.92134446	 56.77422853
Pt	 61.79780111	 8.96067223	 -43.67248348
Pt	 61.79780111	 8.96067223	 -40.76098458
Pt	 61.79780111	 8.96067223	 -37.84948569
Pt	 61.79780111	 8.96067223	 -34.93798679
Pt	 61.79780111	 8.96067223	 -32.02648789
Pt	 61.79780111	 8.96067223	 -29.11498899
Pt	 61.79780111	 8.96067223	 -26.20349009
Pt	 61.79780111	 8.96067223	 -23.29199119
Pt	 61.79780111	 8.96067223	 -20.38049229
Pt	 61.79780111	 8.96067223	 -17.46899339
Pt	 61.79780111	 8.96067223	 -14.55749449
Pt	 61.79780111	 8.96067223	 -11.64599560
Pt	 61.79780111	 8.96067223	 -8.73449670
Pt	 61.79780111	 8.96067223	 -5.82299780
Pt	 61.79780111	 8.96067223	 -2.91149890
Pt	 61.79780111	 8.96067223	 -0.00000000
Pt	 61.79780111	 8.96067223	 2.91149890
Pt	 61.79780111	 8.96067223	 5.82299780
Pt	 61.79780111	 8.96067223	 8.73449670
Pt	 61.79780111	 8.96067223	 11.64599560
Pt	 61.79780111	 8.96067223	 14.55749449
Pt	 61.79780111	 8.96067223	 17.46899339
Pt	 61.79780111	 8.96067223	 20.38049229
Pt	 61.79780111	 8.96067223	 23.29199119
Pt	 61.79780111	 8.96067223	 26.20349009
Pt	 61.79780111	 8.96067223	 29.11498899
Pt	 61.79780111	 8.96067223	 32.02648789
Pt	 61.79780111	 8.96067223	 34.93798679
Pt	 61.79780111	 8.96067223	 37.84948569
Pt	 61.79780111	 8.96067223	 40.76098458
Pt	 61.79780111	 8.96067223	 43.67248348
Pt	 89.50717936	 0.00000000	 -30.57073844
Pt	 89.50717936	 0.00000000	 -27.65923954
Pt	 89.50717936	 0.00000000	 -24.74774064
Pt	 89.50717936	 0.00000000	 -21.83624174
Pt	 89.50717936	 0.00000000	 -18.92474284
Pt	 89.50717936	 0.00000000	 -16.01324394
Pt	 89.50717936	 0.00000000	 -13.10174505
Pt	 89.50717936	 0.00000000	 -10.19024615
Pt	 89.50717936	 0.00000000	 -7.27874725
Pt	 89.50717936	 0.00000000	 -4.36724835
Pt	 89.50717936	 0.00000000	 -1.45574945
Pt	 89.50717936	 0.00000000	 1.45574945
Pt	 89.50717936	 0.00000000	 4.36724835
Pt	 89.50717936	 0.00000000	 7.27874725
Pt	 89.50717936	 0.00000000	 10.19024615
Pt	 89.50717936	 0.00000000	 13.10174505
Pt	 89.50717936	 0.00000000	 16.01324394
Pt	 89.50717936	 0.00000000	 18.92474284
Pt	 89.50717936	 0.00000000	 21.83624174
Pt	 89.50717936	 0.00000000	 24.74774064
Pt	 89.50717936	 0.00000000	 27.65923954
Pt	 89.50717936	 0.00000000	 30.57073844
Pt	 55.45931957	 11.20084029	 -46.58398238
Pt	 55.45931957	 11.20084029	 -43.67248348
Pt	 55.45931957	 11.20084029	 -40.76098458
Pt	 55.45931957	 11.20084029	 -37.84948569
Pt	 55.45931957	 11.20084029	 -34.93798679
Pt	 55.45931957	 11.20084029	 -32.02648789
Pt	 55.45931957	 11.20084029	 -29.11498899
Pt	 55.45931957	 11.20084029	 -26.20349009
Pt	 55.45931957	 11.20084029	 -23.29199119
Pt	 55.45931957	 11.20084029	 -20.38049229
Pt	 55.45931957	 11.20084029	 -17.46899339
Pt	 55.45931957	 11.20084029	 -14.55749449
Pt	 55.45931957	 11.20084029	 -11.64599560
Pt	 55.45931957	 11.20084029	 -8.73449670
Pt	 55.45931957	 11.20084029	 -5.82299780
Pt	 55.45931957	 11.20084029	 -2.91149890
Pt	 55.45931957	 11.20084029	 0.00000000
Pt	 55.45931957	 11.20084029	 2.91149890
Pt	 55.45931957	 11.20084029	 5.82299780
Pt	 55.45931957	 11.20084029	 8.73449670
Pt	 55.45931957	 11.20084029	 11.64599560
Pt	 55.45931957	 11.20084029	 14.55749449
Pt	 55.45931957	 11.20084029	 17.46899339
Pt	 55.45931957	 11.20084029	 20.38049229
Pt	 55.45931957	 11.20084029	 23.29199119
Pt	 55.45931957	 11.20084029	 26.20349009
Pt	 55.45931957	 11.20084029	 29.11498899
Pt	 55.45931957	 11.20084029	 32.02648789
Pt	 55.45931957	 11.20084029	 34.93798679
Pt	 55.45931957	 11.20084029	 37.84948569
Pt	 55.45931957	 11.20084029	 40.76098458
Pt	 55.45931957	 11.20084029	 43.67248348
Pt	 55.45931957	 11.20084029	 46.58398238
Pt	 83.16869782	 2.24016806	 -33.48223734
Pt	 83.16869782	 2.24016806	 -30.57073844
Pt	 83.16869782	 2.24016806	 -27.65923954
Pt	 83.16869782	 2.24016806	 -24.74774064
Pt	 83.16869782	 2.24016806	 -21.83624174
Pt	 83.16869782	 2.24016806	 -18.92474284
Pt	 83.16869782	 2.24016806	 -16.01324394
Pt	 83.16869782	 2.24016806	 -13.10174505
Pt	 83.16869782	 2.24016806	 -10.19024615
Pt	 83.16869782	 2.24016806	 -7.27874725
Pt	 83.16869782	 2.24016806	 -4.36724835
Pt	 83.16869782	 2.24016806	 -1.45574945
Pt	 83.16869782	 2.24016806	 1.45574945
Pt	 83.16869782	 2.24016806	 4.36724835
Pt	 83.16869782	 2.24016806	 7.27874725
Pt	 83.16869782	 2.24016806	 10.19024615
Pt	 83.16869782	 2.24016806	 13.10174505
Pt	 83.16869782	 2.24016806	 16.01324394
Pt	 83.16869782	 2.24016806	 18.92474284
Pt	 83.16869782	 2.24016806	 21.83624174
Pt	 83.16869782	 2.24016806	 24.74774064
Pt	 83.16869782	 2.24016806	 27.65923954
Pt	 83.16869782	 2.24016806	 30.57073844
Pt	 83.16869782	 2.24016806	 33.48223734
Pt	 49.12083803	 13.44100834	 -49.49548128
Pt	 49.12083803	 13.44100834	 -46.58398238
Pt	 49.12083803	 13.44100834	 -43.67248348
Pt	 49.12083803	 13.44100834	 -40.76098458
Pt	 49.12083803	 13.44100834	 -37.84948569
Pt	 49.12083803	 13.44100834	 -34.93798679
Pt	 49.12083803	 13.44100834	 -32.02648789
Pt	 49.12083803	 13.44100834	 -29.11498899
Pt	 49.12083803	 13.44100834	 -26.20349009
Pt	 49.12083803	 13.44100834	 -23.29199119
Pt	 49.12083803	 13.44100834	 -20.38049229
Pt	 49.12083803	 13.44100834	 -17.46899339
Pt	 49.12083803	 13.44100834	 -14.55749449
Pt	 49.12083803	 13.44100834	 -11.64599560
Pt	 49.12083803	 13.44100834	 -8.73449670
Pt	 49.12083803	 13.44100834	 -5.82299780
Pt	 49.12083803	 13.44100834	 -2.91149890
Pt	 49.12083803	 13.44100834	 -0.00000000
Pt	 49.12083803	 13.44100834	 2.91149890
Pt	 49.12083803	 13.44100834	 5.82299780
Pt	 49.12083803	 13.44100834	 8.73449670
Pt	 49.12083803	 13.44100834	 11.64599560
Pt	 49.12083803	 13.44100834	 14.55749449
Pt	 49.12083803	 13.44100834	 17.46899339
Pt	 49.12083803	 13.44100834	 20.38049229
Pt	 49.12083803	 13.44100834	 23.29199119
Pt	 49.12083803	 13.44100834	 26.20349009
Pt	 49.12083803	 13.44100834	 29.11498899
Pt	 49.12083803	 13.44100834	 32.02648789
Pt	 49.12083803	 13.44100834	 34.93798679
Pt	 49.12083803	 13.44100834	 37.84948569
Pt	 49.12083803	 13.44100834	 40.76098458
Pt	 49.12083803	 13.44100834	 43.67248348
Pt	 49.12083803	 13.44100834	 46.58398238
Pt	 49.12083803	 13.44100834	 49.49548128
Pt	 76.83021628	 4.48033611	 -36.39373624
Pt	 76.83021628	 4.48033611	 -33.48223734
Pt	 76.83021628	 4.48033611	 -30.57073844
Pt	 76.83021628	 4.48033611	 -27.65923954
Pt	 76.83021628	 4.48033611	 -24.74774064
Pt	 76.83021628	 4.48033611	 -21.83624174
Pt	 76.83021628	 4.48033611	 -18.92474284
Pt	 76.83021628	 4.48033611	 -16.01324394
Pt	 76.83021628	 4.48033611	 -13.10174505
Pt	 76.83021628	 4.48033611	 -10.19024615
Pt	 76.83021628	 4.48033611	 -7.27874725
Pt	 76.83021628	 4.48033611	 -4.36724835
Pt	 76.83021628	 4.48033611	 -1.45574945
Pt	 76.83021628	 4.48033611	 1.45574945
Pt	 76.83021628	 4.48033611	 4.36724835
Pt	 76.83021628	 4.48033611	 7.27874725
Pt	 76.83021628	 4.48033611	 10.19024615
Pt	 76.83021628	 4.48033611	 13.10174505
Pt	 76.83021628	 4.48033611	 16.01324394
Pt	 76.83021628	 4.48033611	 18.92474284
Pt	 76.83021628	 4.48033611	 21.83624174
Pt	 76.83021628	 4.48033611	 24.74774064
Pt	 76.83021628	 4.48033611	 27.65923954
Pt	 76.83021628	 4.48033611	 30.57073844
Pt	 76.83021628	 4.48033611	 33.48223734
Pt	 76.83021628	 4.48033611	 36.39373624
Pt	 42.78235649	 15.68117640	 -52.40698018
Pt	 42.78235649	 15.68117640	 -49.49548128
Pt	 42.78235649	 15.68117640	 -46.58398238
Pt	 42.78235649	 15.68117640	 -43.67248348
Pt	 42.78235649	 15.68117640	 -40.76098458
Pt	 42.78235649	 15.68117640	 -37.84948569
Pt	 42.78235649	 15.68117640	 -34.93798679
Pt	 42.78235649	 15.68117640	 -32.02648789
Pt	 42.78235649	 15.68117640	 -29.11498899
Pt	 42.78235649	 15.68117640	 -26.20349009
Pt	 42.78235649	 15.68117640	 -23.29199119
Pt	 42.78235649	 15.68117640	 -20.38049229
Pt	 42.78235649	 15.68117640	 -17.46899339
Pt	 42.78235649	 15.68117640	 -14.55749449
Pt	 42.78235649	 15.68117640	 -11.64599560
Pt	 42.78235649	 15.68117640	 -8.73449670
Pt	 42.78235649	 15.68117640	 -5.82299780
Pt	 42.78235649	 15.68117640	 -2.91149890
Pt	 42.78235649	 15.68117640	 -0.00000000
Pt	 42.78235649	 15.68117640	 2.91149890
Pt	 42.78235649	 15.68117640	 5.82299780
Pt	 42.78235649	 15.68117640	 8.73449670
Pt	 42.78235649	 15.68117640	 11.64599560
Pt	 42.78235649	 15.68117640	 14.55749449
Pt	 42.78235649	 15.68117640	 17.46899339
Pt	 42.78235649	 15.68117640	 20.38049229
Pt	 42.78235649	 15.68117640	 23.29199119
Pt	 42.78235649	 15.68117640	 26.20349009
Pt	 42.78235649	 15.68117640	 29.11498899
Pt	 42.78235649	 15.68117640	 32.02648789
Pt	 42.78235649	 15.68117640	 34.93798679
Pt	 42.78235649	 15.68117640	 37.84948569
Pt	 42.78235649	 15.68117640	 40.76098458
Pt	 42.78235649	 15.68117640	 43.67248348
Pt	 42.78235649	 15.68117640	 46.58398238
Pt	 42.78235649	 15.68117640	 49.49548128
Pt	 42.78235649	 15.68117640	 52.40698018
Pt	 70.49173474	 6.72050417	 -39.30523514
Pt	 70.49173474	 6.72050417	 -36.39373624
Pt	 70.49173474	 6.72050417	 -33.48223734
Pt	 70.49173474	 6.72050417	 -30.57073844
Pt	 70.49173474	 6.72050417	 -27.65923954
Pt	 70.49173474	 6.72050417	 -24.74774064
Pt	 70.49173474	 6.72050417	 -21.83624174
Pt	 70.49173474	 6.72050417	 -18.92474284
Pt	 70.49173474	 6.72050417	 -16.01324394
Pt	 70.49173474	 6.72050417	 -13.10174505
Pt	 70.49173474	 6.72050417	 -10.19024615
Pt	 70.49173474	 6.72050417	 -7.27874725
Pt	 70.49173474	 6.72050417	 -4.36724835
Pt	 70.49173474	 6.72050417	 -1.45574945
Pt	 70.49173474	 6.72050417	 1.45574945
Pt	 70.49173474	 6.72050417	 4.36724835
Pt	 70.49173474	 6.72050417	 7.27874725
Pt	 70.49173474	 6.72050417	 10.19024615
Pt	 70.49173474	 6.72050417	 13.10174505
Pt	 70.49173474	 6.72050417	 16.01324394
Pt	 70.49173474	 6.72050417	 18.92474284
Pt	 70.49173474	 6.72050417	 21.83624174
Pt	 70.49173474	 6.72050417	 24.74774064
Pt	 70.49173474	 6.72050417	 27.65923954
Pt	 70.49173474	 6.72050417	 30.57073844
Pt	 70.49173474	 6.72050417	 33.48223734
Pt	 70.49173474	 6.72050417	 36.39373624
Pt	 70.49173474	 6.72050417	 39.30523514
Pt	 36.44387495	 17.92134446	 -55.31847908
Pt	 36.44387495	 17.92134446	 -52.40698018
Pt	 36.44387495	 17.92134446	 -49.49548128
Pt	 36.44387495	 17.92134446	 -46.58398238
Pt	 36.44387495	 17.92134446	 -43.67248348
Pt	 36.44387495	 17.92134446	 -40.76098458
Pt	 36.44387495	 17.92134446	 -37.84948569
Pt	 36.44387495	 17.92134446	 -34.93798679
Pt	 36.44387495	 17.92134446	 -32.02648789
Pt	 36.44387495	 17.92134446	 -29.11498899
Pt	 36.44387495	 17.92134446	 -26.20349009
Pt	 36.44387495	 17.92134446	 -23.29199119
Pt	 36.44387495	 17.92134446	 -20.38049229
Pt	 36.44387495	 17.92134446	 -17.46899339
Pt	 36.44387495	 17.92134446	 -14.55749449
Pt	 36.44387495	 17.92134446	 -11.64599560
Pt	 36.44387495	 17.92134446	 -8.73449670
Pt	 36.44387495	 17.92134446	 -5.82299780
Pt	 36.44387495	 17.92134446	 -2.91149890
Pt	 36.44387495	 17.92134446	 -0.00000000
Pt	 36.44387495	 17.92134446	 2.91149890
Pt	 36.44387495	 17.92134446	 5.82299780
Pt	 36.44387495	 17.92134446	 8.73449670
Pt	 36.44387495	 17.92134446	 11.64599560
Pt	 36.44387495	 17.92134446	 14.55749449
Pt	 36.44387495	 17.92134446	 17.46899339
Pt	 36.44387495	 17.92134446	 20.38049229
Pt	 36.44387495	 17.92134446	 23.29199119
Pt	 36.44387495	 17.92134446	 26.20349009
Pt	 36.44387495	 17.92134446	 29.11498899
Pt	 36.44387495	 17.92134446	 32.02648789
Pt	 36.44387495	 17.92134446	 34.93798679
Pt	 36.44387495	 17.92134446	 37.84948569
Pt	 36.44387495	 17.92134446	 40.76098458
Pt	 36.44387495	 17.92134446	 43.67248348
Pt	 36.44387495	 17.92134446	 46.58398238
Pt	 36.44387495	 17.92134446	 49.49548128
Pt	 36.44387495	 17.92134446	 52.40698018
Pt	 36.44387495	 17.92134446	 55.31847908
Pt	 64.15325320	 8.96067223	 -42.21673403
Pt	 64.15325320	 8.96067223	 -39.30523514
Pt	 64.15325320	 8.96067223	 -36.39373624
Pt	 64.15325320	 8.96067223	 -33.48223734
Pt	 64.15325320	 8.96067223	 -30.57073844
Pt	 64.15325320	 8.96067223	 -27.65923954
Pt	 64.15325320	 8.96067223	 -24.74774064
Pt	 64.15325320	 8.96067223	 -21.83624174
Pt	 64.15325320	 8.96067223	 -18.92474284
Pt	 64.15325320	 8.96067223	 -16.01324394
Pt	 64.15325320	 8.96067223	 -13.10174505
Pt	 64.15325320	 8.96067223	 -10.19024615
Pt	 64.15325320	 8.96067223	 -7.27874725
Pt	 64.15325320	 8.96067223	 -4.36724835
Pt	 64.15325320	 8.96067223	 -1.45574945
Pt	 64.15325320	 8.96067223	 1.45574945
Pt	 64.15325320	 8.96067223	 4.36724835
Pt	 64.15325320	 8.96067223	 7.27874725
Pt	 64.15325320	 8.96067223	 10.19024615
Pt	 64.15325320	 8.96067223	 13.10174505
Pt	 64.15325320	 8.96067223	 16.01324394
Pt	 64.15325320	 8.96067223	 18.92474284
Pt	 64.15325320	 8.96067223	 21.83624174
Pt	 64.15325320	 8.96067223	 24.74774064
Pt	 64.15325320	 8.96067223	 27.65923954
Pt	 64.15325320	 8.96067223	 30.57073844
Pt	 64.15325320	 8.96067223	 33.48223734
Pt	 64.15325320	 8.96067223	 36.39373624
Pt	 64.15325320	 8.96067223	 39.30523514
Pt	 64.15325320	 8.96067223	 42.21673403
Pt	 91.86263144	 0.00000000	 -29.11498899
Pt	 91.86263144	 0.00000000	 -26.20349009
Pt	 91.86263144	 0.00000000	 -23.29199119
Pt	 91.86263144	 0.00000000	 -20.38049229
Pt	 91.86263144	 0.00000000	 -17.46899339
Pt	 91.86263144	 0.00000000	 -14.55749449
Pt	 91.86263144	 0.00000000	 -11.64599560
Pt	 91.86263144	 0.00000000	 -8.73449670
Pt	 91.86263144	 0.00000000	 -5.82299780
Pt	 91.86263144	 0.00000000	 -2.91149890
Pt	 91.86263144	 0.00000000	 -0.00000000
Pt	 91.86263144	 0.00000000	 2.91149890
Pt	 91.86263144	 0.00000000	 5.82299780
Pt	 91.86263144	 0.00000000	 8.73449670
Pt	 91.86263144	 0.00000000	 11.64599560
Pt	 91.86263144	 0.00000000	 14.55749449
Pt	 91.86263144	 0.00000000	 17.46899339
Pt	 91.86263144	 0.00000000	 20.38049229
Pt	 91.86263144	 0.00000000	 23.29199119
Pt	 91.86263144	 0.00000000	 26.20349009
Pt	 91.86263144	 0.00000000	 29.11498899
Pt	 57.81477166	 11.20084029	 -45.12823293
Pt	 57.81477166	 11.20084029	 -42.21673403
Pt	 57.81477166	 11.20084029	 -39.30523514
Pt	 57.81477166	 11.20084029	 -36.39373624
Pt	 57.81477166	 11.20084029	 -33.48223734
Pt	 57.81477166	 11.20084029	 -30.57073844
Pt	 57.81477166	 11.20084029	 -27.65923954
Pt	 57.81477166	 11.20084029	 -24.74774064
Pt	 57.81477166	 11.20084029	 -21.83624174
Pt	 57.81477166	 11.20084029	 -18.92474284
Pt	 57.81477166	 11.20084029	 -16.01324394
Pt	 57.81477166	 11.20084029	 -13.10174505
Pt	 57.81477166	 11.20084029	 -10.19024615
Pt	 57.81477166	 11.20084029	 -7.27874725
Pt	 57.81477166	 11.20084029	 -4.36724835
Pt	 57.81477166	 11.20084029	 -1.45574945
Pt	 57.81477166	 11.20084029	 1.45574945
Pt	 57.81477166	 11.20084029	 4.36724835
Pt	 57.81477166	 11.20084029	 7.27874725
Pt	 57.81477166	 11.20084029	 10.19024615
Pt	 57.81477166	 11.20084029	 13.10174505
Pt	 57.81477166	 11.20084029	 16.01324394
Pt	 57.81477166	 11.20084029	 18.92474284
Pt	 57.81477166	 11.20084029	 21.83624174
Pt	 57.81477166	 11.20084029	 24.74774064
Pt	 57.81477166	 11.20084029	 27.65923954
Pt	 57.81477166	 11.20084029	 30.57073844
Pt	 57.81477166	 11.20084029	 33.48223734
Pt	 57.81477166	 11.20084029	 36.39373624
Pt	 57.81477166	 11.20084029	 39.30523514
Pt	 57.81477166	 11.20084029	 42.21673403
Pt	 57.81477166	 11.20084029	 45.12823293
Pt	 85.52414990	 2.24016806	 -32.02648789
Pt	 85.52414990	 2.24016806	 -29.11498899
Pt	 85.52414990	 2.24016806	 -26.20349009
Pt	 85.52414990	 2.24016806	 -23.29199119
Pt	 85.52414990	 2.24016806	 -20.38049229
Pt	 85.52414990	 2.24016806	 -17.46899339
Pt	 85.52414990	 2.24016806	 -14.55749449
Pt	 85.52414990	 2.24016806	 -11.64599560
Pt	 85.52414990	 2.24016806	 -8.73449670
Pt	 85.52414990	 2.24016806	 -5.82299780
Pt	 85.52414990	 2.24016806	 -2.91149890
Pt	 85.52414990	 2.24016806	 -0.00000000
Pt	 85.52414990	 2.24016806	 2.91149890
Pt	 85.52414990	 2.24016806	 5.82299780
Pt	 85.52414990	 2.24016806	 8.73449670
Pt	 85.52414990	 2.24016806	 11.64599560
Pt	 85.52414990	 2.24016806	 14.55749449
Pt	 85.52414990	 2.24016806	 17.46899339
Pt	 85.52414990	 2.24016806	 20.38049229
Pt	 85.52414990	 2.24016806	 23.29199119
Pt	 85.52414990	 2.24016806	 26.20349009
Pt	 85.52414990	 2.24016806	 29.11498899
Pt	 85.52414990	 2.24016806	 32.02648789
Pt	 51.47629011	 13.44100834	 -48.03973183
Pt	 51.47629011	 13.44100834	 -45.12823293
Pt	 51.47629011	 13.44100834	 -42.21673403
Pt	 51.47629011	 13.44100834	 -39.30523514
Pt	 51.47629011	 13.44100834	 -36.39373624
Pt	 51.47629011	 13.44100834	 -33.48223734
Pt	 51.47629011	 13.44100834	 -30.57073844
Pt	 51.47629011	 13.44100834	 -27.65923954
Pt	 51.47629011	 13.44100834	 -24.74774064
Pt	 51.47629011	 13.44100834	 -21.83624174
Pt	 51.47629011	 13.44100834	 -18.92474284
Pt	 51.47629011	 13.44100834	 -16.01324394
Pt	 51.47629011	 13.44100834	 -13.10174505
Pt	 51.47629011	 13.44100834	 -10.19024615
Pt	 51.47629011	 13.44100834	 -7.27874725
Pt	 51.47629011	 13.44100834	 -4.36724835
Pt	 51.47629011	 13.44100834	 -1.45574945
Pt	 51.47629011	 13.44100834	 1.45574945
Pt	 51.47629011	 13.44100834	 4.36724835
Pt	 51.47629011	 13.44100834	 7.27874725
Pt	 51.47629011	 13.44100834	 10.19024615
Pt	 51.47629011	 13.44100834	 13.10174505
Pt	 51.47629011	 13.44100834	 16.01324394
Pt	 51.47629011	 13.44100834	 18.92474284
Pt	 51.47629011	 13.44100834	 21.83624174
Pt	 51.47629011	 13.44100834	 24.74774064
Pt	 51.47629011	 13.44100834	 27.65923954
Pt	 51.47629011	 13.44100834	 30.57073844
Pt	 51.47629011	 13.44100834	 33.48223734
Pt	 51.47629011	 13.44100834	 36.39373624
Pt	 51.47629011	 13.44100834	 39.30523514
Pt	 51.47629011	 13.44100834	 42.21673403
Pt	 51.47629011	 13.44100834	 45.12823293
Pt	 51.47629011	 13.44100834	 48.03973183
Pt	 79.18566836	 4.48033611	 -34.93798679
Pt	 79.18566836	 4.48033611	 -32.02648789
Pt	 79.18566836	 4.48033611	 -29.11498899
Pt	 79.18566836	 4.48033611	 -26.20349009
Pt	 79.18566836	 4.48033611	 -23.29199119
Pt	 79.18566836	 4.48033611	 -20.38049229
Pt	 79.18566836	 4.48033611	 -17.46899339
Pt	 79.18566836	 4.48033611	 -14.55749449
Pt	 79.18566836	 4.48033611	 -11.64599560
Pt	 79.18566836	 4.48033611	 -8.73449670
Pt	 79.18566836	 4.48033611	 -5.82299780
Pt	 79.18566836	 4.48033611	 -2.91149890
Pt	 79.18566836	 4.48033611	 0.00000000
Pt	 79.18566836	 4.48033611	 2.91149890
Pt	 79.18566836	 4.48033611	 5.82299780
Pt	 79.18566836	 4.48033611	 8.73449670
Pt	 79.18566836	 4.48033611	 11.64599560
Pt	 79.18566836	 4.48033611	 14.55749449
Pt	 79.18566836	 4.48033611	 17.46899339
Pt	 79.18566836	 4.48033611	 20.38049229
Pt	 79.18566836	 4.48033611	 23.29199119
Pt	 79.18566836	 4.48033611	 26.20349009
Pt	 79.18566836	 4.48033611	 29.11498899
Pt	 79.18566836	 4.48033611	 32.02648789
Pt	 79.18566836	 4.48033611	 34.93798679
Pt	 45.13780857	 15.68117640	 -50.95123073
Pt	 45.13780857	 15.68117640	 -48.03973183
Pt	 45.13780857	 15.68117640	 -45.12823293
Pt	 45.13780857	 15.68117640	 -42.21673403
Pt	 45.13780857	 15.68117640	 -39.30523514
Pt	 45.13780857	 15.68117640	 -36.39373624
Pt	 45.13780857	 15.68117640	 -33.48223734
Pt	 45.13780857	 15.68117640	 -30.57073844
Pt	 45.13780857	 15.68117640	 -27.65923954
Pt	 45.13780857	 15.68117640	 -24.74774064
Pt	 45.13780857	 15.68117640	 -21.83624174
Pt	 45.13780857	 15.68117640	 -18.92474284
Pt	 45.13780857	 15.68117640	 -16.01324394
Pt	 45.13780857	 15.68117640	 -13.10174505
Pt	 45.13780857	 15.68117640	 -10.19024615
Pt	 45.13780857	 15.68117640	 -7.27874725
Pt	 45.13780857	 15.68117640	 -4.36724835
Pt	 45.13780857	 15.68117640	 -1.45574945
Pt	 45.13780857	 15.68117640	 1.45574945
Pt	 45.13780857	 15.68117640	 4.36724835
Pt	 45.13780857	 15.68117640	 7.27874725
Pt	 45.13780857	 15.68117640	 10.19024615
Pt	 45.13780857	 15.68117640	 13.10174505
Pt	 45.13780857	 15.68117640	 16.01324394
Pt	 45.13780857	 15.68117640	 18.92474284
Pt	 45.13780857	 15.68117640	 21.83624174
Pt	 45.13780857	 15.68117640	 24.74774064
Pt	 45.13780857	 15.68117640	 27.65923954
Pt	 45.13780857	 15.68117640	 30.57073844
Pt	 45.13780857	 15.68117640	 33.48223734
Pt	 45.13780857	 15.68117640	 36.39373624
Pt	 45.13780857	 15.68117640	 39.30523514
Pt	 45.13780857	 15.68117640	 42.21673403
Pt	 45.13780857	 15.68117640	 45.12823293
Pt	 45.13780857	 15.68117640	 48.03973183
Pt	 45.13780857	 15.68117640	 50.95123073
Pt	 72.84718682	 6.72050417	 -37.84948569
Pt	 72.84718682	 6.72050417	 -34.93798679
Pt	 72.84718682	 6.72050417	 -32.02648789
Pt	 72.84718682	 6.72050417	 -29.11498899
Pt	 72.84718682	 6.72050417	 -26.20349009
Pt	 72.84718682	 6.72050417	 -23.29199119
Pt	 72.84718682	 6.72050417	 -20.38049229
Pt	 72.84718682	 6.72050417	 -17.46899339
Pt	 72.84718682	 6.72050417	 -14.55749449
Pt	 72.84718682	 6.72050417	 -11.64599560
Pt	 72.84718682	 6.72050417	 -8.73449670
Pt	 72.84718682	 6.72050417	 -5.82299780
Pt	 72.84718682	 6.72050417	 -2.91149890
Pt	 72.84718682	 6.72050417	 0.00000000
Pt	 72.84718682	 6.72050417	 2.91149890
Pt	 72.84718682	 6.72050417	 5.82299780
Pt	 72.84718682	 6.72050417	 8.73449670
Pt	 72.84718682	 6.72050417	 11.64599560
Pt	 72.84718682	 6.72050417	 14.55749449
Pt	 72.84718682	 6.72050417	 17.46899339
Pt	 72.84718682	 6.72050417	 20.38049229
Pt	 72.84718682	 6.72050417	 23.29199119
Pt	 72.84718682	 6.72050417	 26.20349009
Pt	 72.84718682	 6.72050417	 29.11498899
Pt	 72.84718682	 6.72050417	 32.02648789
Pt	 72.84718682	 6.72050417	 34.93798679
Pt	 72.84718682	 6.72050417	 37.84948569
Pt	 38.79932703	 17.92134446	 -53.86272963
Pt	 38.79932703	 17.92134446	 -50.95123073
Pt	 38.79932703	 17.92134446	 -48.03973183
Pt	 38.79932703	 17.92134446	 -45.12823293
Pt	 38.79932703	 17.92134446	 -42.21673403
Pt	 38.79932703	 17.92134446	 -39.30523514
Pt	 38.79932703	 17.92134446	 -36.39373624
Pt	 38.79932703	 17.92134446	 -33.48223734
Pt	 38.79932703	 17.92134446	 -30.57073844
Pt	 38.79932703	 17.92134446	 -27.65923954
Pt	 38.79932703	 17.92134446	 -24.74774064
Pt	 38.79932703	 17.92134446	 -21.83624174
Pt	 38.79932703	 17.92134446	 -18.92474284
Pt	 38.79932703	 17.92134446	 -16.01324394
Pt	 38.79932703	 17.92134446	 -13.10174505
Pt	 38.79932703	 17.92134446	 -10.19024615
Pt	 38.79932703	 17.92134446	 -7.27874725
Pt	 38.79932703	 17.92134446	 -4.36724835
Pt	 38.79932703	 17.92134446	 -1.45574945
Pt	 38.79932703	 17.92134446	 1.45574945
Pt	 38.79932703	 17.92134446	 4.36724835
Pt	 38.79932703	 17.92134446	 7.27874725
Pt	 38.79932703	 17.92134446	 10.19024615
Pt	 38.79932703	 17.92134446	 13.10174505
Pt	 38.79932703	 17.92134446	 16.01324394
Pt	 38.79932703	 17.92134446	 18.92474284
Pt	 38.79932703	 17.92134446	 21.83624174
Pt	 38.79932703	 17.92134446	 24.74774064
Pt	 38.79932703	 17.92134446	 27.65923954
Pt	 38.79932703	 17.92134446	 30.57073844
Pt	 38.79932703	 17.92134446	 33.48223734
Pt	 38.79932703	 17.92134446	 36.39373624
Pt	 38.79932703	 17.92134446	 39.30523514
Pt	 38.79932703	 17.92134446	 42.21673403
Pt	 38.79932703	 17.92134446	 45.12823293
Pt	 38.79932703	 17.92134446	 48.03973183
Pt	 38.79932703	 17.92134446	 50.95123073
Pt	 38.79932703	 17.92134446	 53.86272963
Pt	 66.50870528	 8.96067223	 -40.76098458
Pt	 66.50870528	 8.96067223	 -37.84948569
Pt	 66.50870528	 8.96067223	 -34.93798679
Pt	 66.50870528	 8.96067223	 -32.02648789
Pt	 66.50870528	 8.96067223	 -29.11498899
Pt	 66.50870528	 8.96067223	 -26.20349009
Pt	 66.50870528	 8.96067223	 -23.29199119
Pt	 66.50870528	 8.96067223	 -20.38049229
Pt	 66.50870528	 8.96067223	 -17.46899339
Pt	 66.50870528	 8.96067223	 -14.55749449
Pt	 66.50870528	 8.96067223	 -11.64599560
Pt	 66.50870528	 8.96067223	 -8.73449670
Pt	 66.50870528	 8.96067223	 -5.82299780
Pt	 66.50870528	 8.96067223	 -2.91149890
Pt	 66.50870528	 8.96067223	 -0.00000000
Pt	 66.50870528	 8.96067223	 2.91149890
Pt	 66.50870528	 8.96067223	 5.82299780
Pt	 66.50870528	 8.96067223	 8.73449670
Pt	 66.50870528	 8.96067223	 11.64599560
Pt	 66.50870528	 8.96067223	 14.55749449
Pt	 66.50870528	 8.96067223	 17.46899339
Pt	 66.50870528	 8.96067223	 20.38049229
Pt	 66.50870528	 8.96067223	 23.29199119
Pt	 66.50870528	 8.96067223	 26.20349009
Pt	 66.50870528	 8.96067223	 29.11498899
Pt	 66.50870528	 8.96067223	 32.02648789
Pt	 66.50870528	 8.96067223	 34.93798679
Pt	 66.50870528	 8.96067223	 37.84948569
Pt	 66.50870528	 8.96067223	 40.76098458
Pt	 94.21808353	 0.00000000	 -27.65923954
Pt	 94.21808353	 0.00000000	 -24.74774064
Pt	 94.21808353	 0.00000000	 -21.83624174
Pt	 94.21808353	 0.00000000	 -18.92474284
Pt	 94.21808353	 0.00000000	 -16.01324394
Pt	 94.21808353	 0.00000000	 -13.10174505
Pt	 94.21808353	 0.00000000	 -10.19024615
Pt	 94.21808353	 0.00000000	 -7.27874725
Pt	 94.21808353	 0.00000000	 -4.36724835
Pt	 94.21808353	 0.00000000	 -1.45574945
Pt	 94.21808353	 0.00000000	 1.45574945
Pt	 94.21808353	 0.00000000	 4.36724835
Pt	 94.21808353	 0.00000000	 7.27874725
Pt	 94.21808353	 0.00000000	 10.19024615
Pt	 94.21808353	 0.00000000	 13.10174505
Pt	 94.21808353	 0.00000000	 16.01324394
Pt	 94.21808353	 0.00000000	 18.92474284
Pt	 94.21808353	 0.00000000	 21.83624174
Pt	 94.21808353	 0.00000000	 24.74774064
Pt	 94.21808353	 0.00000000	 27.65923954
Pt	 60.17022374	 11.20084029	 -43.67248348
Pt	 60.17022374	 11.20084029	 -40.76098458
Pt	 60.17022374	 11.20084029	 -37.84948569
Pt	 60.17022374	 11.20084029	 -34.93798679
Pt	 60.17022374	 11.20084029	 -32.02648789
Pt	 60.17022374	 11.20084029	 -29.11498899
Pt	 60.17022374	 11.20084029	 -26.20349009
Pt	 60.17022374	 11.20084029	 -23.29199119
Pt	 60.17022374	 11.20084029	 -20.38049229
Pt	 60.17022374	 11.20084029	 -17.46899339
Pt	 60.17022374	 11.20084029	 -14.55749449
Pt	 60.17022374	 11.20084029	 -11.64599560
Pt	 60.17022374	 11.20084029	 -8.73449670
Pt	 60.17022374	 11.20084029	 -5.82299780
Pt	 60.17022374	 11.20084029	 -2.91149890
Pt	 60.17022374	 11.20084029	 -0.00000000
Pt	 60.17022374	 11.20084029	 2.91149890
Pt	 60.17022374	 11.20084029	 5.82299780
Pt	 60.17022374	 11.20084029	 8.73449670
Pt	 60.17022374	 11.20084029	 11.64599560
Pt	 60.17022374	 11.20084029	 14.55749449
Pt	 60.17022374	 11.20084029	 17.46899339
Pt	 60.17022374	 11.20084029	 20.38049229
Pt	 60.17022374	 11.20084029	 23.29199119
Pt	 60.17022374	 11.20084029	 26.20349009
Pt	 60.17022374	 11.20084029	 29.11498899
Pt	 60.17022374	 11.20084029	 32.02648789
Pt	 60.17022374	 11.20084029	 34.93798679
Pt	 60.17022374	 11.20084029	 37.84948569
Pt	 60.17022374	 11.20084029	 40.76098458
Pt	 60.17022374	 11.20084029	 43.67248348
Pt	 87.87960199	 2.24016806	 -30.57073844
Pt	 87.87960199	 2.24016806	 -27.65923954
Pt	 87.87960199	 2.24016806	 -24.74774064
Pt	 87.87960199	 2.24016806	 -21.83624174
Pt	 87.87960199	 2.24016806	 -18.92474284
Pt	 87.87960199	 2.24016806	 -16.01324394
Pt	 87.87960199	 2.24016806	 -13.10174505
Pt	 87.87960199	 2.24016806	 -10.19024615
Pt	 87.87960199	 2.24016806	 -7.27874725
Pt	 87.87960199	 2.24016806	 -4.36724835
Pt	 87.87960199	 2.24016806	 -1.45574945
Pt	 87.87960199	 2.24016806	 1.45574945
Pt	 87.87960199	 2.24016806	 4.36724835
Pt	 87.87960199	 2.24016806	 7.27874725
Pt	 87.87960199	 2.24016806	 10.19024615
Pt	 87.87960199	 2.24016806	 13.10174505
Pt	 87.87960199	 2.24016806	 16.01324394
Pt	 87.87960199	 2.24016806	 18.92474284
Pt	 87.87960199	 2.24016806	 21.83624174
Pt	 87.87960199	 2.24016806	 24.74774064
Pt	 87.87960199	 2.24016806	 27.65923954
Pt	 87.87960199	 2.24016806	 30.57073844
Pt	 53.83174220	 13.44100834	 -46.58398238
Pt	 53.83174220	 13.44100834	 -43.67248348
Pt	 53.83174220	 13.44100834	 -40.76098458
Pt	 53.83174220	 13.44100834	 -37.84948569
Pt	 53.83174220	 13.44100834	 -34.93798679
Pt	 53.83174220	 13.44100834	 -32.02648789
Pt	 53.83174220	 13.44100834	 -29.11498899
Pt	 53.83174220	 13.44100834	 -26.20349009
Pt	 53.83174220	 13.44100834	 -23.29199119
Pt	 53.83174220	 13.44100834	 -20.38049229
Pt	 53.83174220	 13.44100834	 -17.46899339
Pt	 53.83174220	 13.44100834	 -14.55749449
Pt	 53.83174220	 13.44100834	 -11.64599560
Pt	 53.83174220	 13.44100834	 -8.73449670
Pt	 53.83174220	 13.44100834	 -5.82299780
Pt	 53.83174220	 13.44100834	 -2.91149890
Pt	 53.83174220	 13.44100834	 -0.00000000
Pt	 53.83174220	 13.44100834	 2.91149890
Pt	 53.83174220	 13.44100834	 5.82299780
Pt	 53.83174220	 13.44100834	 8.73449670
Pt	 53.83174220	 13.44100834	 11.64599560
Pt	 53.83174220	 13.44100834	 14.55749449
Pt	 53.83174220	 13.44100834	 17.46899339
Pt	 53.83174220	 13.44100834	 20.38049229
Pt	 53.83174220	 13.44100834	 23.29199119
Pt	 53.83174220	 13.44100834	 26.20349009
Pt	 53.83174220	 13.44100834	 29.11498899
Pt	 53.83174220	 13.44100834	 32.02648789
Pt	 53.83174220	 13.44100834	 34.93798679
Pt	 53.83174220	 13.44100834	 37.84948569
Pt	 53.83174220	 13.44100834	 40.76098458
Pt	 53.83174220	 13.44100834	 43.67248348
Pt	 53.83174220	 13.44100834	 46.58398238
Pt	 81.54112045	 4.48033611	 -33.48223734
Pt	 81.54112045	 4.48033611	 -30.57073844
Pt	 81.54112045	 4.48033611	 -27.65923954
Pt	 81.54112045	 4.48033611	 -24.74774064
Pt	 81.54112045	 4.48033611	 -21.83624174
Pt	 81.54112045	 4.48033611	 -18.92474284
Pt	 81.54112045	 4.48033611	 -16.01324394
Pt	 81.54112045	 4.48033611	 -13.10174505
Pt	 81.54112045	 4.48033611	 -10.19024615
Pt	 81.54112045	 4.48033611	 -7.27874725
Pt	 81.54112045	 4.48033611	 -4.36724835
Pt	 81.54112045	 4.48033611	 -1.45574945
Pt	 81.54112045	 4.48033611	 1.45574945
Pt	 81.54112045	 4.48033611	 4.36724835
Pt	 81.54112045	 4.48033611	 7.27874725
Pt	 81.54112045	 4.48033611	 10.19024615
Pt	 81.54112045	 4.48033611	 13.10174505
Pt	 81.54112045	 4.48033611	 16.01324394
Pt	 81.54112045	 4.48033611	 18.92474284
Pt	 81.54112045	 4.48033611	 21.83624174
Pt	 81.54112045	 4.48033611	 24.74774064
Pt	 81.54112045	 4.48033611	 27.65923954
Pt	 81.54112045	 4.48033611	 30.57073844
Pt	 81.54112045	 4.48033611	 33.48223734
Pt	 47.49326066	 15.68117640	 -49.49548128
Pt	 47.49326066	 15.68117640	 -46.58398238
Pt	 47.49326066	 15.68117640	 -43.67248348
Pt	 47.49326066	 15.68117640	 -40.76098458
Pt	 47.49326066	 15.68117640	 -37.84948569
Pt	 47.49326066	 15.68117640	 -34.93798679
Pt	 47.49326066	 15.68117640	 -32.02648789
Pt	 47.49326066	 15.68117640	 -29.11498899
Pt	 47.49326066	 15.68117640	 -26.20349009
Pt	 47.49326066	 15.68117640	 -23.29199119
Pt	 47.49326066	 15.68117640	 -20.38049229
Pt	 47.49326066	 15.68117640	 -17.46899339
Pt	 47.49326066	 15.68117640	 -14.55749449
Pt	 47.49326066	 15.68117640	 -11.64599560
Pt	 47.49326066	 15.68117640	 -8.73449670
Pt	 47.49326066	 15.68117640	 -5.82299780
Pt	 47.49326066	 15.68117640	 -2.91149890
Pt	 47.49326066	 15.68117640	 -0.00000000
Pt	 47.49326066	 15.68117640	 2.91149890
Pt	 47.49326066	 15.68117640	 5.82299780
Pt	 47.49326066	 15.68117640	 8.73449670
Pt	 47.49326066	 15.68117640	 11.64599560
Pt	 47.49326066	 15.68117640	 14.55749449
Pt	 47.49326066	 15.68117640	 17.46899339
Pt	 47.49326066	 15.68117640	 20.38049229
Pt	 47.49326066	 15.68117640	 23.29199119
Pt	 47.49326066	 15.68117640	 26.20349009
Pt	 47.49326066	 15.68117640	 29.11498899
Pt	 47.49326066	 15.68117640	 32.02648789
Pt	 47.49326066	 15.68117640	 34.93798679
Pt	 47.49326066	 15.68117640	 37.84948569
Pt	 47.49326066	 15.68117640	 40.76098458
Pt	 47.49326066	 15.68117640	 43.67248348
Pt	 47.49326066	 15.68117640	 46.58398238
Pt	 47.49326066	 15.68117640	 49.49548128
Pt	 75.20263891	 6.72050417	 -36.39373624
Pt	 75.20263891	 6.72050417	 -33.48223734
Pt	 75.20263891	 6.72050417	 -30.57073844
Pt	 75.20263891	 6.72050417	 -27.65923954
Pt	 75.20263891	 6.72050417	 -24.74774064
Pt	 75.20263891	 6.72050417	 -21.83624174
Pt	 75.20263891	 6.72050417	 -18.92474284
Pt	 75.20263891	 6.72050417	 -16.01324394
Pt	 75.20263891	 6.72050417	 -13.10174505
Pt	 75.20263891	 6.72050417	 -10.19024615
Pt	 75.20263891	 6.72050417	 -7.27874725
Pt	 75.20263891	 6.72050417	 -4.36724835
Pt	 75.20263891	 6.72050417	 -1.45574945
Pt	 75.20263891	 6.72050417	 1.45574945
Pt	 75.20263891	 6.72050417	 4.36724835
Pt	 75.20263891	 6.72050417	 7.27874725
Pt	 75.20263891	 6.72050417	 10.19024615
Pt	 75.20263891	 6.72050417	 13.10174505
Pt	 75.20263891	 6.72050417	 16.01324394
Pt	 75.20263891	 6.72050417	 18.92474284
Pt	 75.20263891	 6.72050417	 21.83624174
Pt	 75.20263891	 6.72050417	 24.74774064
Pt	 75.20263891	 6.72050417	 27.65923954
Pt	 75.20263891	 6.72050417	 30.57073844
Pt	 75.20263891	 6.72050417	 33.48223734
Pt	 75.20263891	 6.72050417	 36.39373624
Pt	 41.15477912	 17.92134446	 -52.40698018
Pt	 41.15477912	 17.92134446	 -49.49548128
Pt	 41.15477912	 17.92134446	 -46.58398238
Pt	 41.15477912	 17.92134446	 -43.67248348
Pt	 41.15477912	 17.92134446	 -40.76098458
Pt	 41.15477912	 17.92134446	 -37.84948569
Pt	 41.15477912	 17.92134446	 -34.93798679
Pt	 41.15477912	 17.92134446	 -32.02648789
Pt	 41.15477912	 17.92134446	 -29.11498899
Pt	 41.15477912	 17.92134446	 -26.20349009
Pt	 41.15477912	 17.92134446	 -23.29199119
Pt	 41.15477912	 17.92134446	 -20.38049229
Pt	 41.15477912	 17.92134446	 -17.46899339
Pt	 41.15477912	 17.92134446	 -14.55749449
Pt	 41.15477912	 17.92134446	 -11.64599560
Pt	 41.15477912	 17.92134446	 -8.73449670
Pt	 41.15477912	 17.92134446	 -5.82299780
Pt	 41.15477912	 17.92134446	 -2.91149890
Pt	 41.15477912	 17.92134446	 -0.00000000
Pt	 41.15477912	 17.92134446	 2.91149890
Pt	 41.15477912	 17.92134446	 5.82299780
Pt	 41.15477912	 17.92134446	 8.73449670
Pt	 41.15477912	 17.92134446	 11.64599560
Pt	 41.15477912	 17.92134446	 14.55749449
Pt	 41.15477912	 17.92134446	 17.46899339
Pt	 41.15477912	 17.92134446	 20.38049229
Pt	 41.15477912	 17.92134446	 23.29199119
Pt	 41.15477912	 17.92134446	 26.20349009
Pt	 41.15477912	 17.92134446	 29.11498899
Pt	 41.15477912	 17.92134446	 32.02648789
Pt	 41.15477912	 17.92134446	 34.93798679
Pt	 41.15477912	 17.92134446	 37.84948569
Pt	 41.15477912	 17.92134446	 40.76098458
Pt	 41.15477912	 17.92134446	 43.67248348
Pt	 41.15477912	 17.92134446	 46.58398238
Pt	 41.15477912	 17.92134446	 49.49548128
Pt	 41.15477912	 17.92134446	 52.40698018
Pt	 68.86415737	 8.96067223	 -39.30523514
Pt	 68.86415737	 8.96067223	 -36.39373624
Pt	 68.86415737	 8.96067223	 -33.48223734
Pt	 68.86415737	 8.96067223	 -30.57073844
Pt	 68.86415737	 8.96067223	 -27.65923954
Pt	 68.86415737	 8.96067223	 -24.74774064
Pt	 68.86415737	 8.96067223	 -21.83624174
Pt	 68.86415737	 8.96067223	 -18.92474284
Pt	 68.86415737	 8.96067223	 -16.01324394
Pt	 68.86415737	 8.96067223	 -13.10174505
Pt	 68.86415737	 8.96067223	 -10.19024615
Pt	 68.86415737	 8.96067223	 -7.27874725
Pt	 68.86415737	 8.96067223	 -4.36724835
Pt	 68.86415737	 8.96067223	 -1.45574945
Pt	 68.86415737	 8.96067223	 1.45574945
Pt	 68.86415737	 8.96067223	 4.36724835
Pt	 68.86415737	 8.96067223	 7.27874725
Pt	 68.86415737	 8.96067223	 10.19024615
Pt	 68.86415737	 8.96067223	 13.10174505
Pt	 68.86415737	 8.96067223	 16.01324394
Pt	 68.86415737	 8.96067223	 18.92474284
Pt	 68.86415737	 8.96067223	 21.83624174
Pt	 68.86415737	 8.96067223	 24.74774064
Pt	 68.86415737	 8.96067223	 27.65923954
Pt	 68.86415737	 8.96067223	 30.57073844
Pt	 68.86415737	 8.96067223	 33.48223734
Pt	 68.86415737	 8.96067223	 36.39373624
Pt	 68.86415737	 8.96067223	 39.30523514
Pt	 96.57353562	 0.00000000	 -26.20349009
Pt	 96.57353562	 0.00000000	 -23.29199119
Pt	 96.57353562	 0.00000000	 -20.38049229
Pt	 96.57353562	 0.00000000	 -17.46899339
Pt	 96.57353562	 0.00000000	 -14.55749449
Pt	 96.57353562	 0.00000000	 -11.64599560
Pt	 96.57353562	 0.00000000	 -8.73449670
Pt	 96.57353562	 0.00000000	 -5.82299780
Pt	 96.57353562	 0.00000000	 -2.91149890
Pt	 96.57353562	 0.00000000	 0.00000000
Pt	 96.57353562	 0.00000000	 2.91149890
Pt	 96.57353562	 0.00000000	 5.82299780
Pt	 96.57353562	 0.00000000	 8.73449670
Pt	 96.57353562	 0.00000000	 11.64599560
Pt	 96.57353562	 0.00000000	 14.55749449
Pt	 96.57353562	 0.00000000	 17.46899339
Pt	 96.57353562	 0.00000000	 20.38049229
Pt	 96.57353562	 0.00000000	 23.29199119
Pt	 96.57353562	 0.00000000	 26.20349009
Pt	 62.52567583	 11.20084029	 -42.21673403
Pt	 62.52567583	 11.20084029	 -39.30523514
Pt	 62.52567583	 11.20084029	 -36.39373624
Pt	 62.52567583	 11.20084029	 -33.48223734
Pt	 62.52567583	 11.20084029	 -30.57073844
Pt	 62.52567583	 11.20084029	 -27.65923954
Pt	 62.52567583	 11.20084029	 -24.74774064
Pt	 62.52567583	 11.20084029	 -21.83624174
Pt	 62.52567583	 11.20084029	 -18.92474284
Pt	 62.52567583	 11.20084029	 -16.01324394
Pt	 62.52567583	 11.20084029	 -13.10174505
Pt	 62.52567583	 11.20084029	 -10.19024615
Pt	 62.52567583	 11.20084029	 -7.27874725
Pt	 62.52567583	 11.20084029	 -4.36724835
Pt	 62.52567583	 11.20084029	 -1.45574945
Pt	 62.52567583	 11.20084029	 1.45574945
Pt	 62.52567583	 11.20084029	 4.36724835
Pt	 62.52567583	 11.20084029	 7.27874725
Pt	 62.52567583	 11.20084029	 10.19024615
Pt	 62.52567583	 11.20084029	 13.10174505
Pt	 62.52567583	 11.20084029	 16.01324394
Pt	 62.52567583	 11.20084029	 18.92474284
Pt	 62.52567583	 11.20084029	 21.83624174
Pt	 62.52567583	 11.20084029	 24.74774064
Pt	 62.52567583	 11.20084029	 27.65923954
Pt	 62.52567583	 11.20084029	 30.57073844
Pt	 62.52567583	 11.20084029	 33.48223734
Pt	 62.52567583	 11.20084029	 36.39373624
Pt	 62.52567583	 11.20084029	 39.30523514
Pt	 62.52567583	 11.20084029	 42.21673403
Pt	 90.23505408	 2.24016806	 -29.11498899
Pt	 90.23505408	 2.24016806	 -26.20349009
Pt	 90.23505408	 2.24016806	 -23.29199119
Pt	 90.23505408	 2.24016806	 -20.38049229
Pt	 90.23505408	 2.24016806	 -17.46899339
Pt	 90.23505408	 2.24016806	 -14.55749449
Pt	 90.23505408	 2.24016806	 -11.64599560
Pt	 90.23505408	 2.24016806	 -8.73449670
Pt	 90.23505408	 2.24016806	 -5.82299780
Pt	 90.23505408	 2.24016806	 -2.91149890
Pt	 90.23505408	 2.24016806	 0.00000000
Pt	 90.23505408	 2.24016806	 2.91149890
Pt	 90.23505408	 2.24016806	 5.82299780
Pt	 90.23505408	 2.24016806	 8.73449670
Pt	 90.23505408	 2.24016806	 11.64599560
Pt	 90.23505408	 2.24016806	 14.55749449
Pt	 90.23505408	 2.24016806	 17.46899339
Pt	 90.23505408	 2.24016806	 20.38049229
Pt	 90.23505408	 2.24016806	 23.29199119
Pt	 90.23505408	 2.24016806	 26.20349009
Pt	 90.23505408	 2.24016806	 29.11498899
Pt	 56.18719429	 13.44100834	 -45.12823293
Pt	 56.18719429	 13.44100834	 -42.21673403
Pt	 56.18719429	 13.44100834	 -39.30523514
Pt	 56.18719429	 13.44100834	 -36.39373624
Pt	 56.18719429	 13.44100834	 -33.48223734
Pt	 56.18719429	 13.44100834	 -30.57073844
Pt	 56.18719429	 13.44100834	 -27.65923954
Pt	 56.18719429	 13.44100834	 -24.74774064
Pt	 56.18719429	 13.44100834	 -21.83624174
Pt	 56.18719429	 13.44100834	 -18.92474284
Pt	 56.18719429	 13.44100834	 -16.01324394
Pt	 56.18719429	 13.44100834	 -13.10174505
Pt	 56.18719429	 13.44100834	 -10.19024615
Pt	 56.18719429	 13.44100834	 -7.27874725
Pt	 56.18719429	 13.44100834	 -4.36724835
Pt	 56.18719429	 13.44100834	 -1.45574945
Pt	 56.18719429	 13.44100834	 1.45574945
Pt	 56.18719429	 13.44100834	 4.36724835
Pt	 56.18719429	 13.44100834	 7.27874725
Pt	 56.18719429	 13.44100834	 10.19024615
Pt	 56.18719429	 13.44100834	 13.10174505
Pt	 56.18719429	 13.44100834	 16.01324394
Pt	 56.18719429	 13.44100834	 18.92474284
Pt	 56.18719429	 13.44100834	 21.83624174
Pt	 56.18719429	 13.44100834	 24.74774064
Pt	 56.18719429	 13.44100834	 27.65923954
Pt	 56.18719429	 13.44100834	 30.57073844
Pt	 56.18719429	 13.44100834	 33.48223734
Pt	 56.18719429	 13.44100834	 36.39373624
Pt	 56.18719429	 13.44100834	 39.30523514
Pt	 56.18719429	 13.44100834	 42.21673403
Pt	 56.18719429	 13.44100834	 45.12823293
Pt	 83.89657254	 4.48033611	 -32.02648789
Pt	 83.89657254	 4.48033611	 -29.11498899
Pt	 83.89657254	 4.48033611	 -26.20349009
Pt	 83.89657254	 4.48033611	 -23.29199119
Pt	 83.89657254	 4.48033611	 -20.38049229
Pt	 83.89657254	 4.48033611	 -17.46899339
Pt	 83.89657254	 4.48033611	 -14.55749449
Pt	 83.89657254	 4.48033611	 -11.64599560
Pt	 83.89657254	 4.48033611	 -8.73449670
Pt	 83.89657254	 4.48033611	 -5.82299780
Pt	 83.89657254	 4.48033611	 -2.91149890
Pt	 83.89657254	 4.48033611	 0.00000000
Pt	 83.89657254	 4.48033611	 2.91149890
Pt	 83.89657254	 4.48033611	 5.82299780
Pt	 83.89657254	 4.48033611	 8.73449670
Pt	 83.89657254	 4.48033611	 11.64599560
Pt	 83.89657254	 4.48033611	 14.55749449
Pt	 83.89657254	 4.48033611	 17.46899339
Pt	 83.89657254	 4.48033611	 20.38049229
Pt	 83.89657254	 4.48033611	 23.29199119
Pt	 83.89657254	 4.48033611	 26.20349009
Pt	 83.89657254	 4.48033611	 29.11498899
Pt	 83.89657254	 4.48033611	 32.02648789
Pt	 49.84871275	 15.68117640	 -48.03973183
Pt	 49.84871275	 15.68117640	 -45.12823293
Pt	 49.84871275	 15.68117640	 -42.21673403
Pt	 49.84871275	 15.68117640	 -39.30523514
Pt	 49.84871275	 15.68117640	 -36.39373624
Pt	 49.84871275	 15.68117640	 -33.48223734
Pt	 49.84871275	 15.68117640	 -30.57073844
Pt	 49.84871275	 15.68117640	 -27.65923954
Pt	 49.84871275	 15.68117640	 -24.74774064
Pt	 49.84871275	 15.68117640	 -21.83624174
Pt	 49.84871275	 15.68117640	 -18.92474284
Pt	 49.84871275	 15.68117640	 -16.01324394
Pt	 49.84871275	 15.68117640	 -13.10174505
Pt	 49.84871275	 15.68117640	 -10.19024615
Pt	 49.84871275	 15.68117640	 -7.27874725
Pt	 49.84871275	 15.68117640	 -4.36724835
Pt	 49.84871275	 15.68117640	 -1.45574945
Pt	 49.84871275	 15.68117640	 1.45574945
Pt	 49.84871275	 15.68117640	 4.36724835
Pt	 49.84871275	 15.68117640	 7.27874725
Pt	 49.84871275	 15.68117640	 10.19024615
Pt	 49.84871275	 15.68117640	 13.10174505
Pt	 49.84871275	 15.68117640	 16.01324394
Pt	 49.84871275	 15.68117640	 18.92474284
Pt	 49.84871275	 15.68117640	 21.83624174
Pt	 49.84871275	 15.68117640	 24.74774064
Pt	 49.84871275	 15.68117640	 27.65923954
Pt	 49.84871275	 15.68117640	 30.57073844
Pt	 49.84871275	 15.68117640	 33.48223734
Pt	 49.84871275	 15.68117640	 36.39373624
Pt	 49.84871275	 15.68117640	 39.30523514
Pt	 49.84871275	 15.68117640	 42.21673403
Pt	 49.84871275	 15.68117640	 45.12823293
Pt	 49.84871275	 15.68117640	 48.03973183
Pt	 77.55809100	 6.72050417	 -34.93798679
Pt	 77.55809100	 6.72050417	 -32.02648789
Pt	 77.55809100	 6.72050417	 -29.11498899
Pt	 77.55809100	 6.72050417	 -26.20349009
Pt	 77.55809100	 6.72050417	 -23.29199119
Pt	 77.55809100	 6.72050417	 -20.38049229
Pt	 77.55809100	 6.72050417	 -17.46899339
Pt	 77.55809100	 6.72050417	 -14.55749449
Pt	 77.55809100	 6.72050417	 -11.64599560
Pt	 77.55809100	 6.72050417	 -8.73449670
Pt	 77.55809100	 6.72050417	 -5.82299780
Pt	 77.55809100	 6.72050417	 -2.91149890
Pt	 77.55809100	 6.72050417	 0.00000000
Pt	 77.55809100	 6.72050417	 2.91149890
Pt	 77.55809100	 6.72050417	 5.82299780
Pt	 77.55809100	 6.72050417	 8.73449670
Pt	 77.55809100	 6.72050417	 11.64599560
Pt	 77.55809100	 6.72050417	 14.55749449
Pt	 77.55809100	 6.72050417	 17.46899339
Pt	 77.55809100	 6.72050417	 20.38049229
Pt	 77.55809100	 6.72050417	 23.29199119
Pt	 77.55809100	 6.72050417	 26.20349009
Pt	 77.55809100	 6.72050417	 29.11498899
Pt	 77.55809100	 6.72050417	 32.02648789
Pt	 77.55809100	 6.72050417	 34.93798679
Pt	 43.51023121	 17.92134446	 -50.95123073
Pt	 43.51023121	 17.92134446	 -48.03973183
Pt	 43.51023121	 17.92134446	 -45.12823293
Pt	 43.51023121	 17.92134446	 -42.21673403
Pt	 43.51023121	 17.92134446	 -39.30523514
Pt	 43.51023121	 17.92134446	 -36.39373624
Pt	 43.51023121	 17.92134446	 -33.48223734
Pt	 43.51023121	 17.92134446	 -30.57073844
Pt	 43.51023121	 17.92134446	 -27.65923954
Pt	 43.51023121	 17.92134446	 -24.74774064
Pt	 43.51023121	 17.92134446	 -21.83624174
Pt	 43.51023121	 17.92134446	 -18.92474284
Pt	 43.51023121	 17.92134446	 -16.01324394
Pt	 43.51023121	 17.92134446	 -13.10174505
Pt	 43.51023121	 17.92134446	 -10.19024615
Pt	 43.51023121	 17.92134446	 -7.27874725
Pt	 43.51023121	 17.92134446	 -4.36724835
Pt	 43.51023121	 17.92134446	 -1.45574945
Pt	 43.51023121	 17.92134446	 1.45574945
Pt	 43.51023121	 17.92134446	 4.36724835
Pt	 43.51023121	 17.92134446	 7.27874725
Pt	 43.51023121	 17.92134446	 10.19024615
Pt	 43.51023121	 17.92134446	 13.10174505
Pt	 43.51023121	 17.92134446	 16.01324394
Pt	 43.51023121	 17.92134446	 18.92474284
Pt	 43.51023121	 17.92134446	 21.83624174
Pt	 43.51023121	 17.92134446	 24.74774064
Pt	 43.51023121	 17.92134446	 27.65923954
Pt	 43.51023121	 17.92134446	 30.57073844
Pt	 43.51023121	 17.92134446	 33.48223734
Pt	 43.51023121	 17.92134446	 36.39373624
Pt	 43.51023121	 17.92134446	 39.30523514
Pt	 43.51023121	 17.92134446	 42.21673403
Pt	 43.51023121	 17.92134446	 45.12823293
Pt	 43.51023121	 17.92134446	 48.03973183
Pt	 43.51023121	 17.92134446	 50.95123073
Pt	 71.21960946	 8.96067223	 -37.84948569
Pt	 71.21960946	 8.96067223	 -34.93798679
Pt	 71.21960946	 8.96067223	 -32.02648789
Pt	 71.21960946	 8.96067223	 -29.11498899
Pt	 71.21960946	 8.96067223	 -26.20349009
Pt	 71.21960946	 8.96067223	 -23.29199119
Pt	 71.21960946	 8.96067223	 -20.38049229
Pt	 71.21960946	 8.96067223	 -17.46899339
Pt	 71.21960946	 8.96067223	 -14.55749449
Pt	 71.21960946	 8.96067223	 -11.64599560
Pt	 71.21960946	 8.96067223	 -8.73449670
Pt	 71.21960946	 8.96067223	 -5.82299780
Pt	 71.21960946	 8.96067223	 -2.91149890
Pt	 71.21960946	 8.96067223	 -0.00000000
Pt	 71.21960946	 8.96067223	 2.91149890
Pt	 71.21960946	 8.96067223	 5.82299780
Pt	 71.21960946	 8.96067223	 8.73449670
Pt	 71.21960946	 8.96067223	 11.64599560
Pt	 71.21960946	 8.96067223	 14.55749449
Pt	 71.21960946	 8.96067223	 17.46899339
Pt	 71.21960946	 8.96067223	 20.38049229
Pt	 71.21960946	 8.96067223	 23.29199119
Pt	 71.21960946	 8.96067223	 26.20349009
Pt	 71.21960946	 8.96067223	 29.11498899
Pt	 71.21960946	 8.96067223	 32.02648789
Pt	 71.21960946	 8.96067223	 34.93798679
Pt	 71.21960946	 8.96067223	 37.84948569
Pt	 98.92898771	 0.00000000	 -24.74774064
Pt	 98.92898771	 0.00000000	 -21.83624174
Pt	 98.92898771	 0.00000000	 -18.92474284
Pt	 98.92898771	 0.00000000	 -16.01324394
Pt	 98.92898771	 0.00000000	 -13.10174505
Pt	 98.92898771	 0.00000000	 -10.19024615
Pt	 98.92898771	 0.00000000	 -7.27874725
Pt	 98.92898771	 0.00000000	 -4.36724835
Pt	 98.92898771	 0.00000000	 -1.45574945
Pt	 98.92898771	 0.00000000	 1.45574945
Pt	 98.92898771	 0.00000000	 4.36724835
Pt	 98.92898771	 0.00000000	 7.27874725
Pt	 98.92898771	 0.00000000	 10.19024615
Pt	 98.92898771	 0.00000000	 13.10174505
Pt	 98.92898771	 0.00000000	 16.01324394
Pt	 98.92898771	 0.00000000	 18.92474284
Pt	 98.92898771	 0.00000000	 21.83624174
Pt	 98.92898771	 0.00000000	 24.74774064
Pt	 64.88112792	 11.20084029	 -40.76098458
Pt	 64.88112792	 11.20084029	 -37.84948569
Pt	 64.88112792	 11.20084029	 -34.93798679
Pt	 64.88112792	 11.20084029	 -32.02648789
Pt	 64.88112792	 11.20084029	 -29.11498899
Pt	 64.88112792	 11.20084029	 -26.20349009
Pt	 64.88112792	 11.20084029	 -23.29199119
Pt	 64.88112792	 11.20084029	 -20.38049229
Pt	 64.88112792	 11.20084029	 -17.46899339
Pt	 64.88112792	 11.20084029	 -14.55749449
Pt	 64.88112792	 11.20084029	 -11.64599560
Pt	 64.88112792	 11.20084029	 -8.73449670
Pt	 64.88112792	 11.20084029	 -5.82299780
Pt	 64.88112792	 11.20084029	 -2.91149890
Pt	 64.88112792	 11.20084029	 0.00000000
Pt	 64.88112792	 11.20084029	 2.91149890
Pt	 64.88112792	 11.20084029	 5.82299780
Pt	 64.88112792	 11.20084029	 8.73449670
Pt	 64.88112792	 11.20084029	 11.64599560
Pt	 64.88112792	 11.20084029	 14.55749449
Pt	 64.88112792	 11.20084029	 17.46899339
Pt	 64.88112792	 11.20084029	 20.38049229
Pt	 64.88112792	 11.20084029	 23.29199119
Pt	 64.88112792	 11.20084029	 26.20349009
Pt	 64.88112792	 11.20084029	 29.11498899
Pt	 64.88112792	 11.20084029	 32.02648789
Pt	 64.88112792	 11.20084029	 34.93798679
Pt	 64.88112792	 11.20084029	 37.84948569
Pt	 64.88112792	 11.20084029	 40.76098458
Pt	 92.59050617	 2.24016806	 -27.65923954
Pt	 92.59050617	 2.24016806	 -24.74774064
Pt	 92.59050617	 2.24016806	 -21.83624174
Pt	 92.59050617	 2.24016806	 -18.92474284
Pt	 92.59050617	 2.24016806	 -16.01324394
Pt	 92.59050617	 2.24016806	 -13.10174505
Pt	 92.59050617	 2.24016806	 -10.19024615
Pt	 92.59050617	 2.24016806	 -7.27874725
Pt	 92.59050617	 2.24016806	 -4.36724835
Pt	 92.59050617	 2.24016806	 -1.45574945
Pt	 92.59050617	 2.24016806	 1.45574945
Pt	 92.59050617	 2.24016806	 4.36724835
Pt	 92.59050617	 2.24016806	 7.27874725
Pt	 92.59050617	 2.24016806	 10.19024615
Pt	 92.59050617	 2.24016806	 13.10174505
Pt	 92.59050617	 2.24016806	 16.01324394
Pt	 92.59050617	 2.24016806	 18.92474284
Pt	 92.59050617	 2.24016806	 21.83624174
Pt	 92.59050617	 2.24016806	 24.74774064
Pt	 92.59050617	 2.24016806	 27.65923954
Pt	 58.54264638	 13.44100834	 -43.67248348
Pt	 58.54264638	 13.44100834	 -40.76098458
Pt	 58.54264638	 13.44100834	 -37.84948569
Pt	 58.54264638	 13.44100834	 -34.93798679
Pt	 58.54264638	 13.44100834	 -32.02648789
Pt	 58.54264638	 13.44100834	 -29.11498899
Pt	 58.54264638	 13.44100834	 -26.20349009
Pt	 58.54264638	 13.44100834	 -23.29199119
Pt	 58.54264638	 13.44100834	 -20.38049229
Pt	 58.54264638	 13.44100834	 -17.46899339
Pt	 58.54264638	 13.44100834	 -14.55749449
Pt	 58.54264638	 13.44100834	 -11.64599560
Pt	 58.54264638	 13.44100834	 -8.73449670
Pt	 58.54264638	 13.44100834	 -5.82299780
Pt	 58.54264638	 13.44100834	 -2.91149890
Pt	 58.54264638	 13.44100834	 -0.00000000
Pt	 58.54264638	 13.44100834	 2.91149890
Pt	 58.54264638	 13.44100834	 5.82299780
Pt	 58.54264638	 13.44100834	 8.73449670
Pt	 58.54264638	 13.44100834	 11.64599560
Pt	 58.54264638	 13.44100834	 14.55749449
Pt	 58.54264638	 13.44100834	 17.46899339
Pt	 58.54264638	 13.44100834	 20.38049229
Pt	 58.54264638	 13.44100834	 23.29199119
Pt	 58.54264638	 13.44100834	 26.20349009
Pt	 58.54264638	 13.44100834	 29.11498899
Pt	 58.54264638	 13.44100834	 32.02648789
Pt	 58.54264638	 13.44100834	 34.93798679
Pt	 58.54264638	 13.44100834	 37.84948569
Pt	 58.54264638	 13.44100834	 40.76098458
Pt	 58.54264638	 13.44100834	 43.67248348
Pt	 86.25202463	 4.48033611	 -30.57073844
Pt	 86.25202463	 4.48033611	 -27.65923954
Pt	 86.25202463	 4.48033611	 -24.74774064
Pt	 86.25202463	 4.48033611	 -21.83624174
Pt	 86.25202463	 4.48033611	 -18.92474284
Pt	 86.25202463	 4.48033611	 -16.01324394
Pt	 86.25202463	 4.48033611	 -13.10174505
Pt	 86.25202463	 4.48033611	 -10.19024615
Pt	 86.25202463	 4.48033611	 -7.27874725
Pt	 86.25202463	 4.48033611	 -4.36724835
Pt	 86.25202463	 4.48033611	 -1.45574945
Pt	 86.25202463	 4.48033611	 1.45574945
Pt	 86.25202463	 4.48033611	 4.36724835
Pt	 86.25202463	 4.48033611	 7.27874725
Pt	 86.25202463	 4.48033611	 10.19024615
Pt	 86.25202463	 4.48033611	 13.10174505
Pt	 86.25202463	 4.48033611	 16.01324394
Pt	 86.25202463	 4.48033611	 18.92474284
Pt	 86.25202463	 4.48033611	 21.83624174
Pt	 86.25202463	 4.48033611	 24.74774064
Pt	 86.25202463	 4.48033611	 27.65923954
Pt	 86.25202463	 4.48033611	 30.57073844
Pt	 52.20416484	 15.68117640	 -46.58398238
Pt	 52.20416484	 15.68117640	 -43.67248348
Pt	 52.20416484	 15.68117640	 -40.76098458
Pt	 52.20416484	 15.68117640	 -37.84948569
Pt	 52.20416484	 15.68117640	 -34.93798679
Pt	 52.20416484	 15.68117640	 -32.02648789
Pt	 52.20416484	 15.68117640	 -29.11498899
Pt	 52.20416484	 15.68117640	 -26.20349009
Pt	 52.20416484	 15.68117640	 -23.29199119
Pt	 52.20416484	 15.68117640	 -20.38049229
Pt	 52.20416484	 15.68117640	 -17.46899339
Pt	 52.20416484	 15.68117640	 -14.55749449
Pt	 52.20416484	 15.68117640	 -11.64599560
Pt	 52.20416484	 15.68117640	 -8.73449670
Pt	 52.20416484	 15.68117640	 -5.82299780
Pt	 52.20416484	 15.68117640	 -2.91149890
Pt	 52.20416484	 15.68117640	 -0.00000000
Pt	 52.20416484	 15.68117640	 2.91149890
Pt	 52.20416484	 15.68117640	 5.82299780
Pt	 52.20416484	 15.68117640	 8.73449670
Pt	 52.20416484	 15.68117640	 11.64599560
Pt	 52.20416484	 15.68117640	 14.55749449
Pt	 52.20416484	 15.68117640	 17.46899339
Pt	 52.20416484	 15.68117640	 20.38049229
Pt	 52.20416484	 15.68117640	 23.29199119
Pt	 52.20416484	 15.68117640	 26.20349009
Pt	 52.20416484	 15.68117640	 29.11498899
Pt	 52.20416484	 15.68117640	 32.02648789
Pt	 52.20416484	 15.68117640	 34.93798679
Pt	 52.20416484	 15.68117640	 37.84948569
Pt	 52.20416484	 15.68117640	 40.76098458
Pt	 52.20416484	 15.68117640	 43.67248348
Pt	 52.20416484	 15.68117640	 46.58398238
Pt	 79.91354309	 6.72050417	 -33.48223734
Pt	 79.91354309	 6.72050417	 -30.57073844
Pt	 79.91354309	 6.72050417	 -27.65923954
Pt	 79.91354309	 6.72050417	 -24.74774064
Pt	 79.91354309	 6.72050417	 -21.83624174
Pt	 79.91354309	 6.72050417	 -18.92474284
Pt	 79.91354309	 6.72050417	 -16.01324394
Pt	 79.91354309	 6.72050417	 -13.10174505
Pt	 79.91354309	 6.72050417	 -10.19024615
Pt	 79.91354309	 6.72050417	 -7.27874725
Pt	 79.91354309	 6.72050417	 -4.36724835
Pt	 79.91354309	 6.72050417	 -1.45574945
Pt	 79.91354309	 6.72050417	 1.45574945
Pt	 79.91354309	 6.72050417	 4.36724835
Pt	 79.91354309	 6.72050417	 7.27874725
Pt	 79.91354309	 6.72050417	 10.19024615
Pt	 79.91354309	 6.72050417	 13.10174505
Pt	 79.91354309	 6.72050417	 16.01324394
Pt	 79.91354309	 6.72050417	 18.92474284
Pt	 79.91354309	 6.72050417	 21.83624174
Pt	 79.91354309	 6.72050417	 24.74774064
Pt	 79.91354309	 6.72050417	 27.65923954
Pt	 79.91354309	 6.72050417	 30.57073844
Pt	 79.91354309	 6.72050417	 33.48223734
Pt	 45.86568330	 17.92134446	 -49.49548128
Pt	 45.86568330	 17.92134446	 -46.58398238
Pt	 45.86568330	 17.92134446	 -43.67248348
Pt	 45.86568330	 17.92134446	 -40.76098458
Pt	 45.86568330	 17.92134446	 -37.84948569
Pt	 45.86568330	 17.92134446	 -34.93798679
Pt	 45.86568330	 17.92134446	 -32.02648789
Pt	 45.86568330	 17.92134446	 -29.11498899
Pt	 45.86568330	 17.92134446	 -26.20349009
Pt	 45.86568330	 17.92134446	 -23.29199119
Pt	 45.86568330	 17.92134446	 -20.38049229
Pt	 45.86568330	 17.92134446	 -17.46899339
Pt	 45.86568330	 17.92134446	 -14.55749449
Pt	 45.86568330	 17.92134446	 -11.64599560
Pt	 45.86568330	 17.92134446	 -8.73449670
Pt	 45.86568330	 17.92134446	 -5.82299780
Pt	 45.86568330	 17.92134446	 -2.91149890
Pt	 45.86568330	 17.92134446	 0.00000000
Pt	 45.86568330	 17.92134446	 2.91149890
Pt	 45.86568330	 17.92134446	 5.82299780
Pt	 45.86568330	 17.92134446	 8.73449670
Pt	 45.86568330	 17.92134446	 11.64599560
Pt	 45.86568330	 17.92134446	 14.55749449
Pt	 45.86568330	 17.92134446	 17.46899339
Pt	 45.86568330	 17.92134446	 20.38049229
Pt	 45.86568330	 17.92134446	 23.29199119
Pt	 45.86568330	 17.92134446	 26.20349009
Pt	 45.86568330	 17.92134446	 29.11498899
Pt	 45.86568330	 17.92134446	 32.02648789
Pt	 45.86568330	 17.92134446	 34.93798679
Pt	 45.86568330	 17.92134446	 37.84948569
Pt	 45.86568330	 17.92134446	 40.76098458
Pt	 45.86568330	 17.92134446	 43.67248348
Pt	 45.86568330	 17.92134446	 46.58398238
Pt	 45.86568330	 17.92134446	 49.49548128
Pt	 73.57506155	 8.96067223	 -36.39373624
Pt	 73.57506155	 8.96067223	 -33.48223734
Pt	 73.57506155	 8.96067223	 -30.57073844
Pt	 73.57506155	 8.96067223	 -27.65923954
Pt	 73.57506155	 8.96067223	 -24.74774064
Pt	 73.57506155	 8.96067223	 -21.83624174
Pt	 73.57506155	 8.96067223	 -18.92474284
Pt	 73.57506155	 8.96067223	 -16.01324394
Pt	 73.57506155	 8.96067223	 -13.10174505
Pt	 73.57506155	 8.96067223	 -10.19024615
Pt	 73.57506155	 8.96067223	 -7.27874725
Pt	 73.57506155	 8.96067223	 -4.36724835
Pt	 73.57506155	 8.96067223	 -1.45574945
Pt	 73.57506155	 8.96067223	 1.45574945
Pt	 73.57506155	 8.96067223	 4.36724835
Pt	 73.57506155	 8.96067223	 7.27874725
Pt	 73.57506155	 8.96067223	 10.19024615
Pt	 73.57506155	 8.96067223	 13.10174505
Pt	 73.57506155	 8.96067223	 16.01324394
Pt	 73.57506155	 8.96067223	 18.92474284
Pt	 73.57506155	 8.96067223	 21.83624174
Pt	 73.57506155	 8.96067223	 24.74774064
Pt	 73.57506155	 8.96067223	 27.65923954
Pt	 73.57506155	 8.96067223	 30.57073844
Pt	 73.57506155	 8.96067223	 33.48223734
Pt	 73.57506155	 8.96067223	 36.39373624
Pt	 101.28443980	 0.00000000	 -23.29199119
Pt	 101.28443980	 0.00000000	 -20.38049229
Pt	 101.28443980	 0.00000000	 -17.46899339
Pt	 101.28443980	 0.00000000	 -14.55749449
Pt	 101.28443980	 0.00000000	 -11.64599560
Pt	 101.28443980	 0.00000000	 -8.73449670
Pt	 101.28443980	 0.00000000	 -5.82299780
Pt	 101.28443980	 0.00000000	 -2.91149890
Pt	 101.28443980	 0.00000000	 -0.00000000
Pt	 101.28443980	 0.00000000	 2.91149890
Pt	 101.28443980	 0.00000000	 5.82299780
Pt	 101.28443980	 0.00000000	 8.73449670
Pt	 101.28443980	 0.00000000	 11.64599560
Pt	 101.28443980	 0.00000000	 14.55749449
Pt	 101.28443980	 0.00000000	 17.46899339
Pt	 101.28443980	 0.00000000	 20.38049229
Pt	 101.28443980	 0.00000000	 23.29199119
Pt	 67.23658001	 11.20084029	 -39.30523514
Pt	 67.23658001	 11.20084029	 -36.39373624
Pt	 67.23658001	 11.20084029	 -33.48223734
Pt	 67.23658001	 11.20084029	 -30.57073844
Pt	 67.23658001	 11.20084029	 -27.65923954
Pt	 67.23658001	 11.20084029	 -24.74774064
Pt	 67.23658001	 11.20084029	 -21.83624174
Pt	 67.23658001	 11.20084029	 -18.92474284
Pt	 67.23658001	 11.20084029	 -16.01324394
Pt	 67.23658001	 11.20084029	 -13.10174505
Pt	 67.23658001	 11.20084029	 -10.19024615
Pt	 67.23658001	 11.20084029	 -7.27874725
Pt	 67.23658001	 11.20084029	 -4.36724835
Pt	 67.23658001	 11.20084029	 -1.45574945
Pt	 67.23658001	 11.20084029	 1.45574945
Pt	 67.23658001	 11.20084029	 4.36724835
Pt	 67.23658001	 11.20084029	 7.27874725
Pt	 67.23658001	 11.20084029	 10.19024615
Pt	 67.23658001	 11.20084029	 13.10174505
Pt	 67.23658001	 11.20084029	 16.01324394
Pt	 67.23658001	 11.20084029	 18.92474284
Pt	 67.23658001	 11.20084029	 21.83624174
Pt	 67.23658001	 11.20084029	 24.74774064
Pt	 67.23658001	 11.20084029	 27.65923954
Pt	 67.23658001	 11.20084029	 30.57073844
Pt	 67.23658001	 11.20084029	 33.48223734
Pt	 67.23658001	 11.20084029	 36.39373624
Pt	 67.23658001	 11.20084029	 39.30523514
Pt	 94.94595826	 2.24016806	 -26.20349009
Pt	 94.94595826	 2.24016806	 -23.29199119
Pt	 94.94595826	 2.24016806	 -20.38049229
Pt	 94.94595826	 2.24016806	 -17.46899339
Pt	 94.94595826	 2.24016806	 -14.55749449
Pt	 94.94595826	 2.24016806	 -11.64599560
Pt	 94.94595826	 2.24016806	 -8.73449670
Pt	 94.94595826	 2.24016806	 -5.82299780
Pt	 94.94595826	 2.24016806	 -2.91149890
Pt	 94.94595826	 2.24016806	 0.00000000
Pt	 94.94595826	 2.24016806	 2.91149890
Pt	 94.94595826	 2.24016806	 5.82299780
Pt	 94.94595826	 2.24016806	 8.73449670
Pt	 94.94595826	 2.24016806	 11.64599560
Pt	 94.94595826	 2.24016806	 14.55749449
Pt	 94.94595826	 2.24016806	 17.46899339
Pt	 94.94595826	 2.24016806	 20.38049229
Pt	 94.94595826	 2.24016806	 23.29199119
Pt	 94.94595826	 2.24016806	 26.20349009
Pt	 60.89809847	 13.44100834	 -42.21673403
Pt	 60.89809847	 13.44100834	 -39.30523514
Pt	 60.89809847	 13.44100834	 -36.39373624
Pt	 60.89809847	 13.44100834	 -33.48223734
Pt	 60.89809847	 13.44100834	 -30.57073844
Pt	 60.89809847	 13.44100834	 -27.65923954
Pt	 60.89809847	 13.44100834	 -24.74774064
Pt	 60.89809847	 13.44100834	 -21.83624174
Pt	 60.89809847	 13.44100834	 -18.92474284
Pt	 60.89809847	 13.44100834	 -16.01324394
Pt	 60.89809847	 13.44100834	 -13.10174505
Pt	 60.89809847	 13.44100834	 -10.19024615
Pt	 60.89809847	 13.44100834	 -7.27874725
Pt	 60.89809847	 13.44100834	 -4.36724835
Pt	 60.89809847	 13.44100834	 -1.45574945
Pt	 60.89809847	 13.44100834	 1.45574945
Pt	 60.89809847	 13.44100834	 4.36724835
Pt	 60.89809847	 13.44100834	 7.27874725
Pt	 60.89809847	 13.44100834	 10.19024615
Pt	 60.89809847	 13.44100834	 13.10174505
Pt	 60.89809847	 13.44100834	 16.01324394
Pt	 60.89809847	 13.44100834	 18.92474284
Pt	 60.89809847	 13.44100834	 21.83624174
Pt	 60.89809847	 13.44100834	 24.74774064
Pt	 60.89809847	 13.44100834	 27.65923954
Pt	 60.89809847	 13.44100834	 30.57073844
Pt	 60.89809847	 13.44100834	 33.48223734
Pt	 60.89809847	 13.44100834	 36.39373624
Pt	 60.89809847	 13.44100834	 39.30523514
Pt	 60.89809847	 13.44100834	 42.21673403
Pt	 88.60747672	 4.48033611	 -29.11498899
Pt	 88.60747672	 4.48033611	 -26.20349009
Pt	 88.60747672	 4.48033611	 -23.29199119
Pt	 88.60747672	 4.48033611	 -20.38049229
Pt	 88.60747672	 4.48033611	 -17.46899339
Pt	 88.60747672	 4.48033611	 -14.55749449
Pt	 88.60747672	 4.48033611	 -11.64599560
Pt	 88.60747672	 4.48033611	 -8.73449670
Pt	 88.60747672	 4.48033611	 -5.82299780
Pt	 88.60747672	 4.48033611	 -2.91149890
Pt	 88.60747672	 4.48033611	 0.00000000
Pt	 88.60747672	 4.48033611	 2.91149890
Pt	 88.60747672	 4.48033611	 5.82299780
Pt	 88.60747672	 4.48033611	 8.73449670
Pt	 88.60747672	 4.48033611	 11.64599560
Pt	 88.60747672	 4.48033611	 14.55749449
Pt	 88.60747672	 4.48033611	 17.46899339
Pt	 88.60747672	 4.48033611	 20.38049229
Pt	 88.60747672	 4.48033611	 23.29199119
Pt	 88.60747672	 4.48033611	 26.20349009
Pt	 88.60747672	 4.48033611	 29.11498899
Pt	 54.55961693	 15.68117640	 -45.12823293
Pt	 54.55961693	 15.68117640	 -42.21673403
Pt	 54.55961693	 15.68117640	 -39.30523514
Pt	 54.55961693	 15.68117640	 -36.39373624
Pt	 54.55961693	 15.68117640	 -33.48223734
Pt	 54.55961693	 15.68117640	 -30.57073844
Pt	 54.55961693	 15.68117640	 -27.65923954
Pt	 54.55961693	 15.68117640	 -24.74774064
Pt	 54.55961693	 15.68117640	 -21.83624174
Pt	 54.55961693	 15.68117640	 -18.92474284
Pt	 54.55961693	 15.68117640	 -16.01324394
Pt	 54.55961693	 15.68117640	 -13.10174505
Pt	 54.55961693	 15.68117640	 -10.19024615
Pt	 54.55961693	 15.68117640	 -7.27874725
Pt	 54.55961693	 15.68117640	 -4.36724835
Pt	 54.55961693	 15.68117640	 -1.45574945
Pt	 54.55961693	 15.68117640	 1.45574945
Pt	 54.55961693	 15.68117640	 4.36724835
Pt	 54.55961693	 15.68117640	 7.27874725
Pt	 54.55961693	 15.68117640	 10.19024615
Pt	 54.55961693	 15.68117640	 13.10174505
Pt	 54.55961693	 15.68117640	 16.01324394
Pt	 54.55961693	 15.68117640	 18.92474284
Pt	 54.55961693	 15.68117640	 21.83624174
Pt	 54.55961693	 15.68117640	 24.74774064
Pt	 54.55961693	 15.68117640	 27.65923954
Pt	 54.55961693	 15.68117640	 30.57073844
Pt	 54.55961693	 15.68117640	 33.48223734
Pt	 54.55961693	 15.68117640	 36.39373624
Pt	 54.55961693	 15.68117640	 39.30523514
Pt	 54.55961693	 15.68117640	 42.21673403
Pt	 54.55961693	 15.68117640	 45.12823293
Pt	 82.26899518	 6.72050417	 -32.02648789
Pt	 82.26899518	 6.72050417	 -29.11498899
Pt	 82.26899518	 6.72050417	 -26.20349009
Pt	 82.26899518	 6.72050417	 -23.29199119
Pt	 82.26899518	 6.72050417	 -20.38049229
Pt	 82.26899518	 6.72050417	 -17.46899339
Pt	 82.26899518	 6.72050417	 -14.55749449
Pt	 82.26899518	 6.72050417	 -11.64599560
Pt	 82.26899518	 6.72050417	 -8.73449670
Pt	 82.26899518	 6.72050417	 -5.82299780
Pt	 82.26899518	 6.72050417	 -2.91149890
Pt	 82.26899518	 6.72050417	 0.00000000
Pt	 82.26899518	 6.72050417	 2.91149890
Pt	 82.26899518	 6.72050417	 5.82299780
Pt	 82.26899518	 6.72050417	 8.73449670
Pt	 82.26899518	 6.72050417	 11.64599560
Pt	 82.26899518	 6.72050417	 14.55749449
Pt	 82.26899518	 6.72050417	 17.46899339
Pt	 82.26899518	 6.72050417	 20.38049229
Pt	 82.26899518	 6.72050417	 23.29199119
Pt	 82.26899518	 6.72050417	 26.20349009
Pt	 82.26899518	 6.72050417	 29.11498899
Pt	 82.26899518	 6.72050417	 32.02648789
Pt	 48.22113539	 17.92134446	 -48.03973183
Pt	 48.22113539	 17.92134446	 -45.12823293
Pt	 48.22113539	 17.92134446	 -42.21673403
Pt	 48.22113539	 17.92134446	 -39.30523514
Pt	 48.22113539	 17.92134446	 -36.39373624
Pt	 48.22113539	 17.92134446	 -33.48223734
Pt	 48.22113539	 17.92134446	 -30.57073844
Pt	 48.22113539	 17.92134446	 -27.65923954
Pt	 48.22113539	 17.92134446	 -24.74774064
Pt	 48.22113539	 17.92134446	 -21.83624174
Pt	 48.22113539	 17.92134446	 -18.92474284
Pt	 48.22113539	 17.92134446	 -16.01324394
Pt	 48.22113539	 17.92134446	 -13.10174505
Pt	 48.22113539	 17.92134446	 -10.19024615
Pt	 48.22113539	 17.92134446	 -7.27874725
Pt	 48.22113539	 17.92134446	 -4.36724835
Pt	 48.22113539	 17.92134446	 -1.45574945
Pt	 48.22113539	 17.92134446	 1.45574945
Pt	 48.22113539	 17.92134446	 4.36724835
Pt	 48.22113539	 17.92134446	 7.27874725
Pt	 48.22113539	 17.92134446	 10.19024615
Pt	 48.22113539	 17.92134446	 13.10174505
Pt	 48.22113539	 17.92134446	 16.01324394
Pt	 48.22113539	 17.92134446	 18.92474284
Pt	 48.22113539	 17.92134446	 21.83624174
Pt	 48.22113539	 17.92134446	 24.74774064
Pt	 48.22113539	 17.92134446	 27.65923954
Pt	 48.22113539	 17.92134446	 30.57073844
Pt	 48.22113539	 17.92134446	 33.48223734
Pt	 48.22113539	 17.92134446	 36.39373624
Pt	 48.22113539	 17.92134446	 39.30523514
Pt	 48.22113539	 17.92134446	 42.21673403
Pt	 48.22113539	 17.92134446	 45.12823293
Pt	 48.22113539	 17.92134446	 48.03973183
Pt	 75.93051364	 8.96067223	 -34.93798679
Pt	 75.93051364	 8.96067223	 -32.02648789
Pt	 75.93051364	 8.96067223	 -29.11498899
Pt	 75.93051364	 8.96067223	 -26.20349009
Pt	 75.93051364	 8.96067223	 -23.29199119
Pt	 75.93051364	 8.96067223	 -20.38049229
Pt	 75.93051364	 8.96067223	 -17.46899339
Pt	 75.93051364	 8.96067223	 -14.55749449
Pt	 75.93051364	 8.96067223	 -11.64599560
Pt	 75.93051364	 8.96067223	 -8.73449670
Pt	 75.93051364	 8.96067223	 -5.82299780
Pt	 75.93051364	 8.96067223	 -2.91149890
Pt	 75.93051364	 8.96067223	 -0.00000000
Pt	 75.93051364	 8.96067223	 2.91149890
Pt	 75.93051364	 8.96067223	 5.82299780
Pt	 75.93051364	 8.96067223	 8.73449670
Pt	 75.93051364	 8.96067223	 11.64599560
Pt	 75.93051364	 8.96067223	 14.55749449
Pt	 75.93051364	 8.96067223	 17.46899339
Pt	 75.93051364	 8.96067223	 20.38049229
Pt	 75.93051364	 8.96067223	 23.29199119
Pt	 75.93051364	 8.96067223	 26.20349009
Pt	 75.93051364	 8.96067223	 29.11498899
Pt	 75.93051364	 8.96067223	 32.02648789
Pt	 75.93051364	 8.96067223	 34.93798679
Pt	 103.63989189	 0.00000000	 -21.83624174
Pt	 103.63989189	 0.00000000	 -18.92474284
Pt	 103.63989189	 0.00000000	 -16.01324394
Pt	 103.63989189	 0.00000000	 -13.10174505
Pt	 103.63989189	 0.00000000	 -10.19024615
Pt	 103.63989189	 0.00000000	 -7.27874725
Pt	 103.63989189	 0.00000000	 -4.36724835
Pt	 103.63989189	 0.00000000	 -1.45574945
Pt	 103.63989189	 0.00000000	 1.45574945
Pt	 103.63989189	 0.00000000	 4.36724835
Pt	 103.63989189	 0.00000000	 7.27874725
Pt	 103.63989189	 0.00000000	 10.19024615
Pt	 103.63989189	 0.00000000	 13.10174505
Pt	 103.63989189	 0.00000000	 16.01324394
Pt	 103.63989189	 0.00000000	 18.92474284
Pt	 103.63989189	 0.00000000	 21.83624174
Pt	 69.59203210	 11.20084029	 -37.84948569
Pt	 69.59203210	 11.20084029	 -34.93798679
Pt	 69.59203210	 11.20084029	 -32.02648789
Pt	 69.59203210	 11.20084029	 -29.11498899
Pt	 69.59203210	 11.20084029	 -26.20349009
Pt	 69.59203210	 11.20084029	 -23.29199119
Pt	 69.59203210	 11.20084029	 -20.38049229
Pt	 69.59203210	 11.20084029	 -17.46899339
Pt	 69.59203210	 11.20084029	 -14.55749449
Pt	 69.59203210	 11.20084029	 -11.64599560
Pt	 69.59203210	 11.20084029	 -8.73449670
Pt	 69.59203210	 11.20084029	 -5.82299780
Pt	 69.59203210	 11.20084029	 -2.91149890
Pt	 69.59203210	 11.20084029	 0.00000000
Pt	 69.59203210	 11.20084029	 2.91149890
Pt	 69.59203210	 11.20084029	 5.82299780
Pt	 69.59203210	 11.20084029	 8.73449670
Pt	 69.59203210	 11.20084029	 11.64599560
Pt	 69.59203210	 11.20084029	 14.55749449
Pt	 69.59203210	 11.20084029	 17.46899339
Pt	 69.59203210	 11.20084029	 20.38049229
Pt	 69.59203210	 11.20084029	 23.29199119
Pt	 69.59203210	 11.20084029	 26.20349009
Pt	 69.59203210	 11.20084029	 29.11498899
Pt	 69.59203210	 11.20084029	 32.02648789
Pt	 69.59203210	 11.20084029	 34.93798679
Pt	 69.59203210	 11.20084029	 37.84948569
Pt	 97.30141035	 2.24016806	 -24.74774064
Pt	 97.30141035	 2.24016806	 -21.83624174
Pt	 97.30141035	 2.24016806	 -18.92474284
Pt	 97.30141035	 2.24016806	 -16.01324394
Pt	 97.30141035	 2.24016806	 -13.10174505
Pt	 97.30141035	 2.24016806	 -10.19024615
Pt	 97.30141035	 2.24016806	 -7.27874725
Pt	 97.30141035	 2.24016806	 -4.36724835
Pt	 97.30141035	 2.24016806	 -1.45574945
Pt	 97.30141035	 2.24016806	 1.45574945
Pt	 97.30141035	 2.24016806	 4.36724835
Pt	 97.30141035	 2.24016806	 7.27874725
Pt	 97.30141035	 2.24016806	 10.19024615
Pt	 97.30141035	 2.24016806	 13.10174505
Pt	 97.30141035	 2.24016806	 16.01324394
Pt	 97.30141035	 2.24016806	 18.92474284
Pt	 97.30141035	 2.24016806	 21.83624174
Pt	 97.30141035	 2.24016806	 24.74774064
Pt	 63.25355056	 13.44100834	 -40.76098458
Pt	 63.25355056	 13.44100834	 -37.84948569
Pt	 63.25355056	 13.44100834	 -34.93798679
Pt	 63.25355056	 13.44100834	 -32.02648789
Pt	 63.25355056	 13.44100834	 -29.11498899
Pt	 63.25355056	 13.44100834	 -26.20349009
Pt	 63.25355056	 13.44100834	 -23.29199119
Pt	 63.25355056	 13.44100834	 -20.38049229
Pt	 63.25355056	 13.44100834	 -17.46899339
Pt	 63.25355056	 13.44100834	 -14.55749449
Pt	 63.25355056	 13.44100834	 -11.64599560
Pt	 63.25355056	 13.44100834	 -8.73449670
Pt	 63.25355056	 13.44100834	 -5.82299780
Pt	 63.25355056	 13.44100834	 -2.91149890
Pt	 63.25355056	 13.44100834	 -0.00000000
Pt	 63.25355056	 13.44100834	 2.91149890
Pt	 63.25355056	 13.44100834	 5.82299780
Pt	 63.25355056	 13.44100834	 8.73449670
Pt	 63.25355056	 13.44100834	 11.64599560
Pt	 63.25355056	 13.44100834	 14.55749449
Pt	 63.25355056	 13.44100834	 17.46899339
Pt	 63.25355056	 13.44100834	 20.38049229
Pt	 63.25355056	 13.44100834	 23.29199119
Pt	 63.25355056	 13.44100834	 26.20349009
Pt	 63.25355056	 13.44100834	 29.11498899
Pt	 63.25355056	 13.44100834	 32.02648789
Pt	 63.25355056	 13.44100834	 34.93798679
Pt	 63.25355056	 13.44100834	 37.84948569
Pt	 63.25355056	 13.44100834	 40.76098458
Pt	 90.96292881	 4.48033611	 -27.65923954
Pt	 90.96292881	 4.48033611	 -24.74774064
Pt	 90.96292881	 4.48033611	 -21.83624174
Pt	 90.96292881	 4.48033611	 -18.92474284
Pt	 90.96292881	 4.48033611	 -16.01324394
Pt	 90.96292881	 4.48033611	 -13.10174505
Pt	 90.96292881	 4.48033611	 -10.19024615
Pt	 90.96292881	 4.48033611	 -7.27874725
Pt	 90.96292881	 4.48033611	 -4.36724835
Pt	 90.96292881	 4.48033611	 -1.45574945
Pt	 90.96292881	 4.48033611	 1.45574945
Pt	 90.96292881	 4.48033611	 4.36724835
Pt	 90.96292881	 4.48033611	 7.27874725
Pt	 90.96292881	 4.48033611	 10.19024615
Pt	 90.96292881	 4.48033611	 13.10174505
Pt	 90.96292881	 4.48033611	 16.01324394
Pt	 90.96292881	 4.48033611	 18.92474284
Pt	 90.96292881	 4.48033611	 21.83624174
Pt	 90.96292881	 4.48033611	 24.74774064
Pt	 90.96292881	 4.48033611	 27.65923954
Pt	 56.91506902	 15.68117640	 -43.67248348
Pt	 56.91506902	 15.68117640	 -40.76098458
Pt	 56.91506902	 15.68117640	 -37.84948569
Pt	 56.91506902	 15.68117640	 -34.93798679
Pt	 56.91506902	 15.68117640	 -32.02648789
Pt	 56.91506902	 15.68117640	 -29.11498899
Pt	 56.91506902	 15.68117640	 -26.20349009
Pt	 56.91506902	 15.68117640	 -23.29199119
Pt	 56.91506902	 15.68117640	 -20.38049229
Pt	 56.91506902	 15.68117640	 -17.46899339
Pt	 56.91506902	 15.68117640	 -14.55749449
Pt	 56.91506902	 15.68117640	 -11.64599560
Pt	 56.91506902	 15.68117640	 -8.73449670
Pt	 56.91506902	 15.68117640	 -5.82299780
Pt	 56.91506902	 15.68117640	 -2.91149890
Pt	 56.91506902	 15.68117640	 -0.00000000
Pt	 56.91506902	 15.68117640	 2.91149890
Pt	 56.91506902	 15.68117640	 5.82299780
Pt	 56.91506902	 15.68117640	 8.73449670
Pt	 56.91506902	 15.68117640	 11.64599560
Pt	 56.91506902	 15.68117640	 14.55749449
Pt	 56.91506902	 15.68117640	 17.46899339
Pt	 56.91506902	 15.68117640	 20.38049229
Pt	 56.91506902	 15.68117640	 23.29199119
Pt	 56.91506902	 15.68117640	 26.20349009
Pt	 56.91506902	 15.68117640	 29.11498899
Pt	 56.91506902	 15.68117640	 32.02648789
Pt	 56.91506902	 15.68117640	 34.93798679
Pt	 56.91506902	 15.68117640	 37.84948569
Pt	 56.91506902	 15.68117640	 40.76098458
Pt	 56.91506902	 15.68117640	 43.67248348
Pt	 84.62444727	 6.72050417	 -30.57073844
Pt	 84.62444727	 6.72050417	 -27.65923954
Pt	 84.62444727	 6.72050417	 -24.74774064
Pt	 84.62444727	 6.72050417	 -21.83624174
Pt	 84.62444727	 6.72050417	 -18.92474284
Pt	 84.62444727	 6.72050417	 -16.01324394
Pt	 84.62444727	 6.72050417	 -13.10174505
Pt	 84.62444727	 6.72050417	 -10.19024615
Pt	 84.62444727	 6.72050417	 -7.27874725
Pt	 84.62444727	 6.72050417	 -4.36724835
Pt	 84.62444727	 6.72050417	 -1.45574945
Pt	 84.62444727	 6.72050417	 1.45574945
Pt	 84.62444727	 6.72050417	 4.36724835
Pt	 84.62444727	 6.72050417	 7.27874725
Pt	 84.62444727	 6.72050417	 10.19024615
Pt	 84.62444727	 6.72050417	 13.10174505
Pt	 84.62444727	 6.72050417	 16.01324394
Pt	 84.62444727	 6.72050417	 18.92474284
Pt	 84.62444727	 6.72050417	 21.83624174
Pt	 84.62444727	 6.72050417	 24.74774064
Pt	 84.62444727	 6.72050417	 27.65923954
Pt	 84.62444727	 6.72050417	 30.57073844
Pt	 50.57658748	 17.92134446	 -46.58398238
Pt	 50.57658748	 17.92134446	 -43.67248348
Pt	 50.57658748	 17.92134446	 -40.76098458
Pt	 50.57658748	 17.92134446	 -37.84948569
Pt	 50.57658748	 17.92134446	 -34.93798679
Pt	 50.57658748	 17.92134446	 -32.02648789
Pt	 50.57658748	 17.92134446	 -29.11498899
Pt	 50.57658748	 17.92134446	 -26.20349009
Pt	 50.57658748	 17.92134446	 -23.29199119
Pt	 50.57658748	 17.92134446	 -20.38049229
Pt	 50.57658748	 17.92134446	 -17.46899339
Pt	 50.57658748	 17.92134446	 -14.55749449
Pt	 50.57658748	 17.92134446	 -11.64599560
Pt	 50.57658748	 17.92134446	 -8.73449670
Pt	 50.57658748	 17.92134446	 -5.82299780
Pt	 50.57658748	 17.92134446	 -2.91149890
Pt	 50.57658748	 17.92134446	 -0.00000000
Pt	 50.57658748	 17.92134446	 2.91149890
Pt	 50.57658748	 17.92134446	 5.82299780
Pt	 50.57658748	 17.92134446	 8.73449670
Pt	 50.57658748	 17.92134446	 11.64599560
Pt	 50.57658748	 17.92134446	 14.55749449
Pt	 50.57658748	 17.92134446	 17.46899339
Pt	 50.57658748	 17.92134446	 20.38049229
Pt	 50.57658748	 17.92134446	 23.29199119
Pt	 50.57658748	 17.92134446	 26.20349009
Pt	 50.57658748	 17.92134446	 29.11498899
Pt	 50.57658748	 17.92134446	 32.02648789
Pt	 50.57658748	 17.92134446	 34.93798679
Pt	 50.57658748	 17.92134446	 37.84948569
Pt	 50.57658748	 17.92134446	 40.76098458
Pt	 50.57658748	 17.92134446	 43.67248348
Pt	 50.57658748	 17.92134446	 46.58398238
Pt	 78.28596573	 8.96067223	 -33.48223734
Pt	 78.28596573	 8.96067223	 -30.57073844
Pt	 78.28596573	 8.96067223	 -27.65923954
Pt	 78.28596573	 8.96067223	 -24.74774064
Pt	 78.28596573	 8.96067223	 -21.83624174
Pt	 78.28596573	 8.96067223	 -18.92474284
Pt	 78.28596573	 8.96067223	 -16.01324394
Pt	 78.28596573	 8.96067223	 -13.10174505
Pt	 78.28596573	 8.96067223	 -10.19024615
Pt	 78.28596573	 8.96067223	 -7.27874725
Pt	 78.28596573	 8.96067223	 -4.36724835
Pt	 78.28596573	 8.96067223	 -1.45574945
Pt	 78.28596573	 8.96067223	 1.45574945
Pt	 78.28596573	 8.96067223	 4.36724835
Pt	 78.28596573	 8.96067223	 7.27874725
Pt	 78.28596573	 8.96067223	 10.19024615
Pt	 78.28596573	 8.96067223	 13.10174505
Pt	 78.28596573	 8.96067223	 16.01324394
Pt	 78.28596573	 8.96067223	 18.92474284
Pt	 78.28596573	 8.96067223	 21.83624174
Pt	 78.28596573	 8.96067223	 24.74774064
Pt	 78.28596573	 8.96067223	 27.65923954
Pt	 78.28596573	 8.96067223	 30.57073844
Pt	 78.28596573	 8.96067223	 33.48223734
Pt	 105.99534397	 0.00000000	 -20.38049229
Pt	 105.99534397	 0.00000000	 -17.46899339
Pt	 105.99534397	 0.00000000	 -14.55749449
Pt	 105.99534397	 0.00000000	 -11.64599560
Pt	 105.99534397	 0.00000000	 -8.73449670
Pt	 105.99534397	 0.00000000	 -5.82299780
Pt	 105.99534397	 0.00000000	 -2.91149890
Pt	 105.99534397	 0.00000000	 0.00000000
Pt	 105.99534397	 0.00000000	 2.91149890
Pt	 105.99534397	 0.00000000	 5.82299780
Pt	 105.99534397	 0.00000000	 8.73449670
Pt	 105.99534397	 0.00000000	 11.64599560
Pt	 105.99534397	 0.00000000	 14.55749449
Pt	 105.99534397	 0.00000000	 17.46899339
Pt	 105.99534397	 0.00000000	 20.38049229
Pt	 71.94748419	 11.20084029	 -36.39373624
Pt	 71.94748419	 11.20084029	 -33.48223734
Pt	 71.94748419	 11.20084029	 -30.57073844
Pt	 71.94748419	 11.20084029	 -27.65923954
Pt	 71.94748419	 11.20084029	 -24.74774064
Pt	 71.94748419	 11.20084029	 -21.83624174
Pt	 71.94748419	 11.20084029	 -18.92474284
Pt	 71.94748419	 11.20084029	 -16.01324394
Pt	 71.94748419	 11.20084029	 -13.10174505
Pt	 71.94748419	 11.20084029	 -10.19024615
Pt	 71.94748419	 11.20084029	 -7.27874725
Pt	 71.94748419	 11.20084029	 -4.36724835
Pt	 71.94748419	 11.20084029	 -1.45574945
Pt	 71.94748419	 11.20084029	 1.45574945
Pt	 71.94748419	 11.20084029	 4.36724835
Pt	 71.94748419	 11.20084029	 7.27874725
Pt	 71.94748419	 11.20084029	 10.19024615
Pt	 71.94748419	 11.20084029	 13.10174505
Pt	 71.94748419	 11.20084029	 16.01324394
Pt	 71.94748419	 11.20084029	 18.92474284
Pt	 71.94748419	 11.20084029	 21.83624174
Pt	 71.94748419	 11.20084029	 24.74774064
Pt	 71.94748419	 11.20084029	 27.65923954
Pt	 71.94748419	 11.20084029	 30.57073844
Pt	 71.94748419	 11.20084029	 33.48223734
Pt	 71.94748419	 11.20084029	 36.39373624
Pt	 99.65686243	 2.24016806	 -23.29199119
Pt	 99.65686243	 2.24016806	 -20.38049229
Pt	 99.65686243	 2.24016806	 -17.46899339
Pt	 99.65686243	 2.24016806	 -14.55749449
Pt	 99.65686243	 2.24016806	 -11.64599560
Pt	 99.65686243	 2.24016806	 -8.73449670
Pt	 99.65686243	 2.24016806	 -5.82299780
Pt	 99.65686243	 2.24016806	 -2.91149890
Pt	 99.65686243	 2.24016806	 0.00000000
Pt	 99.65686243	 2.24016806	 2.91149890
Pt	 99.65686243	 2.24016806	 5.82299780
Pt	 99.65686243	 2.24016806	 8.73449670
Pt	 99.65686243	 2.24016806	 11.64599560
Pt	 99.65686243	 2.24016806	 14.55749449
Pt	 99.65686243	 2.24016806	 17.46899339
Pt	 99.65686243	 2.24016806	 20.38049229
Pt	 99.65686243	 2.24016806	 23.29199119
Pt	 65.60900264	 13.44100834	 -39.30523514
Pt	 65.60900264	 13.44100834	 -36.39373624
Pt	 65.60900264	 13.44100834	 -33.48223734
Pt	 65.60900264	 13.44100834	 -30.57073844
Pt	 65.60900264	 13.44100834	 -27.65923954
Pt	 65.60900264	 13.44100834	 -24.74774064
Pt	 65.60900264	 13.44100834	 -21.83624174
Pt	 65.60900264	 13.44100834	 -18.92474284
Pt	 65.60900264	 13.44100834	 -16.01324394
Pt	 65.60900264	 13.44100834	 -13.10174505
Pt	 65.60900264	 13.44100834	 -10.19024615
Pt	 65.60900264	 13.44100834	 -7.27874725
Pt	 65.60900264	 13.44100834	 -4.36724835
Pt	 65.60900264	 13.44100834	 -1.45574945
Pt	 65.60900264	 13.44100834	 1.45574945
Pt	 65.60900264	 13.44100834	 4.36724835
Pt	 65.60900264	 13.44100834	 7.27874725
Pt	 65.60900264	 13.44100834	 10.19024615
Pt	 65.60900264	 13.44100834	 13.10174505
Pt	 65.60900264	 13.44100834	 16.01324394
Pt	 65.60900264	 13.44100834	 18.92474284
Pt	 65.60900264	 13.44100834	 21.83624174
Pt	 65.60900264	 13.44100834	 24.74774064
Pt	 65.60900264	 13.44100834	 27.65923954
Pt	 65.60900264	 13.44100834	 30.57073844
Pt	 65.60900264	 13.44100834	 33.48223734
Pt	 65.60900264	 13.44100834	 36.39373624
Pt	 65.60900264	 13.44100834	 39.30523514
Pt	 93.31838089	 4.48033611	 -26.20349009
Pt	 93.31838089	 4.48033611	 -23.29199119
Pt	 93.31838089	 4.48033611	 -20.38049229
Pt	 93.31838089	 4.48033611	 -17.46899339
Pt	 93.31838089	 4.48033611	 -14.55749449
Pt	 93.31838089	 4.48033611	 -11.64599560
Pt	 93.31838089	 4.48033611	 -8.73449670
Pt	 93.31838089	 4.48033611	 -5.82299780
Pt	 93.31838089	 4.48033611	 -2.91149890
Pt	 93.31838089	 4.48033611	 -0.00000000
Pt	 93.31838089	 4.48033611	 2.91149890
Pt	 93.31838089	 4.48033611	 5.82299780
Pt	 93.31838089	 4.48033611	 8.73449670
Pt	 93.31838089	 4.48033611	 11.64599560
Pt	 93.31838089	 4.48033611	 14.55749449
Pt	 93.31838089	 4.48033611	 17.46899339
Pt	 93.31838089	 4.48033611	 20.38049229
Pt	 93.31838089	 4.48033611	 23.29199119
Pt	 93.31838089	 4.48033611	 26.20349009
Pt	 59.27052110	 15.68117640	 -42.21673403
Pt	 59.27052110	 15.68117640	 -39.30523514
Pt	 59.27052110	 15.68117640	 -36.39373624
Pt	 59.27052110	 15.68117640	 -33.48223734
Pt	 59.27052110	 15.68117640	 -30.57073844
Pt	 59.27052110	 15.68117640	 -27.65923954
Pt	 59.27052110	 15.68117640	 -24.74774064
Pt	 59.27052110	 15.68117640	 -21.83624174
Pt	 59.27052110	 15.68117640	 -18.92474284
Pt	 59.27052110	 15.68117640	 -16.01324394
Pt	 59.27052110	 15.68117640	 -13.10174505
Pt	 59.27052110	 15.68117640	 -10.19024615
Pt	 59.27052110	 15.68117640	 -7.27874725
Pt	 59.27052110	 15.68117640	 -4.36724835
Pt	 59.27052110	 15.68117640	 -1.45574945
Pt	 59.27052110	 15.68117640	 1.45574945
Pt	 59.27052110	 15.68117640	 4.36724835
Pt	 59.27052110	 15.68117640	 7.27874725
Pt	 59.27052110	 15.68117640	 10.19024615
Pt	 59.27052110	 15.68117640	 13.10174505
Pt	 59.27052110	 15.68117640	 16.01324394
Pt	 59.27052110	 15.68117640	 18.92474284
Pt	 59.27052110	 15.68117640	 21.83624174
Pt	 59.27052110	 15.68117640	 24.74774064
Pt	 59.27052110	 15.68117640	 27.65923954
Pt	 59.27052110	 15.68117640	 30.57073844
Pt	 59.27052110	 15.68117640	 33.48223734
Pt	 59.27052110	 15.68117640	 36.39373624
Pt	 59.27052110	 15.68117640	 39.30523514
Pt	 59.27052110	 15.68117640	 42.21673403
Pt	 86.97989935	 6.72050417	 -29.11498899
Pt	 86.97989935	 6.72050417	 -26.20349009
Pt	 86.97989935	 6.72050417	 -23.29199119
Pt	 86.97989935	 6.72050417	 -20.38049229
Pt	 86.97989935	 6.72050417	 -17.46899339
Pt	 86.97989935	 6.72050417	 -14.55749449
Pt	 86.97989935	 6.72050417	 -11.64599560
Pt	 86.97989935	 6.72050417	 -8.73449670
Pt	 86.97989935	 6.72050417	 -5.82299780
Pt	 86.97989935	 6.72050417	 -2.91149890
Pt	 86.97989935	 6.72050417	 -0.00000000
Pt	 86.97989935	 6.72050417	 2.91149890
Pt	 86.97989935	 6.72050417	 5.82299780
Pt	 86.97989935	 6.72050417	 8.73449670
Pt	 86.97989935	 6.72050417	 11.64599560
Pt	 86.97989935	 6.72050417	 14.55749449
Pt	 86.97989935	 6.72050417	 17.46899339
Pt	 86.97989935	 6.72050417	 20.38049229
Pt	 86.97989935	 6.72050417	 23.29199119
Pt	 86.97989935	 6.72050417	 26.20349009
Pt	 86.97989935	 6.72050417	 29.11498899
Pt	 52.93203956	 17.92134446	 -45.12823293
Pt	 52.93203956	 17.92134446	 -42.21673403
Pt	 52.93203956	 17.92134446	 -39.30523514
Pt	 52.93203956	 17.92134446	 -36.39373624
Pt	 52.93203956	 17.92134446	 -33.48223734
Pt	 52.93203956	 17.92134446	 -30.57073844
Pt	 52.93203956	 17.92134446	 -27.65923954
Pt	 52.93203956	 17.92134446	 -24.74774064
Pt	 52.93203956	 17.92134446	 -21.83624174
Pt	 52.93203956	 17.92134446	 -18.92474284
Pt	 52.93203956	 17.92134446	 -16.01324394
Pt	 52.93203956	 17.92134446	 -13.10174505
Pt	 52.93203956	 17.92134446	 -10.19024615
Pt	 52.93203956	 17.92134446	 -7.27874725
Pt	 52.93203956	 17.92134446	 -4.36724835
Pt	 52.93203956	 17.92134446	 -1.45574945
Pt	 52.93203956	 17.92134446	 1.45574945
Pt	 52.93203956	 17.92134446	 4.36724835
Pt	 52.93203956	 17.92134446	 7.27874725
Pt	 52.93203956	 17.92134446	 10.19024615
Pt	 52.93203956	 17.92134446	 13.10174505
Pt	 52.93203956	 17.92134446	 16.01324394
Pt	 52.93203956	 17.92134446	 18.92474284
Pt	 52.93203956	 17.92134446	 21.83624174
Pt	 52.93203956	 17.92134446	 24.74774064
Pt	 52.93203956	 17.92134446	 27.65923954
Pt	 52.93203956	 17.92134446	 30.57073844
Pt	 52.93203956	 17.92134446	 33.48223734
Pt	 52.93203956	 17.92134446	 36.39373624
Pt	 52.93203956	 17.92134446	 39.30523514
Pt	 52.93203956	 17.92134446	 42.21673403
Pt	 52.93203956	 17.92134446	 45.12823293
Pt	 80.64141781	 8.96067223	 -32.02648789
Pt	 80.64141781	 8.96067223	 -29.11498899
Pt	 80.64141781	 8.96067223	 -26.20349009
Pt	 80.64141781	 8.96067223	 -23.29199119
Pt	 80.64141781	 8.96067223	 -20.38049229
Pt	 80.64141781	 8.96067223	 -17.46899339
Pt	 80.64141781	 8.96067223	 -14.55749449
Pt	 80.64141781	 8.96067223	 -11.64599560
Pt	 80.64141781	 8.96067223	 -8.73449670
Pt	 80.64141781	 8.96067223	 -5.82299780
Pt	 80.64141781	 8.96067223	 -2.91149890
Pt	 80.64141781	 8.96067223	 -0.00000000
Pt	 80.64141781	 8.96067223	 2.91149890
Pt	 80.64141781	 8.96067223	 5.82299780
Pt	 80.64141781	 8.96067223	 8.73449670
Pt	 80.64141781	 8.96067223	 11.64599560
Pt	 80.64141781	 8.96067223	 14.55749449
Pt	 80.64141781	 8.96067223	 17.46899339
Pt	 80.64141781	 8.96067223	 20.38049229
Pt	 80.64141781	 8.96067223	 23.29199119
Pt	 80.64141781	 8.96067223	 26.20349009
Pt	 80.64141781	 8.96067223	 29.11498899
Pt	 80.64141781	 8.96067223	 32.02648789
Pt	 108.35079606	 0.00000000	 -18.92474284
Pt	 108.35079606	 0.00000000	 -16.01324394
Pt	 108.35079606	 0.00000000	 -13.10174505
Pt	 108.35079606	 0.00000000	 -10.19024615
Pt	 108.35079606	 0.00000000	 -7.27874725
Pt	 108.35079606	 0.00000000	 -4.36724835
Pt	 108.35079606	 0.00000000	 -1.45574945
Pt	 108.35079606	 0.00000000	 1.45574945
Pt	 108.35079606	 0.00000000	 4.36724835
Pt	 108.35079606	 0.00000000	 7.27874725
Pt	 108.35079606	 0.00000000	 10.19024615
Pt	 108.35079606	 0.00000000	 13.10174505
Pt	 108.35079606	 0.00000000	 16.01324394
Pt	 108.35079606	 0.00000000	 18.92474284
Pt	 74.30293627	 11.20084029	 -34.93798679
Pt	 74.30293627	 11.20084029	 -32.02648789
Pt	 74.30293627	 11.20084029	 -29.11498899
Pt	 74.30293627	 11.20084029	 -26.20349009
Pt	 74.30293627	 11.20084029	 -23.29199119
Pt	 74.30293627	 11.20084029	 -20.38049229
Pt	 74.30293627	 11.20084029	 -17.46899339
Pt	 74.30293627	 11.20084029	 -14.55749449
Pt	 74.30293627	 11.20084029	 -11.64599560
Pt	 74.30293627	 11.20084029	 -8.73449670
Pt	 74.30293627	 11.20084029	 -5.82299780
Pt	 74.30293627	 11.20084029	 -2.91149890
Pt	 74.30293627	 11.20084029	 0.00000000
Pt	 74.30293627	 11.20084029	 2.91149890
Pt	 74.30293627	 11.20084029	 5.82299780
Pt	 74.30293627	 11.20084029	 8.73449670
Pt	 74.30293627	 11.20084029	 11.64599560
Pt	 74.30293627	 11.20084029	 14.55749449
Pt	 74.30293627	 11.20084029	 17.46899339
Pt	 74.30293627	 11.20084029	 20.38049229
Pt	 74.30293627	 11.20084029	 23.29199119
Pt	 74.30293627	 11.20084029	 26.20349009
Pt	 74.30293627	 11.20084029	 29.11498899
Pt	 74.30293627	 11.20084029	 32.02648789
Pt	 74.30293627	 11.20084029	 34.93798679
Pt	 102.01231452	 2.24016806	 -21.83624174
Pt	 102.01231452	 2.24016806	 -18.92474284
Pt	 102.01231452	 2.24016806	 -16.01324394
Pt	 102.01231452	 2.24016806	 -13.10174505
Pt	 102.01231452	 2.24016806	 -10.19024615
Pt	 102.01231452	 2.24016806	 -7.27874725
Pt	 102.01231452	 2.24016806	 -4.36724835
Pt	 102.01231452	 2.24016806	 -1.45574945
Pt	 102.01231452	 2.24016806	 1.45574945
Pt	 102.01231452	 2.24016806	 4.36724835
Pt	 102.01231452	 2.24016806	 7.27874725
Pt	 102.01231452	 2.24016806	 10.19024615
Pt	 102.01231452	 2.24016806	 13.10174505
Pt	 102.01231452	 2.24016806	 16.01324394
Pt	 102.01231452	 2.24016806	 18.92474284
Pt	 102.01231452	 2.24016806	 21.83624174
Pt	 67.96445473	 13.44100834	 -37.84948569
Pt	 67.96445473	 13.44100834	 -34.93798679
Pt	 67.96445473	 13.44100834	 -32.02648789
Pt	 67.96445473	 13.44100834	 -29.11498899
Pt	 67.96445473	 13.44100834	 -26.20349009
Pt	 67.96445473	 13.44100834	 -23.29199119
Pt	 67.96445473	 13.44100834	 -20.38049229
Pt	 67.96445473	 13.44100834	 -17.46899339
Pt	 67.96445473	 13.44100834	 -14.55749449
Pt	 67.96445473	 13.44100834	 -11.64599560
Pt	 67.96445473	 13.44100834	 -8.73449670
Pt	 67.96445473	 13.44100834	 -5.82299780
Pt	 67.96445473	 13.44100834	 -2.91149890
Pt	 67.96445473	 13.44100834	 -0.00000000
Pt	 67.96445473	 13.44100834	 2.91149890
Pt	 67.96445473	 13.44100834	 5.82299780
Pt	 67.96445473	 13.44100834	 8.73449670
Pt	 67.96445473	 13.44100834	 11.64599560
Pt	 67.96445473	 13.44100834	 14.55749449
Pt	 67.96445473	 13.44100834	 17.46899339
Pt	 67.96445473	 13.44100834	 20.38049229
Pt	 67.96445473	 13.44100834	 23.29199119
Pt	 67.96445473	 13.44100834	 26.20349009
Pt	 67.96445473	 13.44100834	 29.11498899
Pt	 67.96445473	 13.44100834	 32.02648789
Pt	 67.96445473	 13.44100834	 34.93798679
Pt	 67.96445473	 13.44100834	 37.84948569
Pt	 95.67383298	 4.48033611	 -24.74774064
Pt	 95.67383298	 4.48033611	 -21.83624174
Pt	 95.67383298	 4.48033611	 -18.92474284
Pt	 95.67383298	 4.48033611	 -16.01324394
Pt	 95.67383298	 4.48033611	 -13.10174505
Pt	 95.67383298	 4.48033611	 -10.19024615
Pt	 95.67383298	 4.48033611	 -7.27874725
Pt	 95.67383298	 4.48033611	 -4.36724835
Pt	 95.67383298	 4.48033611	 -1.45574945
Pt	 95.67383298	 4.48033611	 1.45574945
Pt	 95.67383298	 4.48033611	 4.36724835
Pt	 95.67383298	 4.48033611	 7.27874725
Pt	 95.67383298	 4.48033611	 10.19024615
Pt	 95.67383298	 4.48033611	 13.10174505
Pt	 95.67383298	 4.48033611	 16.01324394
Pt	 95.67383298	 4.48033611	 18.92474284
Pt	 95.67383298	 4.48033611	 21.83624174
Pt	 95.67383298	 4.48033611	 24.74774064
Pt	 61.62597319	 15.68117640	 -40.76098458
Pt	 61.62597319	 15.68117640	 -37.84948569
Pt	 61.62597319	 15.68117640	 -34.93798679
Pt	 61.62597319	 15.68117640	 -32.02648789
Pt	 61.62597319	 15.68117640	 -29.11498899
Pt	 61.62597319	 15.68117640	 -26.20349009
Pt	 61.62597319	 15.68117640	 -23.29199119
Pt	 61.62597319	 15.68117640	 -20.38049229
Pt	 61.62597319	 15.68117640	 -17.46899339
Pt	 61.62597319	 15.68117640	 -14.55749449
Pt	 61.62597319	 15.68117640	 -11.64599560
Pt	 61.62597319	 15.68117640	 -8.73449670
Pt	 61.62597319	 15.68117640	 -5.82299780
Pt	 61.62597319	 15.68117640	 -2.91149890
Pt	 61.62597319	 15.68117640	 -0.00000000
Pt	 61.62597319	 15.68117640	 2.91149890
Pt	 61.62597319	 15.68117640	 5.82299780
Pt	 61.62597319	 15.68117640	 8.73449670
Pt	 61.62597319	 15.68117640	 11.64599560
Pt	 61.62597319	 15.68117640	 14.55749449
Pt	 61.62597319	 15.68117640	 17.46899339
Pt	 61.62597319	 15.68117640	 20.38049229
Pt	 61.62597319	 15.68117640	 23.29199119
Pt	 61.62597319	 15.68117640	 26.20349009
Pt	 61.62597319	 15.68117640	 29.11498899
Pt	 61.62597319	 15.68117640	 32.02648789
Pt	 61.62597319	 15.68117640	 34.93798679
Pt	 61.62597319	 15.68117640	 37.84948569
Pt	 61.62597319	 15.68117640	 40.76098458
Pt	 89.33535144	 6.72050417	 -27.65923954
Pt	 89.33535144	 6.72050417	 -24.74774064
Pt	 89.33535144	 6.72050417	 -21.83624174
Pt	 89.33535144	 6.72050417	 -18.92474284
Pt	 89.33535144	 6.72050417	 -16.01324394
Pt	 89.33535144	 6.72050417	 -13.10174505
Pt	 89.33535144	 6.72050417	 -10.19024615
Pt	 89.33535144	 6.72050417	 -7.27874725
Pt	 89.33535144	 6.72050417	 -4.36724835
Pt	 89.33535144	 6.72050417	 -1.45574945
Pt	 89.33535144	 6.72050417	 1.45574945
Pt	 89.33535144	 6.72050417	 4.36724835
Pt	 89.33535144	 6.72050417	 7.27874725
Pt	 89.33535144	 6.72050417	 10.19024615
Pt	 89.33535144	 6.72050417	 13.10174505
Pt	 89.33535144	 6.72050417	 16.01324394
Pt	 89.33535144	 6.72050417	 18.92474284
Pt	 89.33535144	 6.72050417	 21.83624174
Pt	 89.33535144	 6.72050417	 24.74774064
Pt	 89.33535144	 6.72050417	 27.65923954
Pt	 55.28749165	 17.92134446	 -43.67248348
Pt	 55.28749165	 17.92134446	 -40.76098458
Pt	 55.28749165	 17.92134446	 -37.84948569
Pt	 55.28749165	 17.92134446	 -34.93798679
Pt	 55.28749165	 17.92134446	 -32.02648789
Pt	 55.28749165	 17.92134446	 -29.11498899
Pt	 55.28749165	 17.92134446	 -26.20349009
Pt	 55.28749165	 17.92134446	 -23.29199119
Pt	 55.28749165	 17.92134446	 -20.38049229
Pt	 55.28749165	 17.92134446	 -17.46899339
Pt	 55.28749165	 17.92134446	 -14.55749449
Pt	 55.28749165	 17.92134446	 -11.64599560
Pt	 55.28749165	 17.92134446	 -8.73449670
Pt	 55.28749165	 17.92134446	 -5.82299780
Pt	 55.28749165	 17.92134446	 -2.91149890
Pt	 55.28749165	 17.92134446	 -0.00000000
Pt	 55.28749165	 17.92134446	 2.91149890
Pt	 55.28749165	 17.92134446	 5.82299780
Pt	 55.28749165	 17.92134446	 8.73449670
Pt	 55.28749165	 17.92134446	 11.64599560
Pt	 55.28749165	 17.92134446	 14.55749449
Pt	 55.28749165	 17.92134446	 17.46899339
Pt	 55.28749165	 17.92134446	 20.38049229
Pt	 55.28749165	 17.92134446	 23.29199119
Pt	 55.28749165	 17.92134446	 26.20349009
Pt	 55.28749165	 17.92134446	 29.11498899
Pt	 55.28749165	 17.92134446	 32.02648789
Pt	 55.28749165	 17.92134446	 34.93798679
Pt	 55.28749165	 17.92134446	 37.84948569
Pt	 55.28749165	 17.92134446	 40.76098458
Pt	 55.28749165	 17.92134446	 43.67248348
Pt	 82.99686990	 8.96067223	 -30.57073844
Pt	 82.99686990	 8.96067223	 -27.65923954
Pt	 82.99686990	 8.96067223	 -24.74774064
Pt	 82.99686990	 8.96067223	 -21.83624174
Pt	 82.99686990	 8.96067223	 -18.92474284
Pt	 82.99686990	 8.96067223	 -16.01324394
Pt	 82.99686990	 8.96067223	 -13.10174505
Pt	 82.99686990	 8.96067223	 -10.19024615
Pt	 82.99686990	 8.96067223	 -7.27874725
Pt	 82.99686990	 8.96067223	 -4.36724835
Pt	 82.99686990	 8.96067223	 -1.45574945
Pt	 82.99686990	 8.96067223	 1.45574945
Pt	 82.99686990	 8.96067223	 4.36724835
Pt	 82.99686990	 8.96067223	 7.27874725
Pt	 82.99686990	 8.96067223	 10.19024615
Pt	 82.99686990	 8.96067223	 13.10174505
Pt	 82.99686990	 8.96067223	 16.01324394
Pt	 82.99686990	 8.96067223	 18.92474284
Pt	 82.99686990	 8.96067223	 21.83624174
Pt	 82.99686990	 8.96067223	 24.74774064
Pt	 82.99686990	 8.96067223	 27.65923954
Pt	 82.99686990	 8.96067223	 30.57073844
Pt	 110.70624815	 0.00000000	 -17.46899339
Pt	 110.70624815	 0.00000000	 -14.55749449
Pt	 110.70624815	 0.00000000	 -11.64599560
Pt	 110.70624815	 0.00000000	 -8.73449670
Pt	 110.70624815	 0.00000000	 -5.82299780
Pt	 110.70624815	 0.00000000	 -2.91149890
Pt	 110.70624815	 0.00000000	 0.00000000
Pt	 110.70624815	 0.00000000	 2.91149890
Pt	 110.70624815	 0.00000000	 5.82299780
Pt	 110.70624815	 0.00000000	 8.73449670
Pt	 110.70624815	 0.00000000	 11.64599560
Pt	 110.70624815	 0.00000000	 14.55749449
Pt	 110.70624815	 0.00000000	 17.46899339
Pt	 76.65838836	 11.20084029	 -33.48223734
Pt	 76.65838836	 11.20084029	 -30.57073844
Pt	 76.65838836	 11.20084029	 -27.65923954
Pt	 76.65838836	 11.20084029	 -24.74774064
Pt	 76.65838836	 11.20084029	 -21.83624174
Pt	 76.65838836	 11.20084029	 -18.92474284
Pt	 76.65838836	 11.20084029	 -16.01324394
Pt	 76.65838836	 11.20084029	 -13.10174505
Pt	 76.65838836	 11.20084029	 -10.19024615
Pt	 76.65838836	 11.20084029	 -7.27874725
Pt	 76.65838836	 11.20084029	 -4.36724835
Pt	 76.65838836	 11.20084029	 -1.45574945
Pt	 76.65838836	 11.20084029	 1.45574945
Pt	 76.65838836	 11.20084029	 4.36724835
Pt	 76.65838836	 11.20084029	 7.27874725
Pt	 76.65838836	 11.20084029	 10.19024615
Pt	 76.65838836	 11.20084029	 13.10174505
Pt	 76.65838836	 11.20084029	 16.01324394
Pt	 76.65838836	 11.20084029	 18.92474284
Pt	 76.65838836	 11.20084029	 21.83624174
Pt	 76.65838836	 11.20084029	 24.74774064
Pt	 76.65838836	 11.20084029	 27.65923954
Pt	 76.65838836	 11.20084029	 30.57073844
Pt	 76.65838836	 11.20084029	 33.48223734
Pt	 104.36776661	 2.24016806	 -20.38049229
Pt	 104.36776661	 2.24016806	 -17.46899339
Pt	 104.36776661	 2.24016806	 -14.55749449
Pt	 104.36776661	 2.24016806	 -11.64599560
Pt	 104.36776661	 2.24016806	 -8.73449670
Pt	 104.36776661	 2.24016806	 -5.82299780
Pt	 104.36776661	 2.24016806	 -2.91149890
Pt	 104.36776661	 2.24016806	 0.00000000
Pt	 104.36776661	 2.24016806	 2.91149890
Pt	 104.36776661	 2.24016806	 5.82299780
Pt	 104.36776661	 2.24016806	 8.73449670
Pt	 104.36776661	 2.24016806	 11.64599560
Pt	 104.36776661	 2.24016806	 14.55749449
Pt	 104.36776661	 2.24016806	 17.46899339
Pt	 104.36776661	 2.24016806	 20.38049229
Pt	 70.31990682	 13.44100834	 -36.39373624
Pt	 70.31990682	 13.44100834	 -33.48223734
Pt	 70.31990682	 13.44100834	 -30.57073844
Pt	 70.31990682	 13.44100834	 -27.65923954
Pt	 70.31990682	 13.44100834	 -24.74774064
Pt	 70.31990682	 13.44100834	 -21.83624174
Pt	 70.31990682	 13.44100834	 -18.92474284
Pt	 70.31990682	 13.44100834	 -16.01324394
Pt	 70.31990682	 13.44100834	 -13.10174505
Pt	 70.31990682	 13.44100834	 -10.19024615
Pt	 70.31990682	 13.44100834	 -7.27874725
Pt	 70.31990682	 13.44100834	 -4.36724835
Pt	 70.31990682	 13.44100834	 -1.45574945
Pt	 70.31990682	 13.44100834	 1.45574945
Pt	 70.31990682	 13.44100834	 4.36724835
Pt	 70.31990682	 13.44100834	 7.27874725
Pt	 70.31990682	 13.44100834	 10.19024615
Pt	 70.31990682	 13.44100834	 13.10174505
Pt	 70.31990682	 13.44100834	 16.01324394
Pt	 70.31990682	 13.44100834	 18.92474284
Pt	 70.31990682	 13.44100834	 21.83624174
Pt	 70.31990682	 13.44100834	 24.74774064
Pt	 70.31990682	 13.44100834	 27.65923954
Pt	 70.31990682	 13.44100834	 30.57073844
Pt	 70.31990682	 13.44100834	 33.48223734
Pt	 70.31990682	 13.44100834	 36.39373624
Pt	 98.02928507	 4.48033611	 -23.29199119
Pt	 98.02928507	 4.48033611	 -20.38049229
Pt	 98.02928507	 4.48033611	 -17.46899339
Pt	 98.02928507	 4.48033611	 -14.55749449
Pt	 98.02928507	 4.48033611	 -11.64599560
Pt	 98.02928507	 4.48033611	 -8.73449670
Pt	 98.02928507	 4.48033611	 -5.82299780
Pt	 98.02928507	 4.48033611	 -2.91149890
Pt	 98.02928507	 4.48033611	 0.00000000
Pt	 98.02928507	 4.48033611	 2.91149890
Pt	 98.02928507	 4.48033611	 5.82299780
Pt	 98.02928507	 4.48033611	 8.73449670
Pt	 98.02928507	 4.48033611	 11.64599560
Pt	 98.02928507	 4.48033611	 14.55749449
Pt	 98.02928507	 4.48033611	 17.46899339
Pt	 98.02928507	 4.48033611	 20.38049229
Pt	 98.02928507	 4.48033611	 23.29199119
Pt	 63.98142528	 15.68117640	 -39.30523514
Pt	 63.98142528	 15.68117640	 -36.39373624
Pt	 63.98142528	 15.68117640	 -33.48223734
Pt	 63.98142528	 15.68117640	 -30.57073844
Pt	 63.98142528	 15.68117640	 -27.65923954
Pt	 63.98142528	 15.68117640	 -24.74774064
Pt	 63.98142528	 15.68117640	 -21.83624174
Pt	 63.98142528	 15.68117640	 -18.92474284
Pt	 63.98142528	 15.68117640	 -16.01324394
Pt	 63.98142528	 15.68117640	 -13.10174505
Pt	 63.98142528	 15.68117640	 -10.19024615
Pt	 63.98142528	 15.68117640	 -7.27874725
Pt	 63.98142528	 15.68117640	 -4.36724835
Pt	 63.98142528	 15.68117640	 -1.45574945
Pt	 63.98142528	 15.68117640	 1.45574945
Pt	 63.98142528	 15.68117640	 4.36724835
Pt	 63.98142528	 15.68117640	 7.27874725
Pt	 63.98142528	 15.68117640	 10.19024615
Pt	 63.98142528	 15.68117640	 13.10174505
Pt	 63.98142528	 15.68117640	 16.01324394
Pt	 63.98142528	 15.68117640	 18.92474284
Pt	 63.98142528	 15.68117640	 21.83624174
Pt	 63.98142528	 15.68117640	 24.74774064
Pt	 63.98142528	 15.68117640	 27.65923954
Pt	 63.98142528	 15.68117640	 30.57073844
Pt	 63.98142528	 15.68117640	 33.48223734
Pt	 63.98142528	 15.68117640	 36.39373624
Pt	 63.98142528	 15.68117640	 39.30523514
Pt	 91.69080353	 6.72050417	 -26.20349009
Pt	 91.69080353	 6.72050417	 -23.29199119
Pt	 91.69080353	 6.72050417	 -20.38049229
Pt	 91.69080353	 6.72050417	 -17.46899339
Pt	 91.69080353	 6.72050417	 -14.55749449
Pt	 91.69080353	 6.72050417	 -11.64599560
Pt	 91.69080353	 6.72050417	 -8.73449670
Pt	 91.69080353	 6.72050417	 -5.82299780
Pt	 91.69080353	 6.72050417	 -2.91149890
Pt	 91.69080353	 6.72050417	 0.00000000
Pt	 91.69080353	 6.72050417	 2.91149890
Pt	 91.69080353	 6.72050417	 5.82299780
Pt	 91.69080353	 6.72050417	 8.73449670
Pt	 91.69080353	 6.72050417	 11.64599560
Pt	 91.69080353	 6.72050417	 14.55749449
Pt	 91.69080353	 6.72050417	 17.46899339
Pt	 91.69080353	 6.72050417	 20.38049229
Pt	 91.69080353	 6.72050417	 23.29199119
Pt	 91.69080353	 6.72050417	 26.20349009
Pt	 57.64294374	 17.92134446	 -42.21673403
Pt	 57.64294374	 17.92134446	 -39.30523514
Pt	 57.64294374	 17.92134446	 -36.39373624
Pt	 57.64294374	 17.92134446	 -33.48223734
Pt	 57.64294374	 17.92134446	 -30.57073844
Pt	 57.64294374	 17.92134446	 -27.65923954
Pt	 57.64294374	 17.92134446	 -24.74774064
Pt	 57.64294374	 17.92134446	 -21.83624174
Pt	 57.64294374	 17.92134446	 -18.92474284
Pt	 57.64294374	 17.92134446	 -16.01324394
Pt	 57.64294374	 17.92134446	 -13.10174505
Pt	 57.64294374	 17.92134446	 -10.19024615
Pt	 57.64294374	 17.92134446	 -7.27874725
Pt	 57.64294374	 17.92134446	 -4.36724835
Pt	 57.64294374	 17.92134446	 -1.45574945
Pt	 57.64294374	 17.92134446	 1.45574945
Pt	 57.64294374	 17.92134446	 4.36724835
Pt	 57.64294374	 17.92134446	 7.27874725
Pt	 57.64294374	 17.92134446	 10.19024615
Pt	 57.64294374	 17.92134446	 13.10174505
Pt	 57.64294374	 17.92134446	 16.01324394
Pt	 57.64294374	 17.92134446	 18.92474284
Pt	 57.64294374	 17.92134446	 21.83624174
Pt	 57.64294374	 17.92134446	 24.74774064
Pt	 57.64294374	 17.92134446	 27.65923954
Pt	 57.64294374	 17.92134446	 30.57073844
Pt	 57.64294374	 17.92134446	 33.48223734
Pt	 57.64294374	 17.92134446	 36.39373624
Pt	 57.64294374	 17.92134446	 39.30523514
Pt	 57.64294374	 17.92134446	 42.21673403
Pt	 85.35232199	 8.96067223	 -29.11498899
Pt	 85.35232199	 8.96067223	 -26.20349009
Pt	 85.35232199	 8.96067223	 -23.29199119
Pt	 85.35232199	 8.96067223	 -20.38049229
Pt	 85.35232199	 8.96067223	 -17.46899339
Pt	 85.35232199	 8.96067223	 -14.55749449
Pt	 85.35232199	 8.96067223	 -11.64599560
Pt	 85.35232199	 8.96067223	 -8.73449670
Pt	 85.35232199	 8.96067223	 -5.82299780
Pt	 85.35232199	 8.96067223	 -2.91149890
Pt	 85.35232199	 8.96067223	 0.00000000
Pt	 85.35232199	 8.96067223	 2.91149890
Pt	 85.35232199	 8.96067223	 5.82299780
Pt	 85.35232199	 8.96067223	 8.73449670
Pt	 85.35232199	 8.96067223	 11.64599560
Pt	 85.35232199	 8.96067223	 14.55749449
Pt	 85.35232199	 8.96067223	 17.46899339
Pt	 85.35232199	 8.96067223	 20.38049229
Pt	 85.35232199	 8.96067223	 23.29199119
Pt	 85.35232199	 8.96067223	 26.20349009
Pt	 85.35232199	 8.96067223	 29.11498899
Pt	 113.06170024	 0.00000000	 -16.01324394
Pt	 113.06170024	 0.00000000	 -13.10174505
Pt	 113.06170024	 0.00000000	 -10.19024615
Pt	 113.06170024	 0.00000000	 -7.27874725
Pt	 113.06170024	 0.00000000	 -4.36724835
Pt	 113.06170024	 0.00000000	 -1.45574945
Pt	 113.06170024	 0.00000000	 1.45574945
Pt	 113.06170024	 0.00000000	 4.36724835
Pt	 113.06170024	 0.00000000	 7.27874725
Pt	 113.06170024	 0.00000000	 10.19024615
Pt	 113.06170024	 0.00000000	 13.10174505
Pt	 113.06170024	 0.00000000	 16.01324394
Pt	 79.01384045	 11.20084029	 -32.02648789
Pt	 79.01384045	 11.20084029	 -29.11498899
Pt	 79.01384045	 11.20084029	 -26.20349009
Pt	 79.01384045	 11.20084029	 -23.29199119
Pt	 79.01384045	 11.20084029	 -20.38049229
Pt	 79.01384045	 11.20084029	 -17.46899339
Pt	 79.01384045	 11.20084029	 -14.55749449
Pt	 79.01384045	 11.20084029	 -11.64599560
Pt	 79.01384045	 11.20084029	 -8.73449670
Pt	 79.01384045	 11.20084029	 -5.82299780
Pt	 79.01384045	 11.20084029	 -2.91149890
Pt	 79.01384045	 11.20084029	 0.00000000
Pt	 79.01384045	 11.20084029	 2.91149890
Pt	 79.01384045	 11.20084029	 5.82299780
Pt	 79.01384045	 11.20084029	 8.73449670
Pt	 79.01384045	 11.20084029	 11.64599560
Pt	 79.01384045	 11.20084029	 14.55749449
Pt	 79.01384045	 11.20084029	 17.46899339
Pt	 79.01384045	 11.20084029	 20.38049229
Pt	 79.01384045	 11.20084029	 23.29199119
Pt	 79.01384045	 11.20084029	 26.20349009
Pt	 79.01384045	 11.20084029	 29.11498899
Pt	 79.01384045	 11.20084029	 32.02648789
Pt	 106.72321870	 2.24016806	 -18.92474284
Pt	 106.72321870	 2.24016806	 -16.01324394
Pt	 106.72321870	 2.24016806	 -13.10174505
Pt	 106.72321870	 2.24016806	 -10.19024615
Pt	 106.72321870	 2.24016806	 -7.27874725
Pt	 106.72321870	 2.24016806	 -4.36724835
Pt	 106.72321870	 2.24016806	 -1.45574945
Pt	 106.72321870	 2.24016806	 1.45574945
Pt	 106.72321870	 2.24016806	 4.36724835
Pt	 106.72321870	 2.24016806	 7.27874725
Pt	 106.72321870	 2.24016806	 10.19024615
Pt	 106.72321870	 2.24016806	 13.10174505
Pt	 106.72321870	 2.24016806	 16.01324394
Pt	 106.72321870	 2.24016806	 18.92474284
Pt	 72.67535891	 13.44100834	 -34.93798679
Pt	 72.67535891	 13.44100834	 -32.02648789
Pt	 72.67535891	 13.44100834	 -29.11498899
Pt	 72.67535891	 13.44100834	 -26.20349009
Pt	 72.67535891	 13.44100834	 -23.29199119
Pt	 72.67535891	 13.44100834	 -20.38049229
Pt	 72.67535891	 13.44100834	 -17.46899339
Pt	 72.67535891	 13.44100834	 -14.55749449
Pt	 72.67535891	 13.44100834	 -11.64599560
Pt	 72.67535891	 13.44100834	 -8.73449670
Pt	 72.67535891	 13.44100834	 -5.82299780
Pt	 72.67535891	 13.44100834	 -2.91149890
Pt	 72.67535891	 13.44100834	 0.00000000
Pt	 72.67535891	 13.44100834	 2.91149890
Pt	 72.67535891	 13.44100834	 5.82299780
Pt	 72.67535891	 13.44100834	 8.73449670
Pt	 72.67535891	 13.44100834	 11.64599560
Pt	 72.67535891	 13.44100834	 14.55749449
Pt	 72.67535891	 13.44100834	 17.46899339
Pt	 72.67535891	 13.44100834	 20.38049229
Pt	 72.67535891	 13.44100834	 23.29199119
Pt	 72.67535891	 13.44100834	 26.20349009
Pt	 72.67535891	 13.44100834	 29.11498899
Pt	 72.67535891	 13.44100834	 32.02648789
Pt	 72.67535891	 13.44100834	 34.93798679
Pt	 100.38473716	 4.48033611	 -21.83624174
Pt	 100.38473716	 4.48033611	 -18.92474284
Pt	 100.38473716	 4.48033611	 -16.01324394
Pt	 100.38473716	 4.48033611	 -13.10174505
Pt	 100.38473716	 4.48033611	 -10.19024615
Pt	 100.38473716	 4.48033611	 -7.27874725
Pt	 100.38473716	 4.48033611	 -4.36724835
Pt	 100.38473716	 4.48033611	 -1.45574945
Pt	 100.38473716	 4.48033611	 1.45574945
Pt	 100.38473716	 4.48033611	 4.36724835
Pt	 100.38473716	 4.48033611	 7.27874725
Pt	 100.38473716	 4.48033611	 10.19024615
Pt	 100.38473716	 4.48033611	 13.10174505
Pt	 100.38473716	 4.48033611	 16.01324394
Pt	 100.38473716	 4.48033611	 18.92474284
Pt	 100.38473716	 4.48033611	 21.83624174
Pt	 66.33687737	 15.68117640	 -37.84948569
Pt	 66.33687737	 15.68117640	 -34.93798679
Pt	 66.33687737	 15.68117640	 -32.02648789
Pt	 66.33687737	 15.68117640	 -29.11498899
Pt	 66.33687737	 15.68117640	 -26.20349009
Pt	 66.33687737	 15.68117640	 -23.29199119
Pt	 66.33687737	 15.68117640	 -20.38049229
Pt	 66.33687737	 15.68117640	 -17.46899339
Pt	 66.33687737	 15.68117640	 -14.55749449
Pt	 66.33687737	 15.68117640	 -11.64599560
Pt	 66.33687737	 15.68117640	 -8.73449670
Pt	 66.33687737	 15.68117640	 -5.82299780
Pt	 66.33687737	 15.68117640	 -2.91149890
Pt	 66.33687737	 15.68117640	 -0.00000000
Pt	 66.33687737	 15.68117640	 2.91149890
Pt	 66.33687737	 15.68117640	 5.82299780
Pt	 66.33687737	 15.68117640	 8.73449670
Pt	 66.33687737	 15.68117640	 11.64599560
Pt	 66.33687737	 15.68117640	 14.55749449
Pt	 66.33687737	 15.68117640	 17.46899339
Pt	 66.33687737	 15.68117640	 20.38049229
Pt	 66.33687737	 15.68117640	 23.29199119
Pt	 66.33687737	 15.68117640	 26.20349009
Pt	 66.33687737	 15.68117640	 29.11498899
Pt	 66.33687737	 15.68117640	 32.02648789
Pt	 66.33687737	 15.68117640	 34.93798679
Pt	 66.33687737	 15.68117640	 37.84948569
Pt	 94.04625562	 6.72050417	 -24.74774064
Pt	 94.04625562	 6.72050417	 -21.83624174
Pt	 94.04625562	 6.72050417	 -18.92474284
Pt	 94.04625562	 6.72050417	 -16.01324394
Pt	 94.04625562	 6.72050417	 -13.10174505
Pt	 94.04625562	 6.72050417	 -10.19024615
Pt	 94.04625562	 6.72050417	 -7.27874725
Pt	 94.04625562	 6.72050417	 -4.36724835
Pt	 94.04625562	 6.72050417	 -1.45574945
Pt	 94.04625562	 6.72050417	 1.45574945
Pt	 94.04625562	 6.72050417	 4.36724835
Pt	 94.04625562	 6.72050417	 7.27874725
Pt	 94.04625562	 6.72050417	 10.19024615
Pt	 94.04625562	 6.72050417	 13.10174505
Pt	 94.04625562	 6.72050417	 16.01324394
Pt	 94.04625562	 6.72050417	 18.92474284
Pt	 94.04625562	 6.72050417	 21.83624174
Pt	 94.04625562	 6.72050417	 24.74774064
Pt	 59.99839583	 17.92134446	 -40.76098458
Pt	 59.99839583	 17.92134446	 -37.84948569
Pt	 59.99839583	 17.92134446	 -34.93798679
Pt	 59.99839583	 17.92134446	 -32.02648789
Pt	 59.99839583	 17.92134446	 -29.11498899
Pt	 59.99839583	 17.92134446	 -26.20349009
Pt	 59.99839583	 17.92134446	 -23.29199119
Pt	 59.99839583	 17.92134446	 -20.38049229
Pt	 59.99839583	 17.92134446	 -17.46899339
Pt	 59.99839583	 17.92134446	 -14.55749449
Pt	 59.99839583	 17.92134446	 -11.64599560
Pt	 59.99839583	 17.92134446	 -8.73449670
Pt	 59.99839583	 17.92134446	 -5.82299780
Pt	 59.99839583	 17.92134446	 -2.91149890
Pt	 59.99839583	 17.92134446	 0.00000000
Pt	 59.99839583	 17.92134446	 2.91149890
Pt	 59.99839583	 17.92134446	 5.82299780
Pt	 59.99839583	 17.92134446	 8.73449670
Pt	 59.99839583	 17.92134446	 11.64599560
Pt	 59.99839583	 17.92134446	 14.55749449
Pt	 59.99839583	 17.92134446	 17.46899339
Pt	 59.99839583	 17.92134446	 20.38049229
Pt	 59.99839583	 17.92134446	 23.29199119
Pt	 59.99839583	 17.92134446	 26.20349009
Pt	 59.99839583	 17.92134446	 29.11498899
Pt	 59.99839583	 17.92134446	 32.02648789
Pt	 59.99839583	 17.92134446	 34.93798679
Pt	 59.99839583	 17.92134446	 37.84948569
Pt	 59.99839583	 17.92134446	 40.76098458
Pt	 87.70777408	 8.96067223	 -27.65923954
Pt	 87.70777408	 8.96067223	 -24.74774064
Pt	 87.70777408	 8.96067223	 -21.83624174
Pt	 87.70777408	 8.96067223	 -18.92474284
Pt	 87.70777408	 8.96067223	 -16.01324394
Pt	 87.70777408	 8.96067223	 -13.10174505
Pt	 87.70777408	 8.96067223	 -10.19024615
Pt	 87.70777408	 8.96067223	 -7.27874725
Pt	 87.70777408	 8.96067223	 -4.36724835
Pt	 87.70777408	 8.96067223	 -1.45574945
Pt	 87.70777408	 8.96067223	 1.45574945
Pt	 87.70777408	 8.96067223	 4.36724835
Pt	 87.70777408	 8.96067223	 7.27874725
Pt	 87.70777408	 8.96067223	 10.19024615
Pt	 87.70777408	 8.96067223	 13.10174505
Pt	 87.70777408	 8.96067223	 16.01324394
Pt	 87.70777408	 8.96067223	 18.92474284
Pt	 87.70777408	 8.96067223	 21.83624174
Pt	 87.70777408	 8.96067223	 24.74774064
Pt	 87.70777408	 8.96067223	 27.65923954
Pt	 115.41715233	 0.00000000	 -14.55749449
Pt	 115.41715233	 0.00000000	 -11.64599560
Pt	 115.41715233	 0.00000000	 -8.73449670
Pt	 115.41715233	 0.00000000	 -5.82299780
Pt	 115.41715233	 0.00000000	 -2.91149890
Pt	 115.41715233	 0.00000000	 0.00000000
Pt	 115.41715233	 0.00000000	 2.91149890
Pt	 115.41715233	 0.00000000	 5.82299780
Pt	 115.41715233	 0.00000000	 8.73449670
Pt	 115.41715233	 0.00000000	 11.64599560
Pt	 115.41715233	 0.00000000	 14.55749449
Pt	 81.36929254	 11.20084029	 -30.57073844
Pt	 81.36929254	 11.20084029	 -27.65923954
Pt	 81.36929254	 11.20084029	 -24.74774064
Pt	 81.36929254	 11.20084029	 -21.83624174
Pt	 81.36929254	 11.20084029	 -18.92474284
Pt	 81.36929254	 11.20084029	 -16.01324394
Pt	 81.36929254	 11.20084029	 -13.10174505
Pt	 81.36929254	 11.20084029	 -10.19024615
Pt	 81.36929254	 11.20084029	 -7.27874725
Pt	 81.36929254	 11.20084029	 -4.36724835
Pt	 81.36929254	 11.20084029	 -1.45574945
Pt	 81.36929254	 11.20084029	 1.45574945
Pt	 81.36929254	 11.20084029	 4.36724835
Pt	 81.36929254	 11.20084029	 7.27874725
Pt	 81.36929254	 11.20084029	 10.19024615
Pt	 81.36929254	 11.20084029	 13.10174505
Pt	 81.36929254	 11.20084029	 16.01324394
Pt	 81.36929254	 11.20084029	 18.92474284
Pt	 81.36929254	 11.20084029	 21.83624174
Pt	 81.36929254	 11.20084029	 24.74774064
Pt	 81.36929254	 11.20084029	 27.65923954
Pt	 81.36929254	 11.20084029	 30.57073844
Pt	 109.07867079	 2.24016806	 -17.46899339
Pt	 109.07867079	 2.24016806	 -14.55749449
Pt	 109.07867079	 2.24016806	 -11.64599560
Pt	 109.07867079	 2.24016806	 -8.73449670
Pt	 109.07867079	 2.24016806	 -5.82299780
Pt	 109.07867079	 2.24016806	 -2.91149890
Pt	 109.07867079	 2.24016806	 0.00000000
Pt	 109.07867079	 2.24016806	 2.91149890
Pt	 109.07867079	 2.24016806	 5.82299780
Pt	 109.07867079	 2.24016806	 8.73449670
Pt	 109.07867079	 2.24016806	 11.64599560
Pt	 109.07867079	 2.24016806	 14.55749449
Pt	 109.07867079	 2.24016806	 17.46899339
Pt	 75.03081100	 13.44100834	 -33.48223734
Pt	 75.03081100	 13.44100834	 -30.57073844
Pt	 75.03081100	 13.44100834	 -27.65923954
Pt	 75.03081100	 13.44100834	 -24.74774064
Pt	 75.03081100	 13.44100834	 -21.83624174
Pt	 75.03081100	 13.44100834	 -18.92474284
Pt	 75.03081100	 13.44100834	 -16.01324394
Pt	 75.03081100	 13.44100834	 -13.10174505
Pt	 75.03081100	 13.44100834	 -10.19024615
Pt	 75.03081100	 13.44100834	 -7.27874725
Pt	 75.03081100	 13.44100834	 -4.36724835
Pt	 75.03081100	 13.44100834	 -1.45574945
Pt	 75.03081100	 13.44100834	 1.45574945
Pt	 75.03081100	 13.44100834	 4.36724835
Pt	 75.03081100	 13.44100834	 7.27874725
Pt	 75.03081100	 13.44100834	 10.19024615
Pt	 75.03081100	 13.44100834	 13.10174505
Pt	 75.03081100	 13.44100834	 16.01324394
Pt	 75.03081100	 13.44100834	 18.92474284
Pt	 75.03081100	 13.44100834	 21.83624174
Pt	 75.03081100	 13.44100834	 24.74774064
Pt	 75.03081100	 13.44100834	 27.65923954
Pt	 75.03081100	 13.44100834	 30.57073844
Pt	 75.03081100	 13.44100834	 33.48223734
Pt	 102.74018925	 4.48033611	 -20.38049229
Pt	 102.74018925	 4.48033611	 -17.46899339
Pt	 102.74018925	 4.48033611	 -14.55749449
Pt	 102.74018925	 4.48033611	 -11.64599560
Pt	 102.74018925	 4.48033611	 -8.73449670
Pt	 102.74018925	 4.48033611	 -5.82299780
Pt	 102.74018925	 4.48033611	 -2.91149890
Pt	 102.74018925	 4.48033611	 0.00000000
Pt	 102.74018925	 4.48033611	 2.91149890
Pt	 102.74018925	 4.48033611	 5.82299780
Pt	 102.74018925	 4.48033611	 8.73449670
Pt	 102.74018925	 4.48033611	 11.64599560
Pt	 102.74018925	 4.48033611	 14.55749449
Pt	 102.74018925	 4.48033611	 17.46899339
Pt	 102.74018925	 4.48033611	 20.38049229
Pt	 68.69232946	 15.68117640	 -36.39373624
Pt	 68.69232946	 15.68117640	 -33.48223734
Pt	 68.69232946	 15.68117640	 -30.57073844
Pt	 68.69232946	 15.68117640	 -27.65923954
Pt	 68.69232946	 15.68117640	 -24.74774064
Pt	 68.69232946	 15.68117640	 -21.83624174
Pt	 68.69232946	 15.68117640	 -18.92474284
Pt	 68.69232946	 15.68117640	 -16.01324394
Pt	 68.69232946	 15.68117640	 -13.10174505
Pt	 68.69232946	 15.68117640	 -10.19024615
Pt	 68.69232946	 15.68117640	 -7.27874725
Pt	 68.69232946	 15.68117640	 -4.36724835
Pt	 68.69232946	 15.68117640	 -1.45574945
Pt	 68.69232946	 15.68117640	 1.45574945
Pt	 68.69232946	 15.68117640	 4.36724835
Pt	 68.69232946	 15.68117640	 7.27874725
Pt	 68.69232946	 15.68117640	 10.19024615
Pt	 68.69232946	 15.68117640	 13.10174505
Pt	 68.69232946	 15.68117640	 16.01324394
Pt	 68.69232946	 15.68117640	 18.92474284
Pt	 68.69232946	 15.68117640	 21.83624174
Pt	 68.69232946	 15.68117640	 24.74774064
Pt	 68.69232946	 15.68117640	 27.65923954
Pt	 68.69232946	 15.68117640	 30.57073844
Pt	 68.69232946	 15.68117640	 33.48223734
Pt	 68.69232946	 15.68117640	 36.39373624
Pt	 96.40170771	 6.72050417	 -23.29199119
Pt	 96.40170771	 6.72050417	 -20.38049229
Pt	 96.40170771	 6.72050417	 -17.46899339
Pt	 96.40170771	 6.72050417	 -14.55749449
Pt	 96.40170771	 6.72050417	 -11.64599560
Pt	 96.40170771	 6.72050417	 -8.73449670
Pt	 96.40170771	 6.72050417	 -5.82299780
Pt	 96.40170771	 6.72050417	 -2.91149890
Pt	 96.40170771	 6.72050417	 0.00000000
Pt	 96.40170771	 6.72050417	 2.91149890
Pt	 96.40170771	 6.72050417	 5.82299780
Pt	 96.40170771	 6.72050417	 8.73449670
Pt	 96.40170771	 6.72050417	 11.64599560
Pt	 96.40170771	 6.72050417	 14.55749449
Pt	 96.40170771	 6.72050417	 17.46899339
Pt	 96.40170771	 6.72050417	 20.38049229
Pt	 96.40170771	 6.72050417	 23.29199119
Pt	 62.35384792	 17.92134446	 -39.30523514
Pt	 62.35384792	 17.92134446	 -36.39373624
Pt	 62.35384792	 17.92134446	 -33.48223734
Pt	 62.35384792	 17.92134446	 -30.57073844
Pt	 62.35384792	 17.92134446	 -27.65923954
Pt	 62.35384792	 17.92134446	 -24.74774064
Pt	 62.35384792	 17.92134446	 -21.83624174
Pt	 62.35384792	 17.92134446	 -18.92474284
Pt	 62.35384792	 17.92134446	 -16.01324394
Pt	 62.35384792	 17.92134446	 -13.10174505
Pt	 62.35384792	 17.92134446	 -10.19024615
Pt	 62.35384792	 17.92134446	 -7.27874725
Pt	 62.35384792	 17.92134446	 -4.36724835
Pt	 62.35384792	 17.92134446	 -1.45574945
Pt	 62.35384792	 17.92134446	 1.45574945
Pt	 62.35384792	 17.92134446	 4.36724835
Pt	 62.35384792	 17.92134446	 7.27874725
Pt	 62.35384792	 17.92134446	 10.19024615
Pt	 62.35384792	 17.92134446	 13.10174505
Pt	 62.35384792	 17.92134446	 16.01324394
Pt	 62.35384792	 17.92134446	 18.92474284
Pt	 62.35384792	 17.92134446	 21.83624174
Pt	 62.35384792	 17.92134446	 24.74774064
Pt	 62.35384792	 17.92134446	 27.65923954
Pt	 62.35384792	 17.92134446	 30.57073844
Pt	 62.35384792	 17.92134446	 33.48223734
Pt	 62.35384792	 17.92134446	 36.39373624
Pt	 62.35384792	 17.92134446	 39.30523514
Pt	 90.06322617	 8.96067223	 -26.20349009
Pt	 90.06322617	 8.96067223	 -23.29199119
Pt	 90.06322617	 8.96067223	 -20.38049229
Pt	 90.06322617	 8.96067223	 -17.46899339
Pt	 90.06322617	 8.96067223	 -14.55749449
Pt	 90.06322617	 8.96067223	 -11.64599560
Pt	 90.06322617	 8.96067223	 -8.73449670
Pt	 90.06322617	 8.96067223	 -5.82299780
Pt	 90.06322617	 8.96067223	 -2.91149890
Pt	 90.06322617	 8.96067223	 0.00000000
Pt	 90.06322617	 8.96067223	 2.91149890
Pt	 90.06322617	 8.96067223	 5.82299780
Pt	 90.06322617	 8.96067223	 8.73449670
Pt	 90.06322617	 8.96067223	 11.64599560
Pt	 90.06322617	 8.96067223	 14.55749449
Pt	 90.06322617	 8.96067223	 17.46899339
Pt	 90.06322617	 8.96067223	 20.38049229
Pt	 90.06322617	 8.96067223	 23.29199119
Pt	 90.06322617	 8.96067223	 26.20349009
Pt	 117.77260442	 0.00000000	 -13.10174505
Pt	 117.77260442	 0.00000000	 -10.19024615
Pt	 117.77260442	 0.00000000	 -7.27874725
Pt	 117.77260442	 0.00000000	 -4.36724835
Pt	 117.77260442	 0.00000000	 -1.45574945
Pt	 117.77260442	 0.00000000	 1.45574945
Pt	 117.77260442	 0.00000000	 4.36724835
Pt	 117.77260442	 0.00000000	 7.27874725
Pt	 117.77260442	 0.00000000	 10.19024615
Pt	 117.77260442	 0.00000000	 13.10174505
Pt	 83.72474463	 11.20084029	 -29.11498899
Pt	 83.72474463	 11.20084029	 -26.20349009
Pt	 83.72474463	 11.20084029	 -23.29199119
Pt	 83.72474463	 11.20084029	 -20.38049229
Pt	 83.72474463	 11.20084029	 -17.46899339
Pt	 83.72474463	 11.20084029	 -14.55749449
Pt	 83.72474463	 11.20084029	 -11.64599560
Pt	 83.72474463	 11.20084029	 -8.73449670
Pt	 83.72474463	 11.20084029	 -5.82299780
Pt	 83.72474463	 11.20084029	 -2.91149890
Pt	 83.72474463	 11.20084029	 0.00000000
Pt	 83.72474463	 11.20084029	 2.91149890
Pt	 83.72474463	 11.20084029	 5.82299780
Pt	 83.72474463	 11.20084029	 8.73449670
Pt	 83.72474463	 11.20084029	 11.64599560
Pt	 83.72474463	 11.20084029	 14.55749449
Pt	 83.72474463	 11.20084029	 17.46899339
Pt	 83.72474463	 11.20084029	 20.38049229
Pt	 83.72474463	 11.20084029	 23.29199119
Pt	 83.72474463	 11.20084029	 26.20349009
Pt	 83.72474463	 11.20084029	 29.11498899
Pt	 111.43412288	 2.24016806	 -16.01324394
Pt	 111.43412288	 2.24016806	 -13.10174505
Pt	 111.43412288	 2.24016806	 -10.19024615
Pt	 111.43412288	 2.24016806	 -7.27874725
Pt	 111.43412288	 2.24016806	 -4.36724835
Pt	 111.43412288	 2.24016806	 -1.45574945
Pt	 111.43412288	 2.24016806	 1.45574945
Pt	 111.43412288	 2.24016806	 4.36724835
Pt	 111.43412288	 2.24016806	 7.27874725
Pt	 111.43412288	 2.24016806	 10.19024615
Pt	 111.43412288	 2.24016806	 13.10174505
Pt	 111.43412288	 2.24016806	 16.01324394
Pt	 77.38626309	 13.44100834	 -32.02648789
Pt	 77.38626309	 13.44100834	 -29.11498899
Pt	 77.38626309	 13.44100834	 -26.20349009
Pt	 77.38626309	 13.44100834	 -23.29199119
Pt	 77.38626309	 13.44100834	 -20.38049229
Pt	 77.38626309	 13.44100834	 -17.46899339
Pt	 77.38626309	 13.44100834	 -14.55749449
Pt	 77.38626309	 13.44100834	 -11.64599560
Pt	 77.38626309	 13.44100834	 -8.73449670
Pt	 77.38626309	 13.44100834	 -5.82299780
Pt	 77.38626309	 13.44100834	 -2.91149890
Pt	 77.38626309	 13.44100834	 -0.00000000
Pt	 77.38626309	 13.44100834	 2.91149890
Pt	 77.38626309	 13.44100834	 5.82299780
Pt	 77.38626309	 13.44100834	 8.73449670
Pt	 77.38626309	 13.44100834	 11.64599560
Pt	 77.38626309	 13.44100834	 14.55749449
Pt	 77.38626309	 13.44100834	 17.46899339
Pt	 77.38626309	 13.44100834	 20.38049229
Pt	 77.38626309	 13.44100834	 23.29199119
Pt	 77.38626309	 13.44100834	 26.20349009
Pt	 77.38626309	 13.44100834	 29.11498899
Pt	 77.38626309	 13.44100834	 32.02648789
Pt	 105.09564134	 4.48033611	 -18.92474284
Pt	 105.09564134	 4.48033611	 -16.01324394
Pt	 105.09564134	 4.48033611	 -13.10174505
Pt	 105.09564134	 4.48033611	 -10.19024615
Pt	 105.09564134	 4.48033611	 -7.27874725
Pt	 105.09564134	 4.48033611	 -4.36724835
Pt	 105.09564134	 4.48033611	 -1.45574945
Pt	 105.09564134	 4.48033611	 1.45574945
Pt	 105.09564134	 4.48033611	 4.36724835
Pt	 105.09564134	 4.48033611	 7.27874725
Pt	 105.09564134	 4.48033611	 10.19024615
Pt	 105.09564134	 4.48033611	 13.10174505
Pt	 105.09564134	 4.48033611	 16.01324394
Pt	 105.09564134	 4.48033611	 18.92474284
Pt	 71.04778155	 15.68117640	 -34.93798679
Pt	 71.04778155	 15.68117640	 -32.02648789
Pt	 71.04778155	 15.68117640	 -29.11498899
Pt	 71.04778155	 15.68117640	 -26.20349009
Pt	 71.04778155	 15.68117640	 -23.29199119
Pt	 71.04778155	 15.68117640	 -20.38049229
Pt	 71.04778155	 15.68117640	 -17.46899339
Pt	 71.04778155	 15.68117640	 -14.55749449
Pt	 71.04778155	 15.68117640	 -11.64599560
Pt	 71.04778155	 15.68117640	 -8.73449670
Pt	 71.04778155	 15.68117640	 -5.82299780
Pt	 71.04778155	 15.68117640	 -2.91149890
Pt	 71.04778155	 15.68117640	 0.00000000
Pt	 71.04778155	 15.68117640	 2.91149890
Pt	 71.04778155	 15.68117640	 5.82299780
Pt	 71.04778155	 15.68117640	 8.73449670
Pt	 71.04778155	 15.68117640	 11.64599560
Pt	 71.04778155	 15.68117640	 14.55749449
Pt	 71.04778155	 15.68117640	 17.46899339
Pt	 71.04778155	 15.68117640	 20.38049229
Pt	 71.04778155	 15.68117640	 23.29199119
Pt	 71.04778155	 15.68117640	 26.20349009
Pt	 71.04778155	 15.68117640	 29.11498899
Pt	 71.04778155	 15.68117640	 32.02648789
Pt	 71.04778155	 15.68117640	 34.93798679
Pt	 98.75715980	 6.72050417	 -21.83624174
Pt	 98.75715980	 6.72050417	 -18.92474284
Pt	 98.75715980	 6.72050417	 -16.01324394
Pt	 98.75715980	 6.72050417	 -13.10174505
Pt	 98.75715980	 6.72050417	 -10.19024615
Pt	 98.75715980	 6.72050417	 -7.27874725
Pt	 98.75715980	 6.72050417	 -4.36724835
Pt	 98.75715980	 6.72050417	 -1.45574945
Pt	 98.75715980	 6.72050417	 1.45574945
Pt	 98.75715980	 6.72050417	 4.36724835
Pt	 98.75715980	 6.72050417	 7.27874725
Pt	 98.75715980	 6.72050417	 10.19024615
Pt	 98.75715980	 6.72050417	 13.10174505
Pt	 98.75715980	 6.72050417	 16.01324394
Pt	 98.75715980	 6.72050417	 18.92474284
Pt	 98.75715980	 6.72050417	 21.83624174
Pt	 64.70930001	 17.92134446	 -37.84948569
Pt	 64.70930001	 17.92134446	 -34.93798679
Pt	 64.70930001	 17.92134446	 -32.02648789
Pt	 64.70930001	 17.92134446	 -29.11498899
Pt	 64.70930001	 17.92134446	 -26.20349009
Pt	 64.70930001	 17.92134446	 -23.29199119
Pt	 64.70930001	 17.92134446	 -20.38049229
Pt	 64.70930001	 17.92134446	 -17.46899339
Pt	 64.70930001	 17.92134446	 -14.55749449
Pt	 64.70930001	 17.92134446	 -11.64599560
Pt	 64.70930001	 17.92134446	 -8.73449670
Pt	 64.70930001	 17.92134446	 -5.82299780
Pt	 64.70930001	 17.92134446	 -2.91149890
Pt	 64.70930001	 17.92134446	 -0.00000000
Pt	 64.70930001	 17.92134446	 2.91149890
Pt	 64.70930001	 17.92134446	 5.82299780
Pt	 64.70930001	 17.92134446	 8.73449670
Pt	 64.70930001	 17.92134446	 11.64599560
Pt	 64.70930001	 17.92134446	 14.55749449
Pt	 64.70930001	 17.92134446	 17.46899339
Pt	 64.70930001	 17.92134446	 20.38049229
Pt	 64.70930001	 17.92134446	 23.29199119
Pt	 64.70930001	 17.92134446	 26.20349009
Pt	 64.70930001	 17.92134446	 29.11498899
Pt	 64.70930001	 17.92134446	 32.02648789
Pt	 64.70930001	 17.92134446	 34.93798679
Pt	 64.70930001	 17.92134446	 37.84948569
Pt	 92.41867826	 8.96067223	 -24.74774064
Pt	 92.41867826	 8.96067223	 -21.83624174
Pt	 92.41867826	 8.96067223	 -18.92474284
Pt	 92.41867826	 8.96067223	 -16.01324394
Pt	 92.41867826	 8.96067223	 -13.10174505
Pt	 92.41867826	 8.96067223	 -10.19024615
Pt	 92.41867826	 8.96067223	 -7.27874725
Pt	 92.41867826	 8.96067223	 -4.36724835
Pt	 92.41867826	 8.96067223	 -1.45574945
Pt	 92.41867826	 8.96067223	 1.45574945
Pt	 92.41867826	 8.96067223	 4.36724835
Pt	 92.41867826	 8.96067223	 7.27874725
Pt	 92.41867826	 8.96067223	 10.19024615
Pt	 92.41867826	 8.96067223	 13.10174505
Pt	 92.41867826	 8.96067223	 16.01324394
Pt	 92.41867826	 8.96067223	 18.92474284
Pt	 92.41867826	 8.96067223	 21.83624174
Pt	 92.41867826	 8.96067223	 24.74774064
Pt	 120.12805650	 0.00000000	 -11.64599560
Pt	 120.12805650	 0.00000000	 -8.73449670
Pt	 120.12805650	 0.00000000	 -5.82299780
Pt	 120.12805650	 0.00000000	 -2.91149890
Pt	 120.12805650	 0.00000000	 0.00000000
Pt	 120.12805650	 0.00000000	 2.91149890
Pt	 120.12805650	 0.00000000	 5.82299780
Pt	 120.12805650	 0.00000000	 8.73449670
Pt	 120.12805650	 0.00000000	 11.64599560
Pt	 86.08019672	 11.20084029	 -27.65923954
Pt	 86.08019672	 11.20084029	 -24.74774064
Pt	 86.08019672	 11.20084029	 -21.83624174
Pt	 86.08019672	 11.20084029	 -18.92474284
Pt	 86.08019672	 11.20084029	 -16.01324394
Pt	 86.08019672	 11.20084029	 -13.10174505
Pt	 86.08019672	 11.20084029	 -10.19024615
Pt	 86.08019672	 11.20084029	 -7.27874725
Pt	 86.08019672	 11.20084029	 -4.36724835
Pt	 86.08019672	 11.20084029	 -1.45574945
Pt	 86.08019672	 11.20084029	 1.45574945
Pt	 86.08019672	 11.20084029	 4.36724835
Pt	 86.08019672	 11.20084029	 7.27874725
Pt	 86.08019672	 11.20084029	 10.19024615
Pt	 86.08019672	 11.20084029	 13.10174505
Pt	 86.08019672	 11.20084029	 16.01324394
Pt	 86.08019672	 11.20084029	 18.92474284
Pt	 86.08019672	 11.20084029	 21.83624174
Pt	 86.08019672	 11.20084029	 24.74774064
Pt	 86.08019672	 11.20084029	 27.65923954
Pt	 113.78957496	 2.24016806	 -14.55749449
Pt	 113.78957496	 2.24016806	 -11.64599560
Pt	 113.78957496	 2.24016806	 -8.73449670
Pt	 113.78957496	 2.24016806	 -5.82299780
Pt	 113.78957496	 2.24016806	 -2.91149890
Pt	 113.78957496	 2.24016806	 0.00000000
Pt	 113.78957496	 2.24016806	 2.91149890
Pt	 113.78957496	 2.24016806	 5.82299780
Pt	 113.78957496	 2.24016806	 8.73449670
Pt	 113.78957496	 2.24016806	 11.64599560
Pt	 113.78957496	 2.24016806	 14.55749449
Pt	 79.74171517	 13.44100834	 -30.57073844
Pt	 79.74171517	 13.44100834	 -27.65923954
Pt	 79.74171517	 13.44100834	 -24.74774064
Pt	 79.74171517	 13.44100834	 -21.83624174
Pt	 79.74171517	 13.44100834	 -18.92474284
Pt	 79.74171517	 13.44100834	 -16.01324394
Pt	 79.74171517	 13.44100834	 -13.10174505
Pt	 79.74171517	 13.44100834	 -10.19024615
Pt	 79.74171517	 13.44100834	 -7.27874725
Pt	 79.74171517	 13.44100834	 -4.36724835
Pt	 79.74171517	 13.44100834	 -1.45574945
Pt	 79.74171517	 13.44100834	 1.45574945
Pt	 79.74171517	 13.44100834	 4.36724835
Pt	 79.74171517	 13.44100834	 7.27874725
Pt	 79.74171517	 13.44100834	 10.19024615
Pt	 79.74171517	 13.44100834	 13.10174505
Pt	 79.74171517	 13.44100834	 16.01324394
Pt	 79.74171517	 13.44100834	 18.92474284
Pt	 79.74171517	 13.44100834	 21.83624174
Pt	 79.74171517	 13.44100834	 24.74774064
Pt	 79.74171517	 13.44100834	 27.65923954
Pt	 79.74171517	 13.44100834	 30.57073844
Pt	 107.45109342	 4.48033611	 -17.46899339
Pt	 107.45109342	 4.48033611	 -14.55749449
Pt	 107.45109342	 4.48033611	 -11.64599560
Pt	 107.45109342	 4.48033611	 -8.73449670
Pt	 107.45109342	 4.48033611	 -5.82299780
Pt	 107.45109342	 4.48033611	 -2.91149890
Pt	 107.45109342	 4.48033611	 0.00000000
Pt	 107.45109342	 4.48033611	 2.91149890
Pt	 107.45109342	 4.48033611	 5.82299780
Pt	 107.45109342	 4.48033611	 8.73449670
Pt	 107.45109342	 4.48033611	 11.64599560
Pt	 107.45109342	 4.48033611	 14.55749449
Pt	 107.45109342	 4.48033611	 17.46899339
Pt	 73.40323363	 15.68117640	 -33.48223734
Pt	 73.40323363	 15.68117640	 -30.57073844
Pt	 73.40323363	 15.68117640	 -27.65923954
Pt	 73.40323363	 15.68117640	 -24.74774064
Pt	 73.40323363	 15.68117640	 -21.83624174
Pt	 73.40323363	 15.68117640	 -18.92474284
Pt	 73.40323363	 15.68117640	 -16.01324394
Pt	 73.40323363	 15.68117640	 -13.10174505
Pt	 73.40323363	 15.68117640	 -10.19024615
Pt	 73.40323363	 15.68117640	 -7.27874725
Pt	 73.40323363	 15.68117640	 -4.36724835
Pt	 73.40323363	 15.68117640	 -1.45574945
Pt	 73.40323363	 15.68117640	 1.45574945
Pt	 73.40323363	 15.68117640	 4.36724835
Pt	 73.40323363	 15.68117640	 7.27874725
Pt	 73.40323363	 15.68117640	 10.19024615
Pt	 73.40323363	 15.68117640	 13.10174505
Pt	 73.40323363	 15.68117640	 16.01324394
Pt	 73.40323363	 15.68117640	 18.92474284
Pt	 73.40323363	 15.68117640	 21.83624174
Pt	 73.40323363	 15.68117640	 24.74774064
Pt	 73.40323363	 15.68117640	 27.65923954
Pt	 73.40323363	 15.68117640	 30.57073844
Pt	 73.40323363	 15.68117640	 33.48223734
Pt	 101.11261188	 6.72050417	 -20.38049229
Pt	 101.11261188	 6.72050417	 -17.46899339
Pt	 101.11261188	 6.72050417	 -14.55749449
Pt	 101.11261188	 6.72050417	 -11.64599560
Pt	 101.11261188	 6.72050417	 -8.73449670
Pt	 101.11261188	 6.72050417	 -5.82299780
Pt	 101.11261188	 6.72050417	 -2.91149890
Pt	 101.11261188	 6.72050417	 0.00000000
Pt	 101.11261188	 6.72050417	 2.91149890
Pt	 101.11261188	 6.72050417	 5.82299780
Pt	 101.11261188	 6.72050417	 8.73449670
Pt	 101.11261188	 6.72050417	 11.64599560
Pt	 101.11261188	 6.72050417	 14.55749449
Pt	 101.11261188	 6.72050417	 17.46899339
Pt	 101.11261188	 6.72050417	 20.38049229
Pt	 67.06475209	 17.92134446	 -36.39373624
Pt	 67.06475209	 17.92134446	 -33.48223734
Pt	 67.06475209	 17.92134446	 -30.57073844
Pt	 67.06475209	 17.92134446	 -27.65923954
Pt	 67.06475209	 17.92134446	 -24.74774064
Pt	 67.06475209	 17.92134446	 -21.83624174
Pt	 67.06475209	 17.92134446	 -18.92474284
Pt	 67.06475209	 17.92134446	 -16.01324394
Pt	 67.06475209	 17.92134446	 -13.10174505
Pt	 67.06475209	 17.92134446	 -10.19024615
Pt	 67.06475209	 17.92134446	 -7.27874725
Pt	 67.06475209	 17.92134446	 -4.36724835
Pt	 67.06475209	 17.92134446	 -1.45574945
Pt	 67.06475209	 17.92134446	 1.45574945
Pt	 67.06475209	 17.92134446	 4.36724835
Pt	 67.06475209	 17.92134446	 7.27874725
Pt	 67.06475209	 17.92134446	 10.19024615
Pt	 67.06475209	 17.92134446	 13.10174505
Pt	 67.06475209	 17.92134446	 16.01324394
Pt	 67.06475209	 17.92134446	 18.92474284
Pt	 67.06475209	 17.92134446	 21.83624174
Pt	 67.06475209	 17.92134446	 24.74774064
Pt	 67.06475209	 17.92134446	 27.65923954
Pt	 67.06475209	 17.92134446	 30.57073844
Pt	 67.06475209	 17.92134446	 33.48223734
Pt	 67.06475209	 17.92134446	 36.39373624
Pt	 94.77413034	 8.96067223	 -23.29199119
Pt	 94.77413034	 8.96067223	 -20.38049229
Pt	 94.77413034	 8.96067223	 -17.46899339
Pt	 94.77413034	 8.96067223	 -14.55749449
Pt	 94.77413034	 8.96067223	 -11.64599560
Pt	 94.77413034	 8.96067223	 -8.73449670
Pt	 94.77413034	 8.96067223	 -5.82299780
Pt	 94.77413034	 8.96067223	 -2.91149890
Pt	 94.77413034	 8.96067223	 0.00000000
Pt	 94.77413034	 8.96067223	 2.91149890
Pt	 94.77413034	 8.96067223	 5.82299780
Pt	 94.77413034	 8.96067223	 8.73449670
Pt	 94.77413034	 8.96067223	 11.64599560
Pt	 94.77413034	 8.96067223	 14.55749449
Pt	 94.77413034	 8.96067223	 17.46899339
Pt	 94.77413034	 8.96067223	 20.38049229
Pt	 94.77413034	 8.96067223	 23.29199119
Pt	 122.48350859	 0.00000000	 -10.19024615
Pt	 122.48350859	 0.00000000	 -7.27874725
Pt	 122.48350859	 0.00000000	 -4.36724835
Pt	 122.48350859	 0.00000000	 -1.45574945
Pt	 122.48350859	 0.00000000	 1.45574945
Pt	 122.48350859	 0.00000000	 4.36724835
Pt	 122.48350859	 0.00000000	 7.27874725
Pt	 122.48350859	 0.00000000	 10.19024615
Pt	 88.43564880	 11.20084029	 -26.20349009
Pt	 88.43564880	 11.20084029	 -23.29199119
Pt	 88.43564880	 11.20084029	 -20.38049229
Pt	 88.43564880	 11.20084029	 -17.46899339
Pt	 88.43564880	 11.20084029	 -14.55749449
Pt	 88.43564880	 11.20084029	 -11.64599560
Pt	 88.43564880	 11.20084029	 -8.73449670
Pt	 88.43564880	 11.20084029	 -5.82299780
Pt	 88.43564880	 11.20084029	 -2.91149890
Pt	 88.43564880	 11.20084029	 -0.00000000
Pt	 88.43564880	 11.20084029	 2.91149890
Pt	 88.43564880	 11.20084029	 5.82299780
Pt	 88.43564880	 11.20084029	 8.73449670
Pt	 88.43564880	 11.20084029	 11.64599560
Pt	 88.43564880	 11.20084029	 14.55749449
Pt	 88.43564880	 11.20084029	 17.46899339
Pt	 88.43564880	 11.20084029	 20.38049229
Pt	 88.43564880	 11.20084029	 23.29199119
Pt	 88.43564880	 11.20084029	 26.20349009
Pt	 116.14502705	 2.24016806	 -13.10174505
Pt	 116.14502705	 2.24016806	 -10.19024615
Pt	 116.14502705	 2.24016806	 -7.27874725
Pt	 116.14502705	 2.24016806	 -4.36724835
Pt	 116.14502705	 2.24016806	 -1.45574945
Pt	 116.14502705	 2.24016806	 1.45574945
Pt	 116.14502705	 2.24016806	 4.36724835
Pt	 116.14502705	 2.24016806	 7.27874725
Pt	 116.14502705	 2.24016806	 10.19024615
Pt	 116.14502705	 2.24016806	 13.10174505
Pt	 82.09716726	 13.44100834	 -29.11498899
Pt	 82.09716726	 13.44100834	 -26.20349009
Pt	 82.09716726	 13.44100834	 -23.29199119
Pt	 82.09716726	 13.44100834	 -20.38049229
Pt	 82.09716726	 13.44100834	 -17.46899339
Pt	 82.09716726	 13.44100834	 -14.55749449
Pt	 82.09716726	 13.44100834	 -11.64599560
Pt	 82.09716726	 13.44100834	 -8.73449670
Pt	 82.09716726	 13.44100834	 -5.82299780
Pt	 82.09716726	 13.44100834	 -2.91149890
Pt	 82.09716726	 13.44100834	 -0.00000000
Pt	 82.09716726	 13.44100834	 2.91149890
Pt	 82.09716726	 13.44100834	 5.82299780
Pt	 82.09716726	 13.44100834	 8.73449670
Pt	 82.09716726	 13.44100834	 11.64599560
Pt	 82.09716726	 13.44100834	 14.55749449
Pt	 82.09716726	 13.44100834	 17.46899339
Pt	 82.09716726	 13.44100834	 20.38049229
Pt	 82.09716726	 13.44100834	 23.29199119
Pt	 82.09716726	 13.44100834	 26.20349009
Pt	 82.09716726	 13.44100834	 29.11498899
Pt	 109.80654551	 4.48033611	 -16.01324394
Pt	 109.80654551	 4.48033611	 -13.10174505
Pt	 109.80654551	 4.48033611	 -10.19024615
Pt	 109.80654551	 4.48033611	 -7.27874725
Pt	 109.80654551	 4.48033611	 -4.36724835
Pt	 109.80654551	 4.48033611	 -1.45574945
Pt	 109.80654551	 4.48033611	 1.45574945
Pt	 109.80654551	 4.48033611	 4.36724835
Pt	 109.80654551	 4.48033611	 7.27874725
Pt	 109.80654551	 4.48033611	 10.19024615
Pt	 109.80654551	 4.48033611	 13.10174505
Pt	 109.80654551	 4.48033611	 16.01324394
Pt	 75.75868572	 15.68117640	 -32.02648789
Pt	 75.75868572	 15.68117640	 -29.11498899
Pt	 75.75868572	 15.68117640	 -26.20349009
Pt	 75.75868572	 15.68117640	 -23.29199119
Pt	 75.75868572	 15.68117640	 -20.38049229
Pt	 75.75868572	 15.68117640	 -17.46899339
Pt	 75.75868572	 15.68117640	 -14.55749449
Pt	 75.75868572	 15.68117640	 -11.64599560
Pt	 75.75868572	 15.68117640	 -8.73449670
Pt	 75.75868572	 15.68117640	 -5.82299780
Pt	 75.75868572	 15.68117640	 -2.91149890
Pt	 75.75868572	 15.68117640	 0.00000000
Pt	 75.75868572	 15.68117640	 2.91149890
Pt	 75.75868572	 15.68117640	 5.82299780
Pt	 75.75868572	 15.68117640	 8.73449670
Pt	 75.75868572	 15.68117640	 11.64599560
Pt	 75.75868572	 15.68117640	 14.55749449
Pt	 75.75868572	 15.68117640	 17.46899339
Pt	 75.75868572	 15.68117640	 20.38049229
Pt	 75.75868572	 15.68117640	 23.29199119
Pt	 75.75868572	 15.68117640	 26.20349009
Pt	 75.75868572	 15.68117640	 29.11498899
Pt	 75.75868572	 15.68117640	 32.02648789
Pt	 103.46806397	 6.72050417	 -18.92474284
Pt	 103.46806397	 6.72050417	 -16.01324394
Pt	 103.46806397	 6.72050417	 -13.10174505
Pt	 103.46806397	 6.72050417	 -10.19024615
Pt	 103.46806397	 6.72050417	 -7.27874725
Pt	 103.46806397	 6.72050417	 -4.36724835
Pt	 103.46806397	 6.72050417	 -1.45574945
Pt	 103.46806397	 6.72050417	 1.45574945
Pt	 103.46806397	 6.72050417	 4.36724835
Pt	 103.46806397	 6.72050417	 7.27874725
Pt	 103.46806397	 6.72050417	 10.19024615
Pt	 103.46806397	 6.72050417	 13.10174505
Pt	 103.46806397	 6.72050417	 16.01324394
Pt	 103.46806397	 6.72050417	 18.92474284
Pt	 69.42020418	 17.92134446	 -34.93798679
Pt	 69.42020418	 17.92134446	 -32.02648789
Pt	 69.42020418	 17.92134446	 -29.11498899
Pt	 69.42020418	 17.92134446	 -26.20349009
Pt	 69.42020418	 17.92134446	 -23.29199119
Pt	 69.42020418	 17.92134446	 -20.38049229
Pt	 69.42020418	 17.92134446	 -17.46899339
Pt	 69.42020418	 17.92134446	 -14.55749449
Pt	 69.42020418	 17.92134446	 -11.64599560
Pt	 69.42020418	 17.92134446	 -8.73449670
Pt	 69.42020418	 17.92134446	 -5.82299780
Pt	 69.42020418	 17.92134446	 -2.91149890
Pt	 69.42020418	 17.92134446	 0.00000000
Pt	 69.42020418	 17.92134446	 2.91149890
Pt	 69.42020418	 17.92134446	 5.82299780
Pt	 69.42020418	 17.92134446	 8.73449670
Pt	 69.42020418	 17.92134446	 11.64599560
Pt	 69.42020418	 17.92134446	 14.55749449
Pt	 69.42020418	 17.92134446	 17.46899339
Pt	 69.42020418	 17.92134446	 20.38049229
Pt	 69.42020418	 17.92134446	 23.29199119
Pt	 69.42020418	 17.92134446	 26.20349009
Pt	 69.42020418	 17.92134446	 29.11498899
Pt	 69.42020418	 17.92134446	 32.02648789
Pt	 69.42020418	 17.92134446	 34.93798679
Pt	 97.12958243	 8.96067223	 -21.83624174
Pt	 97.12958243	 8.96067223	 -18.92474284
Pt	 97.12958243	 8.96067223	 -16.01324394
Pt	 97.12958243	 8.96067223	 -13.10174505
Pt	 97.12958243	 8.96067223	 -10.19024615
Pt	 97.12958243	 8.96067223	 -7.27874725
Pt	 97.12958243	 8.96067223	 -4.36724835
Pt	 97.12958243	 8.96067223	 -1.45574945
Pt	 97.12958243	 8.96067223	 1.45574945
Pt	 97.12958243	 8.96067223	 4.36724835
Pt	 97.12958243	 8.96067223	 7.27874725
Pt	 97.12958243	 8.96067223	 10.19024615
Pt	 97.12958243	 8.96067223	 13.10174505
Pt	 97.12958243	 8.96067223	 16.01324394
Pt	 97.12958243	 8.96067223	 18.92474284
Pt	 97.12958243	 8.96067223	 21.83624174
Pt	 124.83896068	 0.00000000	 -8.73449670
Pt	 124.83896068	 0.00000000	 -5.82299780
Pt	 124.83896068	 0.00000000	 -2.91149890
Pt	 124.83896068	 0.00000000	 0.00000000
Pt	 124.83896068	 0.00000000	 2.91149890
Pt	 124.83896068	 0.00000000	 5.82299780
Pt	 124.83896068	 0.00000000	 8.73449670
Pt	 90.79110089	 11.20084029	 -24.74774064
Pt	 90.79110089	 11.20084029	 -21.83624174
Pt	 90.79110089	 11.20084029	 -18.92474284
Pt	 90.79110089	 11.20084029	 -16.01324394
Pt	 90.79110089	 11.20084029	 -13.10174505
Pt	 90.79110089	 11.20084029	 -10.19024615
Pt	 90.79110089	 11.20084029	 -7.27874725
Pt	 90.79110089	 11.20084029	 -4.36724835
Pt	 90.79110089	 11.20084029	 -1.45574945
Pt	 90.79110089	 11.20084029	 1.45574945
Pt	 90.79110089	 11.20084029	 4.36724835
Pt	 90.79110089	 11.20084029	 7.27874725
Pt	 90.79110089	 11.20084029	 10.19024615
Pt	 90.79110089	 11.20084029	 13.10174505
Pt	 90.79110089	 11.20084029	 16.01324394
Pt	 90.79110089	 11.20084029	 18.92474284
Pt	 90.79110089	 11.20084029	 21.83624174
Pt	 90.79110089	 11.20084029	 24.74774064
Pt	 118.50047914	 2.24016806	 -11.64599560
Pt	 118.50047914	 2.24016806	 -8.73449670
Pt	 118.50047914	 2.24016806	 -5.82299780
Pt	 118.50047914	 2.24016806	 -2.91149890
Pt	 118.50047914	 2.24016806	 0.00000000
Pt	 118.50047914	 2.24016806	 2.91149890
Pt	 118.50047914	 2.24016806	 5.82299780
Pt	 118.50047914	 2.24016806	 8.73449670
Pt	 118.50047914	 2.24016806	 11.64599560
Pt	 84.45261935	 13.44100834	 -27.65923954
Pt	 84.45261935	 13.44100834	 -24.74774064
Pt	 84.45261935	 13.44100834	 -21.83624174
Pt	 84.45261935	 13.44100834	 -18.92474284
Pt	 84.45261935	 13.44100834	 -16.01324394
Pt	 84.45261935	 13.44100834	 -13.10174505
Pt	 84.45261935	 13.44100834	 -10.19024615
Pt	 84.45261935	 13.44100834	 -7.27874725
Pt	 84.45261935	 13.44100834	 -4.36724835
Pt	 84.45261935	 13.44100834	 -1.45574945
Pt	 84.45261935	 13.44100834	 1.45574945
Pt	 84.45261935	 13.44100834	 4.36724835
Pt	 84.45261935	 13.44100834	 7.27874725
Pt	 84.45261935	 13.44100834	 10.19024615
Pt	 84.45261935	 13.44100834	 13.10174505
Pt	 84.45261935	 13.44100834	 16.01324394
Pt	 84.45261935	 13.44100834	 18.92474284
Pt	 84.45261935	 13.44100834	 21.83624174
Pt	 84.45261935	 13.44100834	 24.74774064
Pt	 84.45261935	 13.44100834	 27.65923954
Pt	 112.16199760	 4.48033611	 -14.55749449
Pt	 112.16199760	 4.48033611	 -11.64599560
Pt	 112.16199760	 4.48033611	 -8.73449670
Pt	 112.16199760	 4.48033611	 -5.82299780
Pt	 112.16199760	 4.48033611	 -2.91149890
Pt	 112.16199760	 4.48033611	 0.00000000
Pt	 112.16199760	 4.48033611	 2.91149890
Pt	 112.16199760	 4.48033611	 5.82299780
Pt	 112.16199760	 4.48033611	 8.73449670
Pt	 112.16199760	 4.48033611	 11.64599560
Pt	 112.16199760	 4.48033611	 14.55749449
Pt	 78.11413781	 15.68117640	 -30.57073844
Pt	 78.11413781	 15.68117640	 -27.65923954
Pt	 78.11413781	 15.68117640	 -24.74774064
Pt	 78.11413781	 15.68117640	 -21.83624174
Pt	 78.11413781	 15.68117640	 -18.92474284
Pt	 78.11413781	 15.68117640	 -16.01324394
Pt	 78.11413781	 15.68117640	 -13.10174505
Pt	 78.11413781	 15.68117640	 -10.19024615
Pt	 78.11413781	 15.68117640	 -7.27874725
Pt	 78.11413781	 15.68117640	 -4.36724835
Pt	 78.11413781	 15.68117640	 -1.45574945
Pt	 78.11413781	 15.68117640	 1.45574945
Pt	 78.11413781	 15.68117640	 4.36724835
Pt	 78.11413781	 15.68117640	 7.27874725
Pt	 78.11413781	 15.68117640	 10.19024615
Pt	 78.11413781	 15.68117640	 13.10174505
Pt	 78.11413781	 15.68117640	 16.01324394
Pt	 78.11413781	 15.68117640	 18.92474284
Pt	 78.11413781	 15.68117640	 21.83624174
Pt	 78.11413781	 15.68117640	 24.74774064
Pt	 78.11413781	 15.68117640	 27.65923954
Pt	 78.11413781	 15.68117640	 30.57073844
Pt	 105.82351606	 6.72050417	 -17.46899339
Pt	 105.82351606	 6.72050417	 -14.55749449
Pt	 105.82351606	 6.72050417	 -11.64599560
Pt	 105.82351606	 6.72050417	 -8.73449670
Pt	 105.82351606	 6.72050417	 -5.82299780
Pt	 105.82351606	 6.72050417	 -2.91149890
Pt	 105.82351606	 6.72050417	 0.00000000
Pt	 105.82351606	 6.72050417	 2.91149890
Pt	 105.82351606	 6.72050417	 5.82299780
Pt	 105.82351606	 6.72050417	 8.73449670
Pt	 105.82351606	 6.72050417	 11.64599560
Pt	 105.82351606	 6.72050417	 14.55749449
Pt	 105.82351606	 6.72050417	 17.46899339
Pt	 71.77565627	 17.92134446	 -33.48223734
Pt	 71.77565627	 17.92134446	 -30.57073844
Pt	 71.77565627	 17.92134446	 -27.65923954
Pt	 71.77565627	 17.92134446	 -24.74774064
Pt	 71.77565627	 17.92134446	 -21.83624174
Pt	 71.77565627	 17.92134446	 -18.92474284
Pt	 71.77565627	 17.92134446	 -16.01324394
Pt	 71.77565627	 17.92134446	 -13.10174505
Pt	 71.77565627	 17.92134446	 -10.19024615
Pt	 71.77565627	 17.92134446	 -7.27874725
Pt	 71.77565627	 17.92134446	 -4.36724835
Pt	 71.77565627	 17.92134446	 -1.45574945
Pt	 71.77565627	 17.92134446	 1.45574945
Pt	 71.77565627	 17.92134446	 4.36724835
Pt	 71.77565627	 17.92134446	 7.27874725
Pt	 71.77565627	 17.92134446	 10.19024615
Pt	 71.77565627	 17.92134446	 13.10174505
Pt	 71.77565627	 17.92134446	 16.01324394
Pt	 71.77565627	 17.92134446	 18.92474284
Pt	 71.77565627	 17.92134446	 21.83624174
Pt	 71.77565627	 17.92134446	 24.74774064
Pt	 71.77565627	 17.92134446	 27.65923954
Pt	 71.77565627	 17.92134446	 30.57073844
Pt	 71.77565627	 17.92134446	 33.48223734
Pt	 99.48503452	 8.96067223	 -20.38049229
Pt	 99.48503452	 8.96067223	 -17.46899339
Pt	 99.48503452	 8.96067223	 -14.55749449
Pt	 99.48503452	 8.96067223	 -11.64599560
Pt	 99.48503452	 8.96067223	 -8.73449670
Pt	 99.48503452	 8.96067223	 -5.82299780
Pt	 99.48503452	 8.96067223	 -2.91149890
Pt	 99.48503452	 8.96067223	 0.00000000
Pt	 99.48503452	 8.96067223	 2.91149890
Pt	 99.48503452	 8.96067223	 5.82299780
Pt	 99.48503452	 8.96067223	 8.73449670
Pt	 99.48503452	 8.96067223	 11.64599560
Pt	 99.48503452	 8.96067223	 14.55749449
Pt	 99.48503452	 8.96067223	 17.46899339
Pt	 99.48503452	 8.96067223	 20.38049229
Pt	 127.19441277	 0.00000000	 -7.27874725
Pt	 127.19441277	 0.00000000	 -4.36724835
Pt	 127.19441277	 0.00000000	 -1.45574945
Pt	 127.19441277	 0.00000000	 1.45574945
Pt	 127.19441277	 0.00000000	 4.36724835
Pt	 127.19441277	 0.00000000	 7.27874725
Pt	 93.14655298	 11.20084029	 -23.29199119
Pt	 93.14655298	 11.20084029	 -20.38049229
Pt	 93.14655298	 11.20084029	 -17.46899339
Pt	 93.14655298	 11.20084029	 -14.55749449
Pt	 93.14655298	 11.20084029	 -11.64599560
Pt	 93.14655298	 11.20084029	 -8.73449670
Pt	 93.14655298	 11.20084029	 -5.82299780
Pt	 93.14655298	 11.20084029	 -2.91149890
Pt	 93.14655298	 11.20084029	 0.00000000
Pt	 93.14655298	 11.20084029	 2.91149890
Pt	 93.14655298	 11.20084029	 5.82299780
Pt	 93.14655298	 11.20084029	 8.73449670
Pt	 93.14655298	 11.20084029	 11.64599560
Pt	 93.14655298	 11.20084029	 14.55749449
Pt	 93.14655298	 11.20084029	 17.46899339
Pt	 93.14655298	 11.20084029	 20.38049229
Pt	 93.14655298	 11.20084029	 23.29199119
Pt	 120.85593123	 2.24016806	 -10.19024615
Pt	 120.85593123	 2.24016806	 -7.27874725
Pt	 120.85593123	 2.24016806	 -4.36724835
Pt	 120.85593123	 2.24016806	 -1.45574945
Pt	 120.85593123	 2.24016806	 1.45574945
Pt	 120.85593123	 2.24016806	 4.36724835
Pt	 120.85593123	 2.24016806	 7.27874725
Pt	 120.85593123	 2.24016806	 10.19024615
Pt	 86.80807144	 13.44100834	 -26.20349009
Pt	 86.80807144	 13.44100834	 -23.29199119
Pt	 86.80807144	 13.44100834	 -20.38049229
Pt	 86.80807144	 13.44100834	 -17.46899339
Pt	 86.80807144	 13.44100834	 -14.55749449
Pt	 86.80807144	 13.44100834	 -11.64599560
Pt	 86.80807144	 13.44100834	 -8.73449670
Pt	 86.80807144	 13.44100834	 -5.82299780
Pt	 86.80807144	 13.44100834	 -2.91149890
Pt	 86.80807144	 13.44100834	 0.00000000
Pt	 86.80807144	 13.44100834	 2.91149890
Pt	 86.80807144	 13.44100834	 5.82299780
Pt	 86.80807144	 13.44100834	 8.73449670
Pt	 86.80807144	 13.44100834	 11.64599560
Pt	 86.80807144	 13.44100834	 14.55749449
Pt	 86.80807144	 13.44100834	 17.46899339
Pt	 86.80807144	 13.44100834	 20.38049229
Pt	 86.80807144	 13.44100834	 23.29199119
Pt	 86.80807144	 13.44100834	 26.20349009
Pt	 114.51744969	 4.48033611	 -13.10174505
Pt	 114.51744969	 4.48033611	 -10.19024615
Pt	 114.51744969	 4.48033611	 -7.27874725
Pt	 114.51744969	 4.48033611	 -4.36724835
Pt	 114.51744969	 4.48033611	 -1.45574945
Pt	 114.51744969	 4.48033611	 1.45574945
Pt	 114.51744969	 4.48033611	 4.36724835
Pt	 114.51744969	 4.48033611	 7.27874725
Pt	 114.51744969	 4.48033611	 10.19024615
Pt	 114.51744969	 4.48033611	 13.10174505
Pt	 80.46958990	 15.68117640	 -29.11498899
Pt	 80.46958990	 15.68117640	 -26.20349009
Pt	 80.46958990	 15.68117640	 -23.29199119
Pt	 80.46958990	 15.68117640	 -20.38049229
Pt	 80.46958990	 15.68117640	 -17.46899339
Pt	 80.46958990	 15.68117640	 -14.55749449
Pt	 80.46958990	 15.68117640	 -11.64599560
Pt	 80.46958990	 15.68117640	 -8.73449670
Pt	 80.46958990	 15.68117640	 -5.82299780
Pt	 80.46958990	 15.68117640	 -2.91149890
Pt	 80.46958990	 15.68117640	 0.00000000
Pt	 80.46958990	 15.68117640	 2.91149890
Pt	 80.46958990	 15.68117640	 5.82299780
Pt	 80.46958990	 15.68117640	 8.73449670
Pt	 80.46958990	 15.68117640	 11.64599560
Pt	 80.46958990	 15.68117640	 14.55749449
Pt	 80.46958990	 15.68117640	 17.46899339
Pt	 80.46958990	 15.68117640	 20.38049229
Pt	 80.46958990	 15.68117640	 23.29199119
Pt	 80.46958990	 15.68117640	 26.20349009
Pt	 80.46958990	 15.68117640	 29.11498899
Pt	 108.17896815	 6.72050417	 -16.01324394
Pt	 108.17896815	 6.72050417	 -13.10174505
Pt	 108.17896815	 6.72050417	 -10.19024615
Pt	 108.17896815	 6.72050417	 -7.27874725
Pt	 108.17896815	 6.72050417	 -4.36724835
Pt	 108.17896815	 6.72050417	 -1.45574945
Pt	 108.17896815	 6.72050417	 1.45574945
Pt	 108.17896815	 6.72050417	 4.36724835
Pt	 108.17896815	 6.72050417	 7.27874725
Pt	 108.17896815	 6.72050417	 10.19024615
Pt	 108.17896815	 6.72050417	 13.10174505
Pt	 108.17896815	 6.72050417	 16.01324394
Pt	 74.13110836	 17.92134446	 -32.02648789
Pt	 74.13110836	 17.92134446	 -29.11498899
Pt	 74.13110836	 17.92134446	 -26.20349009
Pt	 74.13110836	 17.92134446	 -23.29199119
Pt	 74.13110836	 17.92134446	 -20.38049229
Pt	 74.13110836	 17.92134446	 -17.46899339
Pt	 74.13110836	 17.92134446	 -14.55749449
Pt	 74.13110836	 17.92134446	 -11.64599560
Pt	 74.13110836	 17.92134446	 -8.73449670
Pt	 74.13110836	 17.92134446	 -5.82299780
Pt	 74.13110836	 17.92134446	 -2.91149890
Pt	 74.13110836	 17.92134446	 0.00000000
Pt	 74.13110836	 17.92134446	 2.91149890
Pt	 74.13110836	 17.92134446	 5.82299780
Pt	 74.13110836	 17.92134446	 8.73449670
Pt	 74.13110836	 17.92134446	 11.64599560
Pt	 74.13110836	 17.92134446	 14.55749449
Pt	 74.13110836	 17.92134446	 17.46899339
Pt	 74.13110836	 17.92134446	 20.38049229
Pt	 74.13110836	 17.92134446	 23.29199119
Pt	 74.13110836	 17.92134446	 26.20349009
Pt	 74.13110836	 17.92134446	 29.11498899
Pt	 74.13110836	 17.92134446	 32.02648789
Pt	 101.84048661	 8.96067223	 -18.92474284
Pt	 101.84048661	 8.96067223	 -16.01324394
Pt	 101.84048661	 8.96067223	 -13.10174505
Pt	 101.84048661	 8.96067223	 -10.19024615
Pt	 101.84048661	 8.96067223	 -7.27874725
Pt	 101.84048661	 8.96067223	 -4.36724835
Pt	 101.84048661	 8.96067223	 -1.45574945
Pt	 101.84048661	 8.96067223	 1.45574945
Pt	 101.84048661	 8.96067223	 4.36724835
Pt	 101.84048661	 8.96067223	 7.27874725
Pt	 101.84048661	 8.96067223	 10.19024615
Pt	 101.84048661	 8.96067223	 13.10174505
Pt	 101.84048661	 8.96067223	 16.01324394
Pt	 101.84048661	 8.96067223	 18.92474284
Pt	 129.54986486	 0.00000000	 -5.82299780
Pt	 129.54986486	 0.00000000	 -2.91149890
Pt	 129.54986486	 0.00000000	 0.00000000
Pt	 129.54986486	 0.00000000	 2.91149890
Pt	 129.54986486	 0.00000000	 5.82299780
Pt	 95.50200507	 11.20084029	 -21.83624174
Pt	 95.50200507	 11.20084029	 -18.92474284
Pt	 95.50200507	 11.20084029	 -16.01324394
Pt	 95.50200507	 11.20084029	 -13.10174505
Pt	 95.50200507	 11.20084029	 -10.19024615
Pt	 95.50200507	 11.20084029	 -7.27874725
Pt	 95.50200507	 11.20084029	 -4.36724835
Pt	 95.50200507	 11.20084029	 -1.45574945
Pt	 95.50200507	 11.20084029	 1.45574945
Pt	 95.50200507	 11.20084029	 4.36724835
Pt	 95.50200507	 11.20084029	 7.27874725
Pt	 95.50200507	 11.20084029	 10.19024615
Pt	 95.50200507	 11.20084029	 13.10174505
Pt	 95.50200507	 11.20084029	 16.01324394
Pt	 95.50200507	 11.20084029	 18.92474284
Pt	 95.50200507	 11.20084029	 21.83624174
Pt	 123.21138332	 2.24016806	 -8.73449670
Pt	 123.21138332	 2.24016806	 -5.82299780
Pt	 123.21138332	 2.24016806	 -2.91149890
Pt	 123.21138332	 2.24016806	 0.00000000
Pt	 123.21138332	 2.24016806	 2.91149890
Pt	 123.21138332	 2.24016806	 5.82299780
Pt	 123.21138332	 2.24016806	 8.73449670
Pt	 89.16352353	 13.44100834	 -24.74774064
Pt	 89.16352353	 13.44100834	 -21.83624174
Pt	 89.16352353	 13.44100834	 -18.92474284
Pt	 89.16352353	 13.44100834	 -16.01324394
Pt	 89.16352353	 13.44100834	 -13.10174505
Pt	 89.16352353	 13.44100834	 -10.19024615
Pt	 89.16352353	 13.44100834	 -7.27874725
Pt	 89.16352353	 13.44100834	 -4.36724835
Pt	 89.16352353	 13.44100834	 -1.45574945
Pt	 89.16352353	 13.44100834	 1.45574945
Pt	 89.16352353	 13.44100834	 4.36724835
Pt	 89.16352353	 13.44100834	 7.27874725
Pt	 89.16352353	 13.44100834	 10.19024615
Pt	 89.16352353	 13.44100834	 13.10174505
Pt	 89.16352353	 13.44100834	 16.01324394
Pt	 89.16352353	 13.44100834	 18.92474284
Pt	 89.16352353	 13.44100834	 21.83624174
Pt	 89.16352353	 13.44100834	 24.74774064
Pt	 116.87290178	 4.48033611	 -11.64599560
Pt	 116.87290178	 4.48033611	 -8.73449670
Pt	 116.87290178	 4.48033611	 -5.82299780
Pt	 116.87290178	 4.48033611	 -2.91149890
Pt	 116.87290178	 4.48033611	 0.00000000
Pt	 116.87290178	 4.48033611	 2.91149890
Pt	 116.87290178	 4.48033611	 5.82299780
Pt	 116.87290178	 4.48033611	 8.73449670
Pt	 116.87290178	 4.48033611	 11.64599560
Pt	 82.82504199	 15.68117640	 -27.65923954
Pt	 82.82504199	 15.68117640	 -24.74774064
Pt	 82.82504199	 15.68117640	 -21.83624174
Pt	 82.82504199	 15.68117640	 -18.92474284
Pt	 82.82504199	 15.68117640	 -16.01324394
Pt	 82.82504199	 15.68117640	 -13.10174505
Pt	 82.82504199	 15.68117640	 -10.19024615
Pt	 82.82504199	 15.68117640	 -7.27874725
Pt	 82.82504199	 15.68117640	 -4.36724835
Pt	 82.82504199	 15.68117640	 -1.45574945
Pt	 82.82504199	 15.68117640	 1.45574945
Pt	 82.82504199	 15.68117640	 4.36724835
Pt	 82.82504199	 15.68117640	 7.27874725
Pt	 82.82504199	 15.68117640	 10.19024615
Pt	 82.82504199	 15.68117640	 13.10174505
Pt	 82.82504199	 15.68117640	 16.01324394
Pt	 82.82504199	 15.68117640	 18.92474284
Pt	 82.82504199	 15.68117640	 21.83624174
Pt	 82.82504199	 15.68117640	 24.74774064
Pt	 82.82504199	 15.68117640	 27.65923954
Pt	 110.53442024	 6.72050417	 -14.55749449
Pt	 110.53442024	 6.72050417	 -11.64599560
Pt	 110.53442024	 6.72050417	 -8.73449670
Pt	 110.53442024	 6.72050417	 -5.82299780
Pt	 110.53442024	 6.72050417	 -2.91149890
Pt	 110.53442024	 6.72050417	 0.00000000
Pt	 110.53442024	 6.72050417	 2.91149890
Pt	 110.53442024	 6.72050417	 5.82299780
Pt	 110.53442024	 6.72050417	 8.73449670
Pt	 110.53442024	 6.72050417	 11.64599560
Pt	 110.53442024	 6.72050417	 14.55749449
Pt	 76.48656045	 17.92134446	 -30.57073844
Pt	 76.48656045	 17.92134446	 -27.65923954
Pt	 76.48656045	 17.92134446	 -24.74774064
Pt	 76.48656045	 17.92134446	 -21.83624174
Pt	 76.48656045	 17.92134446	 -18.92474284
Pt	 76.48656045	 17.92134446	 -16.01324394
Pt	 76.48656045	 17.92134446	 -13.10174505
Pt	 76.48656045	 17.92134446	 -10.19024615
Pt	 76.48656045	 17.92134446	 -7.27874725
Pt	 76.48656045	 17.92134446	 -4.36724835
Pt	 76.48656045	 17.92134446	 -1.45574945
Pt	 76.48656045	 17.92134446	 1.45574945
Pt	 76.48656045	 17.92134446	 4.36724835
Pt	 76.48656045	 17.92134446	 7.27874725
Pt	 76.48656045	 17.92134446	 10.19024615
Pt	 76.48656045	 17.92134446	 13.10174505
Pt	 76.48656045	 17.92134446	 16.01324394
Pt	 76.48656045	 17.92134446	 18.92474284
Pt	 76.48656045	 17.92134446	 21.83624174
Pt	 76.48656045	 17.92134446	 24.74774064
Pt	 76.48656045	 17.92134446	 27.65923954
Pt	 76.48656045	 17.92134446	 30.57073844
Pt	 104.19593870	 8.96067223	 -17.46899339
Pt	 104.19593870	 8.96067223	 -14.55749449
Pt	 104.19593870	 8.96067223	 -11.64599560
Pt	 104.19593870	 8.96067223	 -8.73449670
Pt	 104.19593870	 8.96067223	 -5.82299780
Pt	 104.19593870	 8.96067223	 -2.91149890
Pt	 104.19593870	 8.96067223	 0.00000000
Pt	 104.19593870	 8.96067223	 2.91149890
Pt	 104.19593870	 8.96067223	 5.82299780
Pt	 104.19593870	 8.96067223	 8.73449670
Pt	 104.19593870	 8.96067223	 11.64599560
Pt	 104.19593870	 8.96067223	 14.55749449
Pt	 104.19593870	 8.96067223	 17.46899339
Pt	 131.90531695	 0.00000000	 -4.36724835
Pt	 131.90531695	 0.00000000	 -1.45574945
Pt	 131.90531695	 0.00000000	 1.45574945
Pt	 131.90531695	 0.00000000	 4.36724835
Pt	 97.85745716	 11.20084029	 -20.38049229
Pt	 97.85745716	 11.20084029	 -17.46899339
Pt	 97.85745716	 11.20084029	 -14.55749449
Pt	 97.85745716	 11.20084029	 -11.64599560
Pt	 97.85745716	 11.20084029	 -8.73449670
Pt	 97.85745716	 11.20084029	 -5.82299780
Pt	 97.85745716	 11.20084029	 -2.91149890
Pt	 97.85745716	 11.20084029	 0.00000000
Pt	 97.85745716	 11.20084029	 2.91149890
Pt	 97.85745716	 11.20084029	 5.82299780
Pt	 97.85745716	 11.20084029	 8.73449670
Pt	 97.85745716	 11.20084029	 11.64599560
Pt	 97.85745716	 11.20084029	 14.55749449
Pt	 97.85745716	 11.20084029	 17.46899339
Pt	 97.85745716	 11.20084029	 20.38049229
Pt	 125.56683541	 2.24016806	 -7.27874725
Pt	 125.56683541	 2.24016806	 -4.36724835
Pt	 125.56683541	 2.24016806	 -1.45574945
Pt	 125.56683541	 2.24016806	 1.45574945
Pt	 125.56683541	 2.24016806	 4.36724835
Pt	 125.56683541	 2.24016806	 7.27874725
Pt	 91.51897562	 13.44100834	 -23.29199119
Pt	 91.51897562	 13.44100834	 -20.38049229
Pt	 91.51897562	 13.44100834	 -17.46899339
Pt	 91.51897562	 13.44100834	 -14.55749449
Pt	 91.51897562	 13.44100834	 -11.64599560
Pt	 91.51897562	 13.44100834	 -8.73449670
Pt	 91.51897562	 13.44100834	 -5.82299780
Pt	 91.51897562	 13.44100834	 -2.91149890
Pt	 91.51897562	 13.44100834	 0.00000000
Pt	 91.51897562	 13.44100834	 2.91149890
Pt	 91.51897562	 13.44100834	 5.82299780
Pt	 91.51897562	 13.44100834	 8.73449670
Pt	 91.51897562	 13.44100834	 11.64599560
Pt	 91.51897562	 13.44100834	 14.55749449
Pt	 91.51897562	 13.44100834	 17.46899339
Pt	 91.51897562	 13.44100834	 20.38049229
Pt	 91.51897562	 13.44100834	 23.29199119
Pt	 119.22835387	 4.48033611	 -10.19024615
Pt	 119.22835387	 4.48033611	 -7.27874725
Pt	 119.22835387	 4.48033611	 -4.36724835
Pt	 119.22835387	 4.48033611	 -1.45574945
Pt	 119.22835387	 4.48033611	 1.45574945
Pt	 119.22835387	 4.48033611	 4.36724835
Pt	 119.22835387	 4.48033611	 7.27874725
Pt	 119.22835387	 4.48033611	 10.19024615
Pt	 85.18049408	 15.68117640	 -26.20349009
Pt	 85.18049408	 15.68117640	 -23.29199119
Pt	 85.18049408	 15.68117640	 -20.38049229
Pt	 85.18049408	 15.68117640	 -17.46899339
Pt	 85.18049408	 15.68117640	 -14.55749449
Pt	 85.18049408	 15.68117640	 -11.64599560
Pt	 85.18049408	 15.68117640	 -8.73449670
Pt	 85.18049408	 15.68117640	 -5.82299780
Pt	 85.18049408	 15.68117640	 -2.91149890
Pt	 85.18049408	 15.68117640	 0.00000000
Pt	 85.18049408	 15.68117640	 2.91149890
Pt	 85.18049408	 15.68117640	 5.82299780
Pt	 85.18049408	 15.68117640	 8.73449670
Pt	 85.18049408	 15.68117640	 11.64599560
Pt	 85.18049408	 15.68117640	 14.55749449
Pt	 85.18049408	 15.68117640	 17.46899339
Pt	 85.18049408	 15.68117640	 20.38049229
Pt	 85.18049408	 15.68117640	 23.29199119
Pt	 85.18049408	 15.68117640	 26.20349009
Pt	 112.88987233	 6.72050417	 -13.10174505
Pt	 112.88987233	 6.72050417	 -10.19024615
Pt	 112.88987233	 6.72050417	 -7.27874725
Pt	 112.88987233	 6.72050417	 -4.36724835
Pt	 112.88987233	 6.72050417	 -1.45574945
Pt	 112.88987233	 6.72050417	 1.45574945
Pt	 112.88987233	 6.72050417	 4.36724835
Pt	 112.88987233	 6.72050417	 7.27874725
Pt	 112.88987233	 6.72050417	 10.19024615
Pt	 112.88987233	 6.72050417	 13.10174505
Pt	 78.84201254	 17.92134446	 -29.11498899
Pt	 78.84201254	 17.92134446	 -26.20349009
Pt	 78.84201254	 17.92134446	 -23.29199119
Pt	 78.84201254	 17.92134446	 -20.38049229
Pt	 78.84201254	 17.92134446	 -17.46899339
Pt	 78.84201254	 17.92134446	 -14.55749449
Pt	 78.84201254	 17.92134446	 -11.64599560
Pt	 78.84201254	 17.92134446	 -8.73449670
Pt	 78.84201254	 17.92134446	 -5.82299780
Pt	 78.84201254	 17.92134446	 -2.91149890
Pt	 78.84201254	 17.92134446	 -0.00000000
Pt	 78.84201254	 17.92134446	 2.91149890
Pt	 78.84201254	 17.92134446	 5.82299780
Pt	 78.84201254	 17.92134446	 8.73449670
Pt	 78.84201254	 17.92134446	 11.64599560
Pt	 78.84201254	 17.92134446	 14.55749449
Pt	 78.84201254	 17.92134446	 17.46899339
Pt	 78.84201254	 17.92134446	 20.38049229
Pt	 78.84201254	 17.92134446	 23.29199119
Pt	 78.84201254	 17.92134446	 26.20349009
Pt	 78.84201254	 17.92134446	 29.11498899
Pt	 106.55139079	 8.96067223	 -16.01324394
Pt	 106.55139079	 8.96067223	 -13.10174505
Pt	 106.55139079	 8.96067223	 -10.19024615
Pt	 106.55139079	 8.96067223	 -7.27874725
Pt	 106.55139079	 8.96067223	 -4.36724835
Pt	 106.55139079	 8.96067223	 -1.45574945
Pt	 106.55139079	 8.96067223	 1.45574945
Pt	 106.55139079	 8.96067223	 4.36724835
Pt	 106.55139079	 8.96067223	 7.27874725
Pt	 106.55139079	 8.96067223	 10.19024615
Pt	 106.55139079	 8.96067223	 13.10174505
Pt	 106.55139079	 8.96067223	 16.01324394
Pt	 134.26076903	 0.00000000	 -2.91149890
Pt	 134.26076903	 0.00000000	 0.00000000
Pt	 134.26076903	 0.00000000	 2.91149890
Pt	 100.21290925	 11.20084029	 -18.92474284
Pt	 100.21290925	 11.20084029	 -16.01324394
Pt	 100.21290925	 11.20084029	 -13.10174505
Pt	 100.21290925	 11.20084029	 -10.19024615
Pt	 100.21290925	 11.20084029	 -7.27874725
Pt	 100.21290925	 11.20084029	 -4.36724835
Pt	 100.21290925	 11.20084029	 -1.45574945
Pt	 100.21290925	 11.20084029	 1.45574945
Pt	 100.21290925	 11.20084029	 4.36724835
Pt	 100.21290925	 11.20084029	 7.27874725
Pt	 100.21290925	 11.20084029	 10.19024615
Pt	 100.21290925	 11.20084029	 13.10174505
Pt	 100.21290925	 11.20084029	 16.01324394
Pt	 100.21290925	 11.20084029	 18.92474284
Pt	 127.92228749	 2.24016806	 -5.82299780
Pt	 127.92228749	 2.24016806	 -2.91149890
Pt	 127.92228749	 2.24016806	 0.00000000
Pt	 127.92228749	 2.24016806	 2.91149890
Pt	 127.92228749	 2.24016806	 5.82299780
Pt	 93.87442770	 13.44100834	 -21.83624174
Pt	 93.87442770	 13.44100834	 -18.92474284
Pt	 93.87442770	 13.44100834	 -16.01324394
Pt	 93.87442770	 13.44100834	 -13.10174505
Pt	 93.87442770	 13.44100834	 -10.19024615
Pt	 93.87442770	 13.44100834	 -7.27874725
Pt	 93.87442770	 13.44100834	 -4.36724835
Pt	 93.87442770	 13.44100834	 -1.45574945
Pt	 93.87442770	 13.44100834	 1.45574945
Pt	 93.87442770	 13.44100834	 4.36724835
Pt	 93.87442770	 13.44100834	 7.27874725
Pt	 93.87442770	 13.44100834	 10.19024615
Pt	 93.87442770	 13.44100834	 13.10174505
Pt	 93.87442770	 13.44100834	 16.01324394
Pt	 93.87442770	 13.44100834	 18.92474284
Pt	 93.87442770	 13.44100834	 21.83624174
Pt	 121.58380595	 4.48033611	 -8.73449670
Pt	 121.58380595	 4.48033611	 -5.82299780
Pt	 121.58380595	 4.48033611	 -2.91149890
Pt	 121.58380595	 4.48033611	 0.00000000
Pt	 121.58380595	 4.48033611	 2.91149890
Pt	 121.58380595	 4.48033611	 5.82299780
Pt	 121.58380595	 4.48033611	 8.73449670
Pt	 87.53594616	 15.68117640	 -24.74774064
Pt	 87.53594616	 15.68117640	 -21.83624174
Pt	 87.53594616	 15.68117640	 -18.92474284
Pt	 87.53594616	 15.68117640	 -16.01324394
Pt	 87.53594616	 15.68117640	 -13.10174505
Pt	 87.53594616	 15.68117640	 -10.19024615
Pt	 87.53594616	 15.68117640	 -7.27874725
Pt	 87.53594616	 15.68117640	 -4.36724835
Pt	 87.53594616	 15.68117640	 -1.45574945
Pt	 87.53594616	 15.68117640	 1.45574945
Pt	 87.53594616	 15.68117640	 4.36724835
Pt	 87.53594616	 15.68117640	 7.27874725
Pt	 87.53594616	 15.68117640	 10.19024615
Pt	 87.53594616	 15.68117640	 13.10174505
Pt	 87.53594616	 15.68117640	 16.01324394
Pt	 87.53594616	 15.68117640	 18.92474284
Pt	 87.53594616	 15.68117640	 21.83624174
Pt	 87.53594616	 15.68117640	 24.74774064
Pt	 115.24532441	 6.72050417	 -11.64599560
Pt	 115.24532441	 6.72050417	 -8.73449670
Pt	 115.24532441	 6.72050417	 -5.82299780
Pt	 115.24532441	 6.72050417	 -2.91149890
Pt	 115.24532441	 6.72050417	 0.00000000
Pt	 115.24532441	 6.72050417	 2.91149890
Pt	 115.24532441	 6.72050417	 5.82299780
Pt	 115.24532441	 6.72050417	 8.73449670
Pt	 115.24532441	 6.72050417	 11.64599560
Pt	 81.19746462	 17.92134446	 -27.65923954
Pt	 81.19746462	 17.92134446	 -24.74774064
Pt	 81.19746462	 17.92134446	 -21.83624174
Pt	 81.19746462	 17.92134446	 -18.92474284
Pt	 81.19746462	 17.92134446	 -16.01324394
Pt	 81.19746462	 17.92134446	 -13.10174505
Pt	 81.19746462	 17.92134446	 -10.19024615
Pt	 81.19746462	 17.92134446	 -7.27874725
Pt	 81.19746462	 17.92134446	 -4.36724835
Pt	 81.19746462	 17.92134446	 -1.45574945
Pt	 81.19746462	 17.92134446	 1.45574945
Pt	 81.19746462	 17.92134446	 4.36724835
Pt	 81.19746462	 17.92134446	 7.27874725
Pt	 81.19746462	 17.92134446	 10.19024615
Pt	 81.19746462	 17.92134446	 13.10174505
Pt	 81.19746462	 17.92134446	 16.01324394
Pt	 81.19746462	 17.92134446	 18.92474284
Pt	 81.19746462	 17.92134446	 21.83624174
Pt	 81.19746462	 17.92134446	 24.74774064
Pt	 81.19746462	 17.92134446	 27.65923954
Pt	 108.90684287	 8.96067223	 -14.55749449
Pt	 108.90684287	 8.96067223	 -11.64599560
Pt	 108.90684287	 8.96067223	 -8.73449670
Pt	 108.90684287	 8.96067223	 -5.82299780
Pt	 108.90684287	 8.96067223	 -2.91149890
Pt	 108.90684287	 8.96067223	 0.00000000
Pt	 108.90684287	 8.96067223	 2.91149890
Pt	 108.90684287	 8.96067223	 5.82299780
Pt	 108.90684287	 8.96067223	 8.73449670
Pt	 108.90684287	 8.96067223	 11.64599560
Pt	 108.90684287	 8.96067223	 14.55749449
Pt	 136.61622112	 0.00000000	 -1.45574945
Pt	 136.61622112	 0.00000000	 1.45574945
Pt	 102.56836133	 11.20084029	 -17.46899339
Pt	 102.56836133	 11.20084029	 -14.55749449
Pt	 102.56836133	 11.20084029	 -11.64599560
Pt	 102.56836133	 11.20084029	 -8.73449670
Pt	 102.56836133	 11.20084029	 -5.82299780
Pt	 102.56836133	 11.20084029	 -2.91149890
Pt	 102.56836133	 11.20084029	 0.00000000
Pt	 102.56836133	 11.20084029	 2.91149890
Pt	 102.56836133	 11.20084029	 5.82299780
Pt	 102.56836133	 11.20084029	 8.73449670
Pt	 102.56836133	 11.20084029	 11.64599560
Pt	 102.56836133	 11.20084029	 14.55749449
Pt	 102.56836133	 11.20084029	 17.46899339
Pt	 130.27773958	 2.24016806	 -4.36724835
Pt	 130.27773958	 2.24016806	 -1.45574945
Pt	 130.27773958	 2.24016806	 1.45574945
Pt	 130.27773958	 2.24016806	 4.36724835
Pt	 96.22987979	 13.44100834	 -20.38049229
Pt	 96.22987979	 13.44100834	 -17.46899339
Pt	 96.22987979	 13.44100834	 -14.55749449
Pt	 96.22987979	 13.44100834	 -11.64599560
Pt	 96.22987979	 13.44100834	 -8.73449670
Pt	 96.22987979	 13.44100834	 -5.82299780
Pt	 96.22987979	 13.44100834	 -2.91149890
Pt	 96.22987979	 13.44100834	 0.00000000
Pt	 96.22987979	 13.44100834	 2.91149890
Pt	 96.22987979	 13.44100834	 5.82299780
Pt	 96.22987979	 13.44100834	 8.73449670
Pt	 96.22987979	 13.44100834	 11.64599560
Pt	 96.22987979	 13.44100834	 14.55749449
Pt	 96.22987979	 13.44100834	 17.46899339
Pt	 96.22987979	 13.44100834	 20.38049229
Pt	 123.93925804	 4.48033611	 -7.27874725
Pt	 123.93925804	 4.48033611	 -4.36724835
Pt	 123.93925804	 4.48033611	 -1.45574945
Pt	 123.93925804	 4.48033611	 1.45574945
Pt	 123.93925804	 4.48033611	 4.36724835
Pt	 123.93925804	 4.48033611	 7.27874725
Pt	 89.89139825	 15.68117640	 -23.29199119
Pt	 89.89139825	 15.68117640	 -20.38049229
Pt	 89.89139825	 15.68117640	 -17.46899339
Pt	 89.89139825	 15.68117640	 -14.55749449
Pt	 89.89139825	 15.68117640	 -11.64599560
Pt	 89.89139825	 15.68117640	 -8.73449670
Pt	 89.89139825	 15.68117640	 -5.82299780
Pt	 89.89139825	 15.68117640	 -2.91149890
Pt	 89.89139825	 15.68117640	 0.00000000
Pt	 89.89139825	 15.68117640	 2.91149890
Pt	 89.89139825	 15.68117640	 5.82299780
Pt	 89.89139825	 15.68117640	 8.73449670
Pt	 89.89139825	 15.68117640	 11.64599560
Pt	 89.89139825	 15.68117640	 14.55749449
Pt	 89.89139825	 15.68117640	 17.46899339
Pt	 89.89139825	 15.68117640	 20.38049229
Pt	 89.89139825	 15.68117640	 23.29199119
Pt	 117.60077650	 6.72050417	 -10.19024615
Pt	 117.60077650	 6.72050417	 -7.27874725
Pt	 117.60077650	 6.72050417	 -4.36724835
Pt	 117.60077650	 6.72050417	 -1.45574945
Pt	 117.60077650	 6.72050417	 1.45574945
Pt	 117.60077650	 6.72050417	 4.36724835
Pt	 117.60077650	 6.72050417	 7.27874725
Pt	 117.60077650	 6.72050417	 10.19024615
Pt	 83.55291671	 17.92134446	 -26.20349009
Pt	 83.55291671	 17.92134446	 -23.29199119
Pt	 83.55291671	 17.92134446	 -20.38049229
Pt	 83.55291671	 17.92134446	 -17.46899339
Pt	 83.55291671	 17.92134446	 -14.55749449
Pt	 83.55291671	 17.92134446	 -11.64599560
Pt	 83.55291671	 17.92134446	 -8.73449670
Pt	 83.55291671	 17.92134446	 -5.82299780
Pt	 83.55291671	 17.92134446	 -2.91149890
Pt	 83.55291671	 17.92134446	 0.00000000
Pt	 83.55291671	 17.92134446	 2.91149890
Pt	 83.55291671	 17.92134446	 5.82299780
Pt	 83.55291671	 17.92134446	 8.73449670
Pt	 83.55291671	 17.92134446	 11.64599560
Pt	 83.55291671	 17.92134446	 14.55749449
Pt	 83.55291671	 17.92134446	 17.46899339
Pt	 83.55291671	 17.92134446	 20.38049229
Pt	 83.55291671	 17.92134446	 23.29199119
Pt	 83.55291671	 17.92134446	 26.20349009
Pt	 111.26229496	 8.96067223	 -13.10174505
Pt	 111.26229496	 8.96067223	 -10.19024615
Pt	 111.26229496	 8.96067223	 -7.27874725
Pt	 111.26229496	 8.96067223	 -4.36724835
Pt	 111.26229496	 8.96067223	 -1.45574945
Pt	 111.26229496	 8.96067223	 1.45574945
Pt	 111.26229496	 8.96067223	 4.36724835
Pt	 111.26229496	 8.96067223	 7.27874725
Pt	 111.26229496	 8.96067223	 10.19024615
Pt	 111.26229496	 8.96067223	 13.10174505
Pt	 138.97167321	 0.00000000	 0.00000000
Pt	 104.92381342	 11.20084029	 -16.01324394
Pt	 104.92381342	 11.20084029	 -13.10174505
Pt	 104.92381342	 11.20084029	 -10.19024615
Pt	 104.92381342	 11.20084029	 -7.27874725
Pt	 104.92381342	 11.20084029	 -4.36724835
Pt	 104.92381342	 11.20084029	 -1.45574945
Pt	 104.92381342	 11.20084029	 1.45574945
Pt	 104.92381342	 11.20084029	 4.36724835
Pt	 104.92381342	 11.20084029	 7.27874725
Pt	 104.92381342	 11.20084029	 10.19024615
Pt	 104.92381342	 11.20084029	 13.10174505
Pt	 104.92381342	 11.20084029	 16.01324394
Pt	 132.63319167	 2.24016806	 -2.91149890
Pt	 132.63319167	 2.24016806	 0.00000000
Pt	 132.63319167	 2.24016806	 2.91149890
Pt	 98.58533188	 13.44100834	 -18.92474284
Pt	 98.58533188	 13.44100834	 -16.01324394
Pt	 98.58533188	 13.44100834	 -13.10174505
Pt	 98.58533188	 13.44100834	 -10.19024615
Pt	 98.58533188	 13.44100834	 -7.27874725
Pt	 98.58533188	 13.44100834	 -4.36724835
Pt	 98.58533188	 13.44100834	 -1.45574945
Pt	 98.58533188	 13.44100834	 1.45574945
Pt	 98.58533188	 13.44100834	 4.36724835
Pt	 98.58533188	 13.44100834	 7.27874725
Pt	 98.58533188	 13.44100834	 10.19024615
Pt	 98.58533188	 13.44100834	 13.10174505
Pt	 98.58533188	 13.44100834	 16.01324394
Pt	 98.58533188	 13.44100834	 18.92474284
Pt	 126.29471013	 4.48033611	 -5.82299780
Pt	 126.29471013	 4.48033611	 -2.91149890
Pt	 126.29471013	 4.48033611	 0.00000000
Pt	 126.29471013	 4.48033611	 2.91149890
Pt	 126.29471013	 4.48033611	 5.82299780
Pt	 92.24685034	 15.68117640	 -21.83624174
Pt	 92.24685034	 15.68117640	 -18.92474284
Pt	 92.24685034	 15.68117640	 -16.01324394
Pt	 92.24685034	 15.68117640	 -13.10174505
Pt	 92.24685034	 15.68117640	 -10.19024615
Pt	 92.24685034	 15.68117640	 -7.27874725
Pt	 92.24685034	 15.68117640	 -4.36724835
Pt	 92.24685034	 15.68117640	 -1.45574945
Pt	 92.24685034	 15.68117640	 1.45574945
Pt	 92.24685034	 15.68117640	 4.36724835
Pt	 92.24685034	 15.68117640	 7.27874725
Pt	 92.24685034	 15.68117640	 10.19024615
Pt	 92.24685034	 15.68117640	 13.10174505
Pt	 92.24685034	 15.68117640	 16.01324394
Pt	 92.24685034	 15.68117640	 18.92474284
Pt	 92.24685034	 15.68117640	 21.83624174
Pt	 119.95622859	 6.72050417	 -8.73449670
Pt	 119.95622859	 6.72050417	 -5.82299780
Pt	 119.95622859	 6.72050417	 -2.91149890
Pt	 119.95622859	 6.72050417	 0.00000000
Pt	 119.95622859	 6.72050417	 2.91149890
Pt	 119.95622859	 6.72050417	 5.82299780
Pt	 119.95622859	 6.72050417	 8.73449670
Pt	 85.90836880	 17.92134446	 -24.74774064
Pt	 85.90836880	 17.92134446	 -21.83624174
Pt	 85.90836880	 17.92134446	 -18.92474284
Pt	 85.90836880	 17.92134446	 -16.01324394
Pt	 85.90836880	 17.92134446	 -13.10174505
Pt	 85.90836880	 17.92134446	 -10.19024615
Pt	 85.90836880	 17.92134446	 -7.27874725
Pt	 85.90836880	 17.92134446	 -4.36724835
Pt	 85.90836880	 17.92134446	 -1.45574945
Pt	 85.90836880	 17.92134446	 1.45574945
Pt	 85.90836880	 17.92134446	 4.36724835
Pt	 85.90836880	 17.92134446	 7.27874725
Pt	 85.90836880	 17.92134446	 10.19024615
Pt	 85.90836880	 17.92134446	 13.10174505
Pt	 85.90836880	 17.92134446	 16.01324394
Pt	 85.90836880	 17.92134446	 18.92474284
Pt	 85.90836880	 17.92134446	 21.83624174
Pt	 85.90836880	 17.92134446	 24.74774064
Pt	 113.61774705	 8.96067223	 -11.64599560
Pt	 113.61774705	 8.96067223	 -8.73449670
Pt	 113.61774705	 8.96067223	 -5.82299780
Pt	 113.61774705	 8.96067223	 -2.91149890
Pt	 113.61774705	 8.96067223	 0.00000000
Pt	 113.61774705	 8.96067223	 2.91149890
Pt	 113.61774705	 8.96067223	 5.82299780
Pt	 113.61774705	 8.96067223	 8.73449670
Pt	 113.61774705	 8.96067223	 11.64599560
Pt	 107.27926551	 11.20084029	 -14.55749449
Pt	 107.27926551	 11.20084029	 -11.64599560
Pt	 107.27926551	 11.20084029	 -8.73449670
Pt	 107.27926551	 11.20084029	 -5.82299780
Pt	 107.27926551	 11.20084029	 -2.91149890
Pt	 107.27926551	 11.20084029	 0.00000000
Pt	 107.27926551	 11.20084029	 2.91149890
Pt	 107.27926551	 11.20084029	 5.82299780
Pt	 107.27926551	 11.20084029	 8.73449670
Pt	 107.27926551	 11.20084029	 11.64599560
Pt	 107.27926551	 11.20084029	 14.55749449
Pt	 134.98864376	 2.24016806	 -1.45574945
Pt	 134.98864376	 2.24016806	 1.45574945
Pt	 100.94078397	 13.44100834	 -17.46899339
Pt	 100.94078397	 13.44100834	 -14.55749449
Pt	 100.94078397	 13.44100834	 -11.64599560
Pt	 100.94078397	 13.44100834	 -8.73449670
Pt	 100.94078397	 13.44100834	 -5.82299780
Pt	 100.94078397	 13.44100834	 -2.91149890
Pt	 100.94078397	 13.44100834	 0.00000000
Pt	 100.94078397	 13.44100834	 2.91149890
Pt	 100.94078397	 13.44100834	 5.82299780
Pt	 100.94078397	 13.44100834	 8.73449670
Pt	 100.94078397	 13.44100834	 11.64599560
Pt	 100.94078397	 13.44100834	 14.55749449
Pt	 100.94078397	 13.44100834	 17.46899339
Pt	 128.65016222	 4.48033611	 -4.36724835
Pt	 128.65016222	 4.48033611	 -1.45574945
Pt	 128.65016222	 4.48033611	 1.45574945
Pt	 128.65016222	 4.48033611	 4.36724835
Pt	 94.60230243	 15.68117640	 -20.38049229
Pt	 94.60230243	 15.68117640	 -17.46899339
Pt	 94.60230243	 15.68117640	 -14.55749449
Pt	 94.60230243	 15.68117640	 -11.64599560
Pt	 94.60230243	 15.68117640	 -8.73449670
Pt	 94.60230243	 15.68117640	 -5.82299780
Pt	 94.60230243	 15.68117640	 -2.91149890
Pt	 94.60230243	 15.68117640	 0.00000000
Pt	 94.60230243	 15.68117640	 2.91149890
Pt	 94.60230243	 15.68117640	 5.82299780
Pt	 94.60230243	 15.68117640	 8.73449670
Pt	 94.60230243	 15.68117640	 11.64599560
Pt	 94.60230243	 15.68117640	 14.55749449
Pt	 94.60230243	 15.68117640	 17.46899339
Pt	 94.60230243	 15.68117640	 20.38049229
Pt	 122.31168068	 6.72050417	 -7.27874725
Pt	 122.31168068	 6.72050417	 -4.36724835
Pt	 122.31168068	 6.72050417	 -1.45574945
Pt	 122.31168068	 6.72050417	 1.45574945
Pt	 122.31168068	 6.72050417	 4.36724835
Pt	 122.31168068	 6.72050417	 7.27874725
Pt	 88.26382089	 17.92134446	 -23.29199119
Pt	 88.26382089	 17.92134446	 -20.38049229
Pt	 88.26382089	 17.92134446	 -17.46899339
Pt	 88.26382089	 17.92134446	 -14.55749449
Pt	 88.26382089	 17.92134446	 -11.64599560
Pt	 88.26382089	 17.92134446	 -8.73449670
Pt	 88.26382089	 17.92134446	 -5.82299780
Pt	 88.26382089	 17.92134446	 -2.91149890
Pt	 88.26382089	 17.92134446	 0.00000000
Pt	 88.26382089	 17.92134446	 2.91149890
Pt	 88.26382089	 17.92134446	 5.82299780
Pt	 88.26382089	 17.92134446	 8.73449670
Pt	 88.26382089	 17.92134446	 11.64599560
Pt	 88.26382089	 17.92134446	 14.55749449
Pt	 88.26382089	 17.92134446	 17.46899339
Pt	 88.26382089	 17.92134446	 20.38049229
Pt	 88.26382089	 17.92134446	 23.29199119
Pt	 115.97319914	 8.96067223	 -10.19024615
Pt	 115.97319914	 8.96067223	 -7.27874725
Pt	 115.97319914	 8.96067223	 -4.36724835
Pt	 115.97319914	 8.96067223	 -1.45574945
Pt	 115.97319914	 8.96067223	 1.45574945
Pt	 115.97319914	 8.96067223	 4.36724835
Pt	 115.97319914	 8.96067223	 7.27874725
Pt	 115.97319914	 8.96067223	 10.19024615
Pt	 109.63471760	 11.20084029	 -13.10174505
Pt	 109.63471760	 11.20084029	 -10.19024615
Pt	 109.63471760	 11.20084029	 -7.27874725
Pt	 109.63471760	 11.20084029	 -4.36724835
Pt	 109.63471760	 11.20084029	 -1.45574945
Pt	 109.63471760	 11.20084029	 1.45574945
Pt	 109.63471760	 11.20084029	 4.36724835
Pt	 109.63471760	 11.20084029	 7.27874725
Pt	 109.63471760	 11.20084029	 10.19024615
Pt	 109.63471760	 11.20084029	 13.10174505
Pt	 137.34409585	 2.24016806	 0.00000000
Pt	 103.29623606	 13.44100834	 -16.01324394
Pt	 103.29623606	 13.44100834	 -13.10174505
Pt	 103.29623606	 13.44100834	 -10.19024615
Pt	 103.29623606	 13.44100834	 -7.27874725
Pt	 103.29623606	 13.44100834	 -4.36724835
Pt	 103.29623606	 13.44100834	 -1.45574945
Pt	 103.29623606	 13.44100834	 1.45574945
Pt	 103.29623606	 13.44100834	 4.36724835
Pt	 103.29623606	 13.44100834	 7.27874725
Pt	 103.29623606	 13.44100834	 10.19024615
Pt	 103.29623606	 13.44100834	 13.10174505
Pt	 103.29623606	 13.44100834	 16.01324394
Pt	 131.00561431	 4.48033611	 -2.91149890
Pt	 131.00561431	 4.48033611	 0.00000000
Pt	 131.00561431	 4.48033611	 2.91149890
Pt	 96.95775452	 15.68117640	 -18.92474284
Pt	 96.95775452	 15.68117640	 -16.01324394
Pt	 96.95775452	 15.68117640	 -13.10174505
Pt	 96.95775452	 15.68117640	 -10.19024615
Pt	 96.95775452	 15.68117640	 -7.27874725
Pt	 96.95775452	 15.68117640	 -4.36724835
Pt	 96.95775452	 15.68117640	 -1.45574945
Pt	 96.95775452	 15.68117640	 1.45574945
Pt	 96.95775452	 15.68117640	 4.36724835
Pt	 96.95775452	 15.68117640	 7.27874725
Pt	 96.95775452	 15.68117640	 10.19024615
Pt	 96.95775452	 15.68117640	 13.10174505
Pt	 96.95775452	 15.68117640	 16.01324394
Pt	 96.95775452	 15.68117640	 18.92474284
Pt	 124.66713277	 6.72050417	 -5.82299780
Pt	 124.66713277	 6.72050417	 -2.91149890
Pt	 124.66713277	 6.72050417	 0.00000000
Pt	 124.66713277	 6.72050417	 2.91149890
Pt	 124.66713277	 6.72050417	 5.82299780
Pt	 90.61927298	 17.92134446	 -21.83624174
Pt	 90.61927298	 17.92134446	 -18.92474284
Pt	 90.61927298	 17.92134446	 -16.01324394
Pt	 90.61927298	 17.92134446	 -13.10174505
Pt	 90.61927298	 17.92134446	 -10.19024615
Pt	 90.61927298	 17.92134446	 -7.27874725
Pt	 90.61927298	 17.92134446	 -4.36724835
Pt	 90.61927298	 17.92134446	 -1.45574945
Pt	 90.61927298	 17.92134446	 1.45574945
Pt	 90.61927298	 17.92134446	 4.36724835
Pt	 90.61927298	 17.92134446	 7.27874725
Pt	 90.61927298	 17.92134446	 10.19024615
Pt	 90.61927298	 17.92134446	 13.10174505
Pt	 90.61927298	 17.92134446	 16.01324394
Pt	 90.61927298	 17.92134446	 18.92474284
Pt	 90.61927298	 17.92134446	 21.83624174
Pt	 118.32865123	 8.96067223	 -8.73449670
Pt	 118.32865123	 8.96067223	 -5.82299780
Pt	 118.32865123	 8.96067223	 -2.91149890
Pt	 118.32865123	 8.96067223	 0.00000000
Pt	 118.32865123	 8.96067223	 2.91149890
Pt	 118.32865123	 8.96067223	 5.82299780
Pt	 118.32865123	 8.96067223	 8.73449670
Pt	 111.99016969	 11.20084029	 -11.64599560
Pt	 111.99016969	 11.20084029	 -8.73449670
Pt	 111.99016969	 11.20084029	 -5.82299780
Pt	 111.99016969	 11.20084029	 -2.91149890
Pt	 111.99016969	 11.20084029	 0.00000000
Pt	 111.99016969	 11.20084029	 2.91149890
Pt	 111.99016969	 11.20084029	 5.82299780
Pt	 111.99016969	 11.20084029	 8.73449670
Pt	 111.99016969	 11.20084029	 11.64599560
Pt	 105.65168815	 13.44100834	 -14.55749449
Pt	 105.65168815	 13.44100834	 -11.64599560
Pt	 105.65168815	 13.44100834	 -8.73449670
Pt	 105.65168815	 13.44100834	 -5.82299780
Pt	 105.65168815	 13.44100834	 -2.91149890
Pt	 105.65168815	 13.44100834	 0.00000000
Pt	 105.65168815	 13.44100834	 2.91149890
Pt	 105.65168815	 13.44100834	 5.82299780
Pt	 105.65168815	 13.44100834	 8.73449670
Pt	 105.65168815	 13.44100834	 11.64599560
Pt	 105.65168815	 13.44100834	 14.55749449
Pt	 133.36106640	 4.48033611	 -1.45574945
Pt	 133.36106640	 4.48033611	 1.45574945
Pt	 99.31320661	 15.68117640	 -17.46899339
Pt	 99.31320661	 15.68117640	 -14.55749449
Pt	 99.31320661	 15.68117640	 -11.64599560
Pt	 99.31320661	 15.68117640	 -8.73449670
Pt	 99.31320661	 15.68117640	 -5.82299780
Pt	 99.31320661	 15.68117640	 -2.91149890
Pt	 99.31320661	 15.68117640	 0.00000000
Pt	 99.31320661	 15.68117640	 2.91149890
Pt	 99.31320661	 15.68117640	 5.82299780
Pt	 99.31320661	 15.68117640	 8.73449670
Pt	 99.31320661	 15.68117640	 11.64599560
Pt	 99.31320661	 15.68117640	 14.55749449
Pt	 99.31320661	 15.68117640	 17.46899339
Pt	 127.02258486	 6.72050417	 -4.36724835
Pt	 127.02258486	 6.72050417	 -1.45574945
Pt	 127.02258486	 6.72050417	 1.45574945
Pt	 127.02258486	 6.72050417	 4.36724835
Pt	 92.97472507	 17.92134446	 -20.38049229
Pt	 92.97472507	 17.92134446	 -17.46899339
Pt	 92.97472507	 17.92134446	 -14.55749449
Pt	 92.97472507	 17.92134446	 -11.64599560
Pt	 92.97472507	 17.92134446	 -8.73449670
Pt	 92.97472507	 17.92134446	 -5.82299780
Pt	 92.97472507	 17.92134446	 -2.91149890
Pt	 92.97472507	 17.92134446	 0.00000000
Pt	 92.97472507	 17.92134446	 2.91149890
Pt	 92.97472507	 17.92134446	 5.82299780
Pt	 92.97472507	 17.92134446	 8.73449670
Pt	 92.97472507	 17.92134446	 11.64599560
Pt	 92.97472507	 17.92134446	 14.55749449
Pt	 92.97472507	 17.92134446	 17.46899339
Pt	 92.97472507	 17.92134446	 20.38049229
Pt	 120.68410332	 8.96067223	 -7.27874725
Pt	 120.68410332	 8.96067223	 -4.36724835
Pt	 120.68410332	 8.96067223	 -1.45574945
Pt	 120.68410332	 8.96067223	 1.45574945
Pt	 120.68410332	 8.96067223	 4.36724835
Pt	 120.68410332	 8.96067223	 7.27874725
Pt	 114.34562178	 11.20084029	 -10.19024615
Pt	 114.34562178	 11.20084029	 -7.27874725
Pt	 114.34562178	 11.20084029	 -4.36724835
Pt	 114.34562178	 11.20084029	 -1.45574945
Pt	 114.34562178	 11.20084029	 1.45574945
Pt	 114.34562178	 11.20084029	 4.36724835
Pt	 114.34562178	 11.20084029	 7.27874725
Pt	 114.34562178	 11.20084029	 10.19024615
Pt	 108.00714023	 13.44100834	 -13.10174505
Pt	 108.00714023	 13.44100834	 -10.19024615
Pt	 108.00714023	 13.44100834	 -7.27874725
Pt	 108.00714023	 13.44100834	 -4.36724835
Pt	 108.00714023	 13.44100834	 -1.45574945
Pt	 108.00714023	 13.44100834	 1.45574945
Pt	 108.00714023	 13.44100834	 4.36724835
Pt	 108.00714023	 13.44100834	 7.27874725
Pt	 108.00714023	 13.44100834	 10.19024615
Pt	 108.00714023	 13.44100834	 13.10174505
Pt	 135.71651848	 4.48033611	 0.00000000
Pt	 101.66865869	 15.68117640	 -16.01324394
Pt	 101.66865869	 15.68117640	 -13.10174505
Pt	 101.66865869	 15.68117640	 -10.19024615
Pt	 101.66865869	 15.68117640	 -7.27874725
Pt	 101.66865869	 15.68117640	 -4.36724835
Pt	 101.66865869	 15.68117640	 -1.45574945
Pt	 101.66865869	 15.68117640	 1.45574945
Pt	 101.66865869	 15.68117640	 4.36724835
Pt	 101.66865869	 15.68117640	 7.27874725
Pt	 101.66865869	 15.68117640	 10.19024615
Pt	 101.66865869	 15.68117640	 13.10174505
Pt	 101.66865869	 15.68117640	 16.01324394
Pt	 129.37803694	 6.72050417	 -2.91149890
Pt	 129.37803694	 6.72050417	 0.00000000
Pt	 129.37803694	 6.72050417	 2.91149890
Pt	 95.33017715	 17.92134446	 -18.92474284
Pt	 95.33017715	 17.92134446	 -16.01324394
Pt	 95.33017715	 17.92134446	 -13.10174505
Pt	 95.33017715	 17.92134446	 -10.19024615
Pt	 95.33017715	 17.92134446	 -7.27874725
Pt	 95.33017715	 17.92134446	 -4.36724835
Pt	 95.33017715	 17.92134446	 -1.45574945
Pt	 95.33017715	 17.92134446	 1.45574945
Pt	 95.33017715	 17.92134446	 4.36724835
Pt	 95.33017715	 17.92134446	 7.27874725
Pt	 95.33017715	 17.92134446	 10.19024615
Pt	 95.33017715	 17.92134446	 13.10174505
Pt	 95.33017715	 17.92134446	 16.01324394
Pt	 95.33017715	 17.92134446	 18.92474284
Pt	 123.03955540	 8.96067223	 -5.82299780
Pt	 123.03955540	 8.96067223	 -2.91149890
Pt	 123.03955540	 8.96067223	 0.00000000
Pt	 123.03955540	 8.96067223	 2.91149890
Pt	 123.03955540	 8.96067223	 5.82299780
Pt	 116.70107386	 11.20084029	 -8.73449670
Pt	 116.70107386	 11.20084029	 -5.82299780
Pt	 116.70107386	 11.20084029	 -2.91149890
Pt	 116.70107386	 11.20084029	 0.00000000
Pt	 116.70107386	 11.20084029	 2.91149890
Pt	 116.70107386	 11.20084029	 5.82299780
Pt	 116.70107386	 11.20084029	 8.73449670
Pt	 110.36259232	 13.44100834	 -11.64599560
Pt	 110.36259232	 13.44100834	 -8.73449670
Pt	 110.36259232	 13.44100834	 -5.82299780
Pt	 110.36259232	 13.44100834	 -2.91149890
Pt	 110.36259232	 13.44100834	 0.00000000
Pt	 110.36259232	 13.44100834	 2.91149890
Pt	 110.36259232	 13.44100834	 5.82299780
Pt	 110.36259232	 13.44100834	 8.73449670
Pt	 110.36259232	 13.44100834	 11.64599560
Pt	 104.02411078	 15.68117640	 -14.55749449
Pt	 104.02411078	 15.68117640	 -11.64599560
Pt	 104.02411078	 15.68117640	 -8.73449670
Pt	 104.02411078	 15.68117640	 -5.82299780
Pt	 104.02411078	 15.68117640	 -2.91149890
Pt	 104.02411078	 15.68117640	 0.00000000
Pt	 104.02411078	 15.68117640	 2.91149890
Pt	 104.02411078	 15.68117640	 5.82299780
Pt	 104.02411078	 15.68117640	 8.73449670
Pt	 104.02411078	 15.68117640	 11.64599560
Pt	 104.02411078	 15.68117640	 14.55749449
Pt	 131.73348903	 6.72050417	 -1.45574945
Pt	 131.73348903	 6.72050417	 1.45574945
Pt	 97.68562924	 17.92134446	 -17.46899339
Pt	 97.68562924	 17.92134446	 -14.55749449
Pt	 97.68562924	 17.92134446	 -11.64599560
Pt	 97.68562924	 17.92134446	 -8.73449670
Pt	 97.68562924	 17.92134446	 -5.82299780
Pt	 97.68562924	 17.92134446	 -2.91149890
Pt	 97.68562924	 17.92134446	 0.00000000
Pt	 97.68562924	 17.92134446	 2.91149890
Pt	 97.68562924	 17.92134446	 5.82299780
Pt	 97.68562924	 17.92134446	 8.73449670
Pt	 97.68562924	 17.92134446	 11.64599560
Pt	 97.68562924	 17.92134446	 14.55749449
Pt	 97.68562924	 17.92134446	 17.46899339
Pt	 125.39500749	 8.96067223	 -4.36724835
Pt	 125.39500749	 8.96067223	 -1.45574945
Pt	 125.39500749	 8.96067223	 1.45574945
Pt	 125.39500749	 8.96067223	 4.36724835
Pt	 119.05652595	 11.20084029	 -7.27874725
Pt	 119.05652595	 11.20084029	 -4.36724835
Pt	 119.05652595	 11.20084029	 -1.45574945
Pt	 119.05652595	 11.20084029	 1.45574945
Pt	 119.05652595	 11.20084029	 4.36724835
Pt	 119.05652595	 11.20084029	 7.27874725
Pt	 112.71804441	 13.44100834	 -10.19024615
Pt	 112.71804441	 13.44100834	 -7.27874725
Pt	 112.71804441	 13.44100834	 -4.36724835
Pt	 112.71804441	 13.44100834	 -1.45574945
Pt	 112.71804441	 13.44100834	 1.45574945
Pt	 112.71804441	 13.44100834	 4.36724835
Pt	 112.71804441	 13.44100834	 7.27874725
Pt	 112.71804441	 13.44100834	 10.19024615
Pt	 106.37956287	 15.68117640	 -13.10174505
Pt	 106.37956287	 15.68117640	 -10.19024615
Pt	 106.37956287	 15.68117640	 -7.27874725
Pt	 106.37956287	 15.68117640	 -4.36724835
Pt	 106.37956287	 15.68117640	 -1.45574945
Pt	 106.37956287	 15.68117640	 1.45574945
Pt	 106.37956287	 15.68117640	 4.36724835
Pt	 106.37956287	 15.68117640	 7.27874725
Pt	 106.37956287	 15.68117640	 10.19024615
Pt	 106.37956287	 15.68117640	 13.10174505
Pt	 134.08894112	 6.72050417	 0.00000000
Pt	 100.04108133	 17.92134446	 -16.01324394
Pt	 100.04108133	 17.92134446	 -13.10174505
Pt	 100.04108133	 17.92134446	 -10.19024615
Pt	 100.04108133	 17.92134446	 -7.27874725
Pt	 100.04108133	 17.92134446	 -4.36724835
Pt	 100.04108133	 17.92134446	 -1.45574945
Pt	 100.04108133	 17.92134446	 1.45574945
Pt	 100.04108133	 17.92134446	 4.36724835
Pt	 100.04108133	 17.92134446	 7.27874725
Pt	 100.04108133	 17.92134446	 10.19024615
Pt	 100.04108133	 17.92134446	 13.10174505
Pt	 100.04108133	 17.92134446	 16.01324394
Pt	 127.75045958	 8.96067223	 -2.91149890
Pt	 127.75045958	 8.96067223	 0.00000000
Pt	 127.75045958	 8.96067223	 2.91149890
Pt	 121.41197804	 11.20084029	 -5.82299780
Pt	 121.41197804	 11.20084029	 -2.91149890
Pt	 121.41197804	 11.20084029	 0.00000000
Pt	 121.41197804	 11.20084029	 2.91149890
Pt	 121.41197804	 11.20084029	 5.82299780
Pt	 115.07349650	 13.44100834	 -8.73449670
Pt	 115.07349650	 13.44100834	 -5.82299780
Pt	 115.07349650	 13.44100834	 -2.91149890
Pt	 115.07349650	 13.44100834	 0.00000000
Pt	 115.07349650	 13.44100834	 2.91149890
Pt	 115.07349650	 13.44100834	 5.82299780
Pt	 115.07349650	 13.44100834	 8.73449670
Pt	 108.73501496	 15.68117640	 -11.64599560
Pt	 108.73501496	 15.68117640	 -8.73449670
Pt	 108.73501496	 15.68117640	 -5.82299780
Pt	 108.73501496	 15.68117640	 -2.91149890
Pt	 108.73501496	 15.68117640	 0.00000000
Pt	 108.73501496	 15.68117640	 2.91149890
Pt	 108.73501496	 15.68117640	 5.82299780
Pt	 108.73501496	 15.68117640	 8.73449670
Pt	 108.73501496	 15.68117640	 11.64599560
Pt	 102.39653342	 17.92134446	 -14.55749449
Pt	 102.39653342	 17.92134446	 -11.64599560
Pt	 102.39653342	 17.92134446	 -8.73449670
Pt	 102.39653342	 17.92134446	 -5.82299780
Pt	 102.39653342	 17.92134446	 -2.91149890
Pt	 102.39653342	 17.92134446	 0.00000000
Pt	 102.39653342	 17.92134446	 2.91149890
Pt	 102.39653342	 17.92134446	 5.82299780
Pt	 102.39653342	 17.92134446	 8.73449670
Pt	 102.39653342	 17.92134446	 11.64599560
Pt	 102.39653342	 17.92134446	 14.55749449
Pt	 130.10591167	 8.96067223	 -1.45574945
Pt	 130.10591167	 8.96067223	 1.45574945
Pt	 123.76743013	 11.20084029	 -4.36724835
Pt	 123.76743013	 11.20084029	 -1.45574945
Pt	 123.76743013	 11.20084029	 1.45574945
Pt	 123.76743013	 11.20084029	 4.36724835
Pt	 117.42894859	 13.44100834	 -7.27874725
Pt	 117.42894859	 13.44100834	 -4.36724835
Pt	 117.42894859	 13.44100834	 -1.45574945
Pt	 117.42894859	 13.44100834	 1.45574945
Pt	 117.42894859	 13.44100834	 4.36724835
Pt	 117.42894859	 13.44100834	 7.27874725
Pt	 111.09046705	 15.68117640	 -10.19024615
Pt	 111.09046705	 15.68117640	 -7.27874725
Pt	 111.09046705	 15.68117640	 -4.36724835
Pt	 111.09046705	 15.68117640	 -1.45574945
Pt	 111.09046705	 15.68117640	 1.45574945
Pt	 111.09046705	 15.68117640	 4.36724835
Pt	 111.09046705	 15.68117640	 7.27874725
Pt	 111.09046705	 15.68117640	 10.19024615
Pt	 104.75198551	 17.92134446	 -13.10174505
Pt	 104.75198551	 17.92134446	 -10.19024615
Pt	 104.75198551	 17.92134446	 -7.27874725
Pt	 104.75198551	 17.92134446	 -4.36724835
Pt	 104.75198551	 17.92134446	 -1.45574945
Pt	 104.75198551	 17.92134446	 1.45574945
Pt	 104.75198551	 17.92134446	 4.36724835
Pt	 104.75198551	 17.92134446	 7.27874725
Pt	 104.75198551	 17.92134446	 10.19024615
Pt	 104.75198551	 17.92134446	 13.10174505
Pt	 132.46136376	 8.96067223	 0.00000000
Pt	 126.12288222	 11.20084029	 -2.91149890
Pt	 126.12288222	 11.20084029	 0.00000000
Pt	 126.12288222	 11.20084029	 2.91149890
Pt	 119.78440068	 13.44100834	 -5.82299780
Pt	 119.78440068	 13.44100834	 -2.91149890
Pt	 119.78440068	 13.44100834	 0.00000000
Pt	 119.78440068	 13.44100834	 2.91149890
Pt	 119.78440068	 13.44100834	 5.82299780
Pt	 113.44591914	 15.68117640	 -8.73449670
Pt	 113.44591914	 15.68117640	 -5.82299780
Pt	 113.44591914	 15.68117640	 -2.91149890
Pt	 113.44591914	 15.68117640	 0.00000000
Pt	 113.44591914	 15.68117640	 2.91149890
Pt	 113.44591914	 15.68117640	 5.82299780
Pt	 113.44591914	 15.68117640	 8.73449670
Pt	 107.10743760	 17.92134446	 -11.64599560
Pt	 107.10743760	 17.92134446	 -8.73449670
Pt	 107.10743760	 17.92134446	 -5.82299780
Pt	 107.10743760	 17.92134446	 -2.91149890
Pt	 107.10743760	 17.92134446	 0.00000000
Pt	 107.10743760	 17.92134446	 2.91149890
Pt	 107.10743760	 17.92134446	 5.82299780
Pt	 107.10743760	 17.92134446	 8.73449670
Pt	 107.10743760	 17.92134446	 11.64599560
Pt	 128.47833430	 11.20084029	 -1.45574945
Pt	 128.47833430	 11.20084029	 1.45574945
Pt	 122.13985276	 13.44100834	 -4.36724835
Pt	 122.13985276	 13.44100834	 -1.45574945
Pt	 122.13985276	 13.44100834	 1.45574945
Pt	 122.13985276	 13.44100834	 4.36724835
Pt	 115.80137122	 15.68117640	 -7.27874725
Pt	 115.80137122	 15.68117640	 -4.36724835
Pt	 115.80137122	 15.68117640	 -1.45574945
Pt	 115.80137122	 15.68117640	 1.45574945
Pt	 115.80137122	 15.68117640	 4.36724835
Pt	 115.80137122	 15.68117640	 7.27874725
Pt	 109.46288968	 17.92134446	 -10.19024615
Pt	 109.46288968	 17.92134446	 -7.27874725
Pt	 109.46288968	 17.92134446	 -4.36724835
Pt	 109.46288968	 17.92134446	 -1.45574945
Pt	 109.46288968	 17.92134446	 1.45574945
Pt	 109.46288968	 17.92134446	 4.36724835
Pt	 109.46288968	 17.92134446	 7.27874725
Pt	 109.46288968	 17.92134446	 10.19024615
Pt	 130.83378639	 11.20084029	 0.00000000
Pt	 124.49530485	 13.44100834	 -2.91149890
Pt	 124.49530485	 13.44100834	 0.00000000
Pt	 124.49530485	 13.44100834	 2.91149890
Pt	 118.15682331	 15.68117640	 -5.82299780
Pt	 118.15682331	 15.68117640	 -2.91149890
Pt	 118.15682331	 15.68117640	 0.00000000
Pt	 118.15682331	 15.68117640	 2.91149890
Pt	 118.15682331	 15.68117640	 5.82299780
Pt	 111.81834177	 17.92134446	 -8.73449670
Pt	 111.81834177	 17.92134446	 -5.82299780
Pt	 111.81834177	 17.92134446	 -2.91149890
Pt	 111.81834177	 17.92134446	 0.00000000
Pt	 111.81834177	 17.92134446	 2.91149890
Pt	 111.81834177	 17.92134446	 5.82299780
Pt	 111.81834177	 17.92134446	 8.73449670
Pt	 126.85075694	 13.44100834	 -1.45574945
Pt	 126.85075694	 13.44100834	 1.45574945
Pt	 120.51227540	 15.68117640	 -4.36724835
Pt	 120.51227540	 15.68117640	 -1.45574945
Pt	 120.51227540	 15.68117640	 1.45574945
Pt	 120.51227540	 15.68117640	 4.36724835
Pt	 114.17379386	 17.92134446	 -7.27874725
Pt	 114.17379386	 17.92134446	 -4.36724835
Pt	 114.17379386	 17.92134446	 -1.45574945
Pt	 114.17379386	 17.92134446	 1.45574945
Pt	 114.17379386	 17.92134446	 4.36724835
Pt	 114.17379386	 17.92134446	 7.27874725
Pt	 129.20620903	 13.44100834	 0.00000000
Pt	 122.86772749	 15.68117640	 -2.91149890
Pt	 122.86772749	 15.68117640	 0.00000000
Pt	 122.86772749	 15.68117640	 2.91149890
Pt	 116.52924595	 17.92134446	 -5.82299780
Pt	 116.52924595	 17.92134446	 -2.91149890
Pt	 116.52924595	 17.92134446	 0.00000000
Pt	 116.52924595	 17.92134446	 2.91149890
Pt	 116.52924595	 17.92134446	 5.82299780
Pt	 125.22317958	 15.68117640	 -1.45574945
Pt	 125.22317958	 15.68117640	 1.45574945
Pt	 118.88469804	 17.92134446	 -4.36724835
Pt	 118.88469804	 17.92134446	 -1.45574945
Pt	 118.88469804	 17.92134446	 1.45574945
Pt	 118.88469804	 17.92134446	 4.36724835
Pt	 127.57863167	 15.68117640	 0.00000000
Pt	 121.24015013	 17.92134446	 -2.91149890
Pt	 121.24015013	 17.92134446	 0.00000000
Pt	 121.24015013	 17.92134446	 2.91149890
Pt	 123.59560221	 17.92134446	 -1.45574945
Pt	 123.59560221	 17.92134446	 1.45574945
Pt	 125.95105430	 17.92134446	 0.00000000
