8480 
{'Au': 8480}
Au	 0.00000000	 0.00000000	 42.21673403
Au	 28.26542506	 0.00000000	 24.74774064
Au	 8.73449670	 26.88201669	 24.74774064
Au	 -22.86720923	 16.61400000	 24.74774064
Au	 -22.86720923	 -16.61400000	 24.74774064
Au	 8.73449670	 -26.88201669	 24.74774064
Au	 2.35545209	 0.00000000	 40.76098458
Au	 0.72787472	 2.24016806	 40.76098458
Au	 -1.90560077	 1.38450000	 40.76098458
Au	 -1.90560077	 -1.38450000	 40.76098458
Au	 0.72787472	 -2.24016806	 40.76098458
Au	 26.63784770	 2.24016806	 24.74774064
Au	 6.10102120	 26.02634863	 24.74774064
Au	 -22.86720923	 13.84500000	 24.74774064
Au	 -20.23373373	 -17.46966806	 24.74774064
Au	 10.36207406	 -24.64184863	 24.74774064
Au	 4.71090418	 0.00000000	 39.30523514
Au	 1.45574945	 4.48033611	 39.30523514
Au	 -3.81120154	 2.76900000	 39.30523514
Au	 -3.81120154	 -2.76900000	 39.30523514
Au	 1.45574945	 -4.48033611	 39.30523514
Au	 25.01027033	 4.48033611	 24.74774064
Au	 3.46754571	 25.17068057	 24.74774064
Au	 -22.86720923	 11.07600000	 24.74774064
Au	 -17.60025824	 -18.32533611	 24.74774064
Au	 11.98965142	 -22.40168057	 24.74774064
Au	 7.06635626	 0.00000000	 37.84948569
Au	 2.18362417	 6.72050417	 37.84948569
Au	 -5.71680231	 4.15350000	 37.84948569
Au	 -5.71680231	 -4.15350000	 37.84948569
Au	 2.18362417	 -6.72050417	 37.84948569
Au	 23.38269297	 6.72050417	 24.74774064
Au	 0.83407022	 24.31501252	 24.74774064
Au	 -22.86720923	 8.30700000	 24.74774064
Au	 -14.96678275	 -19.18100417	 24.74774064
Au	 13.61722879	 -20.16151252	 24.74774064
Au	 9.42180835	 0.00000000	 36.39373624
Au	 2.91149890	 8.96067223	 36.39373624
Au	 -7.62240308	 5.53800000	 36.39373624
Au	 -7.62240308	 -5.53800000	 36.39373624
Au	 2.91149890	 -8.96067223	 36.39373624
Au	 21.75511561	 8.96067223	 24.74774064
Au	 -1.79940528	 23.45934446	 24.74774064
Au	 -22.86720923	 5.53800000	 24.74774064
Au	 -12.33330725	 -20.03667223	 24.74774064
Au	 15.24480615	 -17.92134446	 24.74774064
Au	 11.77726044	 0.00000000	 34.93798679
Au	 3.63937362	 11.20084029	 34.93798679
Au	 -9.52800384	 6.92250000	 34.93798679
Au	 -9.52800384	 -6.92250000	 34.93798679
Au	 3.63937362	 -11.20084029	 34.93798679
Au	 20.12753824	 11.20084029	 24.74774064
Au	 -4.43288077	 22.60367640	 24.74774064
Au	 -22.86720923	 2.76900000	 24.74774064
Au	 -9.69983176	 -20.89234029	 24.74774064
Au	 16.87238351	 -15.68117640	 24.74774064
Au	 14.13271253	 0.00000000	 33.48223734
Au	 4.36724835	 13.44100834	 33.48223734
Au	 -11.43360461	 8.30700000	 33.48223734
Au	 -11.43360461	 -8.30700000	 33.48223734
Au	 4.36724835	 -13.44100834	 33.48223734
Au	 18.49996088	 13.44100834	 24.74774064
Au	 -7.06635626	 21.74800834	 24.74774064
Au	 -22.86720923	 0.00000000	 24.74774064
Au	 -7.06635626	 -21.74800834	 24.74774064
Au	 18.49996088	 -13.44100834	 24.74774064
Au	 16.48816462	 0.00000000	 32.02648789
Au	 5.09512307	 15.68117640	 32.02648789
Au	 -13.33920538	 9.69150000	 32.02648789
Au	 -13.33920538	 -9.69150000	 32.02648789
Au	 5.09512307	 -15.68117640	 32.02648789
Au	 16.87238351	 15.68117640	 24.74774064
Au	 -9.69983176	 20.89234029	 24.74774064
Au	 -22.86720923	 -2.76900000	 24.74774064
Au	 -4.43288077	 -22.60367640	 24.74774064
Au	 20.12753824	 -11.20084029	 24.74774064
Au	 18.84361671	 0.00000000	 30.57073844
Au	 5.82299780	 17.92134446	 30.57073844
Au	 -15.24480615	 11.07600000	 30.57073844
Au	 -15.24480615	 -11.07600000	 30.57073844
Au	 5.82299780	 -17.92134446	 30.57073844
Au	 15.24480615	 17.92134446	 24.74774064
Au	 -12.33330725	 20.03667223	 24.74774064
Au	 -22.86720923	 -5.53800000	 24.74774064
Au	 -1.79940528	 -23.45934446	 24.74774064
Au	 21.75511561	 -8.96067223	 24.74774064
Au	 21.19906879	 0.00000000	 29.11498899
Au	 6.55087252	 20.16151252	 29.11498899
Au	 -17.15040692	 12.46050000	 29.11498899
Au	 -17.15040692	 -12.46050000	 29.11498899
Au	 6.55087252	 -20.16151252	 29.11498899
Au	 13.61722879	 20.16151252	 24.74774064
Au	 -14.96678275	 19.18100417	 24.74774064
Au	 -22.86720923	 -8.30700000	 24.74774064
Au	 0.83407022	 -24.31501252	 24.74774064
Au	 23.38269297	 -6.72050417	 24.74774064
Au	 23.55452088	 0.00000000	 27.65923954
Au	 7.27874725	 22.40168057	 27.65923954
Au	 -19.05600769	 13.84500000	 27.65923954
Au	 -19.05600769	 -13.84500000	 27.65923954
Au	 7.27874725	 -22.40168057	 27.65923954
Au	 11.98965142	 22.40168057	 24.74774064
Au	 -17.60025824	 18.32533611	 24.74774064
Au	 -22.86720923	 -11.07600000	 24.74774064
Au	 3.46754571	 -25.17068057	 24.74774064
Au	 25.01027033	 -4.48033611	 24.74774064
Au	 25.90997297	 0.00000000	 26.20349009
Au	 8.00662197	 24.64184863	 26.20349009
Au	 -20.96160846	 15.22950000	 26.20349009
Au	 -20.96160846	 -15.22950000	 26.20349009
Au	 8.00662197	 -24.64184863	 26.20349009
Au	 10.36207406	 24.64184863	 24.74774064
Au	 -20.23373373	 17.46966806	 24.74774064
Au	 -22.86720923	 -13.84500000	 24.74774064
Au	 6.10102120	 -26.02634863	 24.74774064
Au	 26.63784770	 -2.24016806	 24.74774064
Au	 24.28239561	 2.24016806	 26.20349009
Au	 21.92694352	 2.24016806	 27.65923954
Au	 22.65481824	 4.48033611	 26.20349009
Au	 19.57149143	 2.24016806	 29.11498899
Au	 20.29936616	 4.48033611	 27.65923954
Au	 21.02724088	 6.72050417	 26.20349009
Au	 17.21603934	 2.24016806	 30.57073844
Au	 17.94391407	 4.48033611	 29.11498899
Au	 18.67178879	 6.72050417	 27.65923954
Au	 19.39966352	 8.96067223	 26.20349009
Au	 14.86058725	 2.24016806	 32.02648789
Au	 15.58846198	 4.48033611	 30.57073844
Au	 16.31633670	 6.72050417	 29.11498899
Au	 17.04421143	 8.96067223	 27.65923954
Au	 17.77208615	 11.20084029	 26.20349009
Au	 12.50513517	 2.24016806	 33.48223734
Au	 13.23300989	 4.48033611	 32.02648789
Au	 13.96088462	 6.72050417	 30.57073844
Au	 14.68875934	 8.96067223	 29.11498899
Au	 15.41663407	 11.20084029	 27.65923954
Au	 16.14450879	 13.44100834	 26.20349009
Au	 10.14968308	 2.24016806	 34.93798679
Au	 10.87755780	 4.48033611	 33.48223734
Au	 11.60543253	 6.72050417	 32.02648789
Au	 12.33330725	 8.96067223	 30.57073844
Au	 13.06118198	 11.20084029	 29.11498899
Au	 13.78905670	 13.44100834	 27.65923954
Au	 14.51693143	 15.68117640	 26.20349009
Au	 7.79423099	 2.24016806	 36.39373624
Au	 8.52210571	 4.48033611	 34.93798679
Au	 9.24998044	 6.72050417	 33.48223734
Au	 9.97785516	 8.96067223	 32.02648789
Au	 10.70572989	 11.20084029	 30.57073844
Au	 11.43360461	 13.44100834	 29.11498899
Au	 12.16147934	 15.68117640	 27.65923954
Au	 12.88935406	 17.92134446	 26.20349009
Au	 5.43877890	 2.24016806	 37.84948569
Au	 6.16665363	 4.48033611	 36.39373624
Au	 6.89452835	 6.72050417	 34.93798679
Au	 7.62240308	 8.96067223	 33.48223734
Au	 8.35027780	 11.20084029	 32.02648789
Au	 9.07815253	 13.44100834	 30.57073844
Au	 9.80602725	 15.68117640	 29.11498899
Au	 10.53390197	 17.92134446	 27.65923954
Au	 11.26177670	 20.16151252	 26.20349009
Au	 3.08332681	 2.24016806	 39.30523514
Au	 3.81120154	 4.48033611	 37.84948569
Au	 4.53907626	 6.72050417	 36.39373624
Au	 5.26695099	 8.96067223	 34.93798679
Au	 5.99482571	 11.20084029	 33.48223734
Au	 6.72270044	 13.44100834	 32.02648789
Au	 7.45057516	 15.68117640	 30.57073844
Au	 8.17844989	 17.92134446	 29.11498899
Au	 8.90632461	 20.16151252	 27.65923954
Au	 9.63419934	 22.40168057	 26.20349009
Au	 5.37314648	 23.78618057	 26.20349009
Au	 4.64527175	 21.54601252	 27.65923954
Au	 2.73967098	 22.93051252	 26.20349009
Au	 3.91739703	 19.30584446	 29.11498899
Au	 2.01179626	 20.69034446	 27.65923954
Au	 0.10619549	 22.07484446	 26.20349009
Au	 3.18952230	 17.06567640	 30.57073844
Au	 1.28392154	 18.45017640	 29.11498899
Au	 -0.62167923	 19.83467640	 27.65923954
Au	 -2.52728000	 21.21917640	 26.20349009
Au	 2.46164758	 14.82550834	 32.02648789
Au	 0.55604681	 16.21000834	 30.57073844
Au	 -1.34955396	 17.59450834	 29.11498899
Au	 -3.25515473	 18.97900834	 27.65923954
Au	 -5.16075550	 20.36350834	 26.20349009
Au	 1.73377285	 12.58534029	 33.48223734
Au	 -0.17182791	 13.96984029	 32.02648789
Au	 -2.07742868	 15.35434029	 30.57073844
Au	 -3.98302945	 16.73884029	 29.11498899
Au	 -5.88863022	 18.12334029	 27.65923954
Au	 -7.79423099	 19.50784029	 26.20349009
Au	 1.00589813	 10.34517223	 34.93798679
Au	 -0.89970264	 11.72967223	 33.48223734
Au	 -2.80530341	 13.11417223	 32.02648789
Au	 -4.71090418	 14.49867223	 30.57073844
Au	 -6.61650495	 15.88317223	 29.11498899
Au	 -8.52210571	 17.26767223	 27.65923954
Au	 -10.42770648	 18.65217223	 26.20349009
Au	 0.27802341	 8.10500417	 36.39373624
Au	 -1.62757736	 9.48950417	 34.93798679
Au	 -3.53317813	 10.87400417	 33.48223734
Au	 -5.43877890	 12.25850417	 32.02648789
Au	 -7.34437967	 13.64300417	 30.57073844
Au	 -9.24998044	 15.02750417	 29.11498899
Au	 -11.15558121	 16.41200417	 27.65923954
Au	 -13.06118198	 17.79650417	 26.20349009
Au	 -0.44985132	 5.86483611	 37.84948569
Au	 -2.35545209	 7.24933611	 36.39373624
Au	 -4.26105286	 8.63383611	 34.93798679
Au	 -6.16665363	 10.01833611	 33.48223734
Au	 -8.07225440	 11.40283611	 32.02648789
Au	 -9.97785516	 12.78733611	 30.57073844
Au	 -11.88345593	 14.17183611	 29.11498899
Au	 -13.78905670	 15.55633611	 27.65923954
Au	 -15.69465747	 16.94083611	 26.20349009
Au	 -1.17772604	 3.62466806	 39.30523514
Au	 -3.08332681	 5.00916806	 37.84948569
Au	 -4.98892758	 6.39366806	 36.39373624
Au	 -6.89452835	 7.77816806	 34.93798679
Au	 -8.80012912	 9.16266806	 33.48223734
Au	 -10.70572989	 10.54716806	 32.02648789
Au	 -12.61133066	 11.93166806	 30.57073844
Au	 -14.51693143	 13.31616806	 29.11498899
Au	 -16.42253220	 14.70066806	 27.65923954
Au	 -18.32813296	 16.08516806	 26.20349009
Au	 -20.96160846	 12.46050000	 26.20349009
Au	 -19.05600769	 11.07600000	 27.65923954
Au	 -20.96160846	 9.69150000	 26.20349009
Au	 -17.15040692	 9.69150000	 29.11498899
Au	 -19.05600769	 8.30700000	 27.65923954
Au	 -20.96160846	 6.92250000	 26.20349009
Au	 -15.24480615	 8.30700000	 30.57073844
Au	 -17.15040692	 6.92250000	 29.11498899
Au	 -19.05600769	 5.53800000	 27.65923954
Au	 -20.96160846	 4.15350000	 26.20349009
Au	 -13.33920538	 6.92250000	 32.02648789
Au	 -15.24480615	 5.53800000	 30.57073844
Au	 -17.15040692	 4.15350000	 29.11498899
Au	 -19.05600769	 2.76900000	 27.65923954
Au	 -20.96160846	 1.38450000	 26.20349009
Au	 -11.43360461	 5.53800000	 33.48223734
Au	 -13.33920538	 4.15350000	 32.02648789
Au	 -15.24480615	 2.76900000	 30.57073844
Au	 -17.15040692	 1.38450000	 29.11498899
Au	 -19.05600769	 0.00000000	 27.65923954
Au	 -20.96160846	 -1.38450000	 26.20349009
Au	 -9.52800384	 4.15350000	 34.93798679
Au	 -11.43360461	 2.76900000	 33.48223734
Au	 -13.33920538	 1.38450000	 32.02648789
Au	 -15.24480615	 0.00000000	 30.57073844
Au	 -17.15040692	 -1.38450000	 29.11498899
Au	 -19.05600769	 -2.76900000	 27.65923954
Au	 -20.96160846	 -4.15350000	 26.20349009
Au	 -7.62240308	 2.76900000	 36.39373624
Au	 -9.52800384	 1.38450000	 34.93798679
Au	 -11.43360461	 -0.00000000	 33.48223734
Au	 -13.33920538	 -1.38450000	 32.02648789
Au	 -15.24480615	 -2.76900000	 30.57073844
Au	 -17.15040692	 -4.15350000	 29.11498899
Au	 -19.05600769	 -5.53800000	 27.65923954
Au	 -20.96160846	 -6.92250000	 26.20349009
Au	 -5.71680231	 1.38450000	 37.84948569
Au	 -7.62240308	 0.00000000	 36.39373624
Au	 -9.52800384	 -1.38450000	 34.93798679
Au	 -11.43360461	 -2.76900000	 33.48223734
Au	 -13.33920538	 -4.15350000	 32.02648789
Au	 -15.24480615	 -5.53800000	 30.57073844
Au	 -17.15040692	 -6.92250000	 29.11498899
Au	 -19.05600769	 -8.30700000	 27.65923954
Au	 -20.96160846	 -9.69150000	 26.20349009
Au	 -3.81120154	 -0.00000000	 39.30523514
Au	 -5.71680231	 -1.38450000	 37.84948569
Au	 -7.62240308	 -2.76900000	 36.39373624
Au	 -9.52800384	 -4.15350000	 34.93798679
Au	 -11.43360461	 -5.53800000	 33.48223734
Au	 -13.33920538	 -6.92250000	 32.02648789
Au	 -15.24480615	 -8.30700000	 30.57073844
Au	 -17.15040692	 -9.69150000	 29.11498899
Au	 -19.05600769	 -11.07600000	 27.65923954
Au	 -20.96160846	 -12.46050000	 26.20349009
Au	 -18.32813296	 -16.08516806	 26.20349009
Au	 -16.42253220	 -14.70066806	 27.65923954
Au	 -15.69465747	 -16.94083611	 26.20349009
Au	 -14.51693143	 -13.31616806	 29.11498899
Au	 -13.78905670	 -15.55633611	 27.65923954
Au	 -13.06118198	 -17.79650417	 26.20349009
Au	 -12.61133066	 -11.93166806	 30.57073844
Au	 -11.88345593	 -14.17183611	 29.11498899
Au	 -11.15558121	 -16.41200417	 27.65923954
Au	 -10.42770648	 -18.65217223	 26.20349009
Au	 -10.70572989	 -10.54716806	 32.02648789
Au	 -9.97785516	 -12.78733611	 30.57073844
Au	 -9.24998044	 -15.02750417	 29.11498899
Au	 -8.52210571	 -17.26767223	 27.65923954
Au	 -7.79423099	 -19.50784029	 26.20349009
Au	 -8.80012912	 -9.16266806	 33.48223734
Au	 -8.07225440	 -11.40283611	 32.02648789
Au	 -7.34437967	 -13.64300417	 30.57073844
Au	 -6.61650495	 -15.88317223	 29.11498899
Au	 -5.88863022	 -18.12334029	 27.65923954
Au	 -5.16075550	 -20.36350834	 26.20349009
Au	 -6.89452835	 -7.77816806	 34.93798679
Au	 -6.16665363	 -10.01833611	 33.48223734
Au	 -5.43877890	 -12.25850417	 32.02648789
Au	 -4.71090418	 -14.49867223	 30.57073844
Au	 -3.98302945	 -16.73884029	 29.11498899
Au	 -3.25515473	 -18.97900834	 27.65923954
Au	 -2.52728000	 -21.21917640	 26.20349009
Au	 -4.98892758	 -6.39366806	 36.39373624
Au	 -4.26105286	 -8.63383611	 34.93798679
Au	 -3.53317813	 -10.87400417	 33.48223734
Au	 -2.80530341	 -13.11417223	 32.02648789
Au	 -2.07742868	 -15.35434029	 30.57073844
Au	 -1.34955396	 -17.59450834	 29.11498899
Au	 -0.62167923	 -19.83467640	 27.65923954
Au	 0.10619549	 -22.07484446	 26.20349009
Au	 -3.08332681	 -5.00916806	 37.84948569
Au	 -2.35545209	 -7.24933611	 36.39373624
Au	 -1.62757736	 -9.48950417	 34.93798679
Au	 -0.89970264	 -11.72967223	 33.48223734
Au	 -0.17182791	 -13.96984029	 32.02648789
Au	 0.55604681	 -16.21000834	 30.57073844
Au	 1.28392154	 -18.45017640	 29.11498899
Au	 2.01179626	 -20.69034446	 27.65923954
Au	 2.73967098	 -22.93051252	 26.20349009
Au	 -1.17772604	 -3.62466806	 39.30523514
Au	 -0.44985132	 -5.86483611	 37.84948569
Au	 0.27802341	 -8.10500417	 36.39373624
Au	 1.00589813	 -10.34517223	 34.93798679
Au	 1.73377285	 -12.58534029	 33.48223734
Au	 2.46164758	 -14.82550834	 32.02648789
Au	 3.18952230	 -17.06567640	 30.57073844
Au	 3.91739703	 -19.30584446	 29.11498899
Au	 4.64527175	 -21.54601252	 27.65923954
Au	 5.37314648	 -23.78618057	 26.20349009
Au	 9.63419934	 -22.40168057	 26.20349009
Au	 8.90632461	 -20.16151252	 27.65923954
Au	 11.26177670	 -20.16151252	 26.20349009
Au	 8.17844989	 -17.92134446	 29.11498899
Au	 10.53390197	 -17.92134446	 27.65923954
Au	 12.88935406	 -17.92134446	 26.20349009
Au	 7.45057516	 -15.68117640	 30.57073844
Au	 9.80602725	 -15.68117640	 29.11498899
Au	 12.16147934	 -15.68117640	 27.65923954
Au	 14.51693143	 -15.68117640	 26.20349009
Au	 6.72270044	 -13.44100834	 32.02648789
Au	 9.07815253	 -13.44100834	 30.57073844
Au	 11.43360461	 -13.44100834	 29.11498899
Au	 13.78905670	 -13.44100834	 27.65923954
Au	 16.14450879	 -13.44100834	 26.20349009
Au	 5.99482571	 -11.20084029	 33.48223734
Au	 8.35027780	 -11.20084029	 32.02648789
Au	 10.70572989	 -11.20084029	 30.57073844
Au	 13.06118198	 -11.20084029	 29.11498899
Au	 15.41663407	 -11.20084029	 27.65923954
Au	 17.77208615	 -11.20084029	 26.20349009
Au	 5.26695099	 -8.96067223	 34.93798679
Au	 7.62240308	 -8.96067223	 33.48223734
Au	 9.97785516	 -8.96067223	 32.02648789
Au	 12.33330725	 -8.96067223	 30.57073844
Au	 14.68875934	 -8.96067223	 29.11498899
Au	 17.04421143	 -8.96067223	 27.65923954
Au	 19.39966352	 -8.96067223	 26.20349009
Au	 4.53907626	 -6.72050417	 36.39373624
Au	 6.89452835	 -6.72050417	 34.93798679
Au	 9.24998044	 -6.72050417	 33.48223734
Au	 11.60543253	 -6.72050417	 32.02648789
Au	 13.96088462	 -6.72050417	 30.57073844
Au	 16.31633670	 -6.72050417	 29.11498899
Au	 18.67178879	 -6.72050417	 27.65923954
Au	 21.02724088	 -6.72050417	 26.20349009
Au	 3.81120154	 -4.48033611	 37.84948569
Au	 6.16665363	 -4.48033611	 36.39373624
Au	 8.52210571	 -4.48033611	 34.93798679
Au	 10.87755780	 -4.48033611	 33.48223734
Au	 13.23300989	 -4.48033611	 32.02648789
Au	 15.58846198	 -4.48033611	 30.57073844
Au	 17.94391407	 -4.48033611	 29.11498899
Au	 20.29936616	 -4.48033611	 27.65923954
Au	 22.65481824	 -4.48033611	 26.20349009
Au	 3.08332681	 -2.24016806	 39.30523514
Au	 5.43877890	 -2.24016806	 37.84948569
Au	 7.79423099	 -2.24016806	 36.39373624
Au	 10.14968308	 -2.24016806	 34.93798679
Au	 12.50513517	 -2.24016806	 33.48223734
Au	 14.86058725	 -2.24016806	 32.02648789
Au	 17.21603934	 -2.24016806	 30.57073844
Au	 19.57149143	 -2.24016806	 29.11498899
Au	 21.92694352	 -2.24016806	 27.65923954
Au	 24.28239561	 -2.24016806	 26.20349009
Au	 0.00000000	 0.00000000	 -42.21673403
Au	 28.26542506	 0.00000000	 -24.74774064
Au	 8.73449670	 26.88201669	 -24.74774064
Au	 -22.86720923	 16.61400000	 -24.74774064
Au	 -22.86720923	 -16.61400000	 -24.74774064
Au	 8.73449670	 -26.88201669	 -24.74774064
Au	 2.35545209	 0.00000000	 -40.76098458
Au	 0.72787472	 2.24016806	 -40.76098458
Au	 -1.90560077	 1.38450000	 -40.76098458
Au	 -1.90560077	 -1.38450000	 -40.76098458
Au	 0.72787472	 -2.24016806	 -40.76098458
Au	 26.63784770	 2.24016806	 -24.74774064
Au	 6.10102120	 26.02634863	 -24.74774064
Au	 -22.86720923	 13.84500000	 -24.74774064
Au	 -20.23373373	 -17.46966806	 -24.74774064
Au	 10.36207406	 -24.64184863	 -24.74774064
Au	 4.71090418	 0.00000000	 -39.30523514
Au	 1.45574945	 4.48033611	 -39.30523514
Au	 -3.81120154	 2.76900000	 -39.30523514
Au	 -3.81120154	 -2.76900000	 -39.30523514
Au	 1.45574945	 -4.48033611	 -39.30523514
Au	 25.01027033	 4.48033611	 -24.74774064
Au	 3.46754571	 25.17068057	 -24.74774064
Au	 -22.86720923	 11.07600000	 -24.74774064
Au	 -17.60025824	 -18.32533611	 -24.74774064
Au	 11.98965142	 -22.40168057	 -24.74774064
Au	 7.06635626	 0.00000000	 -37.84948569
Au	 2.18362417	 6.72050417	 -37.84948569
Au	 -5.71680231	 4.15350000	 -37.84948569
Au	 -5.71680231	 -4.15350000	 -37.84948569
Au	 2.18362417	 -6.72050417	 -37.84948569
Au	 23.38269297	 6.72050417	 -24.74774064
Au	 0.83407022	 24.31501252	 -24.74774064
Au	 -22.86720923	 8.30700000	 -24.74774064
Au	 -14.96678275	 -19.18100417	 -24.74774064
Au	 13.61722879	 -20.16151252	 -24.74774064
Au	 9.42180835	 0.00000000	 -36.39373624
Au	 2.91149890	 8.96067223	 -36.39373624
Au	 -7.62240308	 5.53800000	 -36.39373624
Au	 -7.62240308	 -5.53800000	 -36.39373624
Au	 2.91149890	 -8.96067223	 -36.39373624
Au	 21.75511561	 8.96067223	 -24.74774064
Au	 -1.79940528	 23.45934446	 -24.74774064
Au	 -22.86720923	 5.53800000	 -24.74774064
Au	 -12.33330725	 -20.03667223	 -24.74774064
Au	 15.24480615	 -17.92134446	 -24.74774064
Au	 11.77726044	 0.00000000	 -34.93798679
Au	 3.63937362	 11.20084029	 -34.93798679
Au	 -9.52800384	 6.92250000	 -34.93798679
Au	 -9.52800384	 -6.92250000	 -34.93798679
Au	 3.63937362	 -11.20084029	 -34.93798679
Au	 20.12753824	 11.20084029	 -24.74774064
Au	 -4.43288077	 22.60367640	 -24.74774064
Au	 -22.86720923	 2.76900000	 -24.74774064
Au	 -9.69983176	 -20.89234029	 -24.74774064
Au	 16.87238351	 -15.68117640	 -24.74774064
Au	 14.13271253	 0.00000000	 -33.48223734
Au	 4.36724835	 13.44100834	 -33.48223734
Au	 -11.43360461	 8.30700000	 -33.48223734
Au	 -11.43360461	 -8.30700000	 -33.48223734
Au	 4.36724835	 -13.44100834	 -33.48223734
Au	 18.49996088	 13.44100834	 -24.74774064
Au	 -7.06635626	 21.74800834	 -24.74774064
Au	 -22.86720923	 0.00000000	 -24.74774064
Au	 -7.06635626	 -21.74800834	 -24.74774064
Au	 18.49996088	 -13.44100834	 -24.74774064
Au	 16.48816462	 0.00000000	 -32.02648789
Au	 5.09512307	 15.68117640	 -32.02648789
Au	 -13.33920538	 9.69150000	 -32.02648789
Au	 -13.33920538	 -9.69150000	 -32.02648789
Au	 5.09512307	 -15.68117640	 -32.02648789
Au	 16.87238351	 15.68117640	 -24.74774064
Au	 -9.69983176	 20.89234029	 -24.74774064
Au	 -22.86720923	 -2.76900000	 -24.74774064
Au	 -4.43288077	 -22.60367640	 -24.74774064
Au	 20.12753824	 -11.20084029	 -24.74774064
Au	 18.84361671	 0.00000000	 -30.57073844
Au	 5.82299780	 17.92134446	 -30.57073844
Au	 -15.24480615	 11.07600000	 -30.57073844
Au	 -15.24480615	 -11.07600000	 -30.57073844
Au	 5.82299780	 -17.92134446	 -30.57073844
Au	 15.24480615	 17.92134446	 -24.74774064
Au	 -12.33330725	 20.03667223	 -24.74774064
Au	 -22.86720923	 -5.53800000	 -24.74774064
Au	 -1.79940528	 -23.45934446	 -24.74774064
Au	 21.75511561	 -8.96067223	 -24.74774064
Au	 21.19906879	 0.00000000	 -29.11498899
Au	 6.55087252	 20.16151252	 -29.11498899
Au	 -17.15040692	 12.46050000	 -29.11498899
Au	 -17.15040692	 -12.46050000	 -29.11498899
Au	 6.55087252	 -20.16151252	 -29.11498899
Au	 13.61722879	 20.16151252	 -24.74774064
Au	 -14.96678275	 19.18100417	 -24.74774064
Au	 -22.86720923	 -8.30700000	 -24.74774064
Au	 0.83407022	 -24.31501252	 -24.74774064
Au	 23.38269297	 -6.72050417	 -24.74774064
Au	 23.55452088	 0.00000000	 -27.65923954
Au	 7.27874725	 22.40168057	 -27.65923954
Au	 -19.05600769	 13.84500000	 -27.65923954
Au	 -19.05600769	 -13.84500000	 -27.65923954
Au	 7.27874725	 -22.40168057	 -27.65923954
Au	 11.98965142	 22.40168057	 -24.74774064
Au	 -17.60025824	 18.32533611	 -24.74774064
Au	 -22.86720923	 -11.07600000	 -24.74774064
Au	 3.46754571	 -25.17068057	 -24.74774064
Au	 25.01027033	 -4.48033611	 -24.74774064
Au	 25.90997297	 0.00000000	 -26.20349009
Au	 8.00662197	 24.64184863	 -26.20349009
Au	 -20.96160846	 15.22950000	 -26.20349009
Au	 -20.96160846	 -15.22950000	 -26.20349009
Au	 8.00662197	 -24.64184863	 -26.20349009
Au	 10.36207406	 24.64184863	 -24.74774064
Au	 -20.23373373	 17.46966806	 -24.74774064
Au	 -22.86720923	 -13.84500000	 -24.74774064
Au	 6.10102120	 -26.02634863	 -24.74774064
Au	 26.63784770	 -2.24016806	 -24.74774064
Au	 24.28239561	 2.24016806	 -26.20349009
Au	 21.92694352	 2.24016806	 -27.65923954
Au	 22.65481824	 4.48033611	 -26.20349009
Au	 19.57149143	 2.24016806	 -29.11498899
Au	 20.29936616	 4.48033611	 -27.65923954
Au	 21.02724088	 6.72050417	 -26.20349009
Au	 17.21603934	 2.24016806	 -30.57073844
Au	 17.94391407	 4.48033611	 -29.11498899
Au	 18.67178879	 6.72050417	 -27.65923954
Au	 19.39966352	 8.96067223	 -26.20349009
Au	 14.86058725	 2.24016806	 -32.02648789
Au	 15.58846198	 4.48033611	 -30.57073844
Au	 16.31633670	 6.72050417	 -29.11498899
Au	 17.04421143	 8.96067223	 -27.65923954
Au	 17.77208615	 11.20084029	 -26.20349009
Au	 12.50513517	 2.24016806	 -33.48223734
Au	 13.23300989	 4.48033611	 -32.02648789
Au	 13.96088462	 6.72050417	 -30.57073844
Au	 14.68875934	 8.96067223	 -29.11498899
Au	 15.41663407	 11.20084029	 -27.65923954
Au	 16.14450879	 13.44100834	 -26.20349009
Au	 10.14968308	 2.24016806	 -34.93798679
Au	 10.87755780	 4.48033611	 -33.48223734
Au	 11.60543253	 6.72050417	 -32.02648789
Au	 12.33330725	 8.96067223	 -30.57073844
Au	 13.06118198	 11.20084029	 -29.11498899
Au	 13.78905670	 13.44100834	 -27.65923954
Au	 14.51693143	 15.68117640	 -26.20349009
Au	 7.79423099	 2.24016806	 -36.39373624
Au	 8.52210571	 4.48033611	 -34.93798679
Au	 9.24998044	 6.72050417	 -33.48223734
Au	 9.97785516	 8.96067223	 -32.02648789
Au	 10.70572989	 11.20084029	 -30.57073844
Au	 11.43360461	 13.44100834	 -29.11498899
Au	 12.16147934	 15.68117640	 -27.65923954
Au	 12.88935406	 17.92134446	 -26.20349009
Au	 5.43877890	 2.24016806	 -37.84948569
Au	 6.16665363	 4.48033611	 -36.39373624
Au	 6.89452835	 6.72050417	 -34.93798679
Au	 7.62240308	 8.96067223	 -33.48223734
Au	 8.35027780	 11.20084029	 -32.02648789
Au	 9.07815253	 13.44100834	 -30.57073844
Au	 9.80602725	 15.68117640	 -29.11498899
Au	 10.53390197	 17.92134446	 -27.65923954
Au	 11.26177670	 20.16151252	 -26.20349009
Au	 3.08332681	 2.24016806	 -39.30523514
Au	 3.81120154	 4.48033611	 -37.84948569
Au	 4.53907626	 6.72050417	 -36.39373624
Au	 5.26695099	 8.96067223	 -34.93798679
Au	 5.99482571	 11.20084029	 -33.48223734
Au	 6.72270044	 13.44100834	 -32.02648789
Au	 7.45057516	 15.68117640	 -30.57073844
Au	 8.17844989	 17.92134446	 -29.11498899
Au	 8.90632461	 20.16151252	 -27.65923954
Au	 9.63419934	 22.40168057	 -26.20349009
Au	 5.37314648	 23.78618057	 -26.20349009
Au	 4.64527175	 21.54601252	 -27.65923954
Au	 2.73967098	 22.93051252	 -26.20349009
Au	 3.91739703	 19.30584446	 -29.11498899
Au	 2.01179626	 20.69034446	 -27.65923954
Au	 0.10619549	 22.07484446	 -26.20349009
Au	 3.18952230	 17.06567640	 -30.57073844
Au	 1.28392154	 18.45017640	 -29.11498899
Au	 -0.62167923	 19.83467640	 -27.65923954
Au	 -2.52728000	 21.21917640	 -26.20349009
Au	 2.46164758	 14.82550834	 -32.02648789
Au	 0.55604681	 16.21000834	 -30.57073844
Au	 -1.34955396	 17.59450834	 -29.11498899
Au	 -3.25515473	 18.97900834	 -27.65923954
Au	 -5.16075550	 20.36350834	 -26.20349009
Au	 1.73377285	 12.58534029	 -33.48223734
Au	 -0.17182791	 13.96984029	 -32.02648789
Au	 -2.07742868	 15.35434029	 -30.57073844
Au	 -3.98302945	 16.73884029	 -29.11498899
Au	 -5.88863022	 18.12334029	 -27.65923954
Au	 -7.79423099	 19.50784029	 -26.20349009
Au	 1.00589813	 10.34517223	 -34.93798679
Au	 -0.89970264	 11.72967223	 -33.48223734
Au	 -2.80530341	 13.11417223	 -32.02648789
Au	 -4.71090418	 14.49867223	 -30.57073844
Au	 -6.61650495	 15.88317223	 -29.11498899
Au	 -8.52210571	 17.26767223	 -27.65923954
Au	 -10.42770648	 18.65217223	 -26.20349009
Au	 0.27802341	 8.10500417	 -36.39373624
Au	 -1.62757736	 9.48950417	 -34.93798679
Au	 -3.53317813	 10.87400417	 -33.48223734
Au	 -5.43877890	 12.25850417	 -32.02648789
Au	 -7.34437967	 13.64300417	 -30.57073844
Au	 -9.24998044	 15.02750417	 -29.11498899
Au	 -11.15558121	 16.41200417	 -27.65923954
Au	 -13.06118198	 17.79650417	 -26.20349009
Au	 -0.44985132	 5.86483611	 -37.84948569
Au	 -2.35545209	 7.24933611	 -36.39373624
Au	 -4.26105286	 8.63383611	 -34.93798679
Au	 -6.16665363	 10.01833611	 -33.48223734
Au	 -8.07225440	 11.40283611	 -32.02648789
Au	 -9.97785516	 12.78733611	 -30.57073844
Au	 -11.88345593	 14.17183611	 -29.11498899
Au	 -13.78905670	 15.55633611	 -27.65923954
Au	 -15.69465747	 16.94083611	 -26.20349009
Au	 -1.17772604	 3.62466806	 -39.30523514
Au	 -3.08332681	 5.00916806	 -37.84948569
Au	 -4.98892758	 6.39366806	 -36.39373624
Au	 -6.89452835	 7.77816806	 -34.93798679
Au	 -8.80012912	 9.16266806	 -33.48223734
Au	 -10.70572989	 10.54716806	 -32.02648789
Au	 -12.61133066	 11.93166806	 -30.57073844
Au	 -14.51693143	 13.31616806	 -29.11498899
Au	 -16.42253220	 14.70066806	 -27.65923954
Au	 -18.32813296	 16.08516806	 -26.20349009
Au	 -20.96160846	 12.46050000	 -26.20349009
Au	 -19.05600769	 11.07600000	 -27.65923954
Au	 -20.96160846	 9.69150000	 -26.20349009
Au	 -17.15040692	 9.69150000	 -29.11498899
Au	 -19.05600769	 8.30700000	 -27.65923954
Au	 -20.96160846	 6.92250000	 -26.20349009
Au	 -15.24480615	 8.30700000	 -30.57073844
Au	 -17.15040692	 6.92250000	 -29.11498899
Au	 -19.05600769	 5.53800000	 -27.65923954
Au	 -20.96160846	 4.15350000	 -26.20349009
Au	 -13.33920538	 6.92250000	 -32.02648789
Au	 -15.24480615	 5.53800000	 -30.57073844
Au	 -17.15040692	 4.15350000	 -29.11498899
Au	 -19.05600769	 2.76900000	 -27.65923954
Au	 -20.96160846	 1.38450000	 -26.20349009
Au	 -11.43360461	 5.53800000	 -33.48223734
Au	 -13.33920538	 4.15350000	 -32.02648789
Au	 -15.24480615	 2.76900000	 -30.57073844
Au	 -17.15040692	 1.38450000	 -29.11498899
Au	 -19.05600769	 0.00000000	 -27.65923954
Au	 -20.96160846	 -1.38450000	 -26.20349009
Au	 -9.52800384	 4.15350000	 -34.93798679
Au	 -11.43360461	 2.76900000	 -33.48223734
Au	 -13.33920538	 1.38450000	 -32.02648789
Au	 -15.24480615	 0.00000000	 -30.57073844
Au	 -17.15040692	 -1.38450000	 -29.11498899
Au	 -19.05600769	 -2.76900000	 -27.65923954
Au	 -20.96160846	 -4.15350000	 -26.20349009
Au	 -7.62240308	 2.76900000	 -36.39373624
Au	 -9.52800384	 1.38450000	 -34.93798679
Au	 -11.43360461	 -0.00000000	 -33.48223734
Au	 -13.33920538	 -1.38450000	 -32.02648789
Au	 -15.24480615	 -2.76900000	 -30.57073844
Au	 -17.15040692	 -4.15350000	 -29.11498899
Au	 -19.05600769	 -5.53800000	 -27.65923954
Au	 -20.96160846	 -6.92250000	 -26.20349009
Au	 -5.71680231	 1.38450000	 -37.84948569
Au	 -7.62240308	 0.00000000	 -36.39373624
Au	 -9.52800384	 -1.38450000	 -34.93798679
Au	 -11.43360461	 -2.76900000	 -33.48223734
Au	 -13.33920538	 -4.15350000	 -32.02648789
Au	 -15.24480615	 -5.53800000	 -30.57073844
Au	 -17.15040692	 -6.92250000	 -29.11498899
Au	 -19.05600769	 -8.30700000	 -27.65923954
Au	 -20.96160846	 -9.69150000	 -26.20349009
Au	 -3.81120154	 -0.00000000	 -39.30523514
Au	 -5.71680231	 -1.38450000	 -37.84948569
Au	 -7.62240308	 -2.76900000	 -36.39373624
Au	 -9.52800384	 -4.15350000	 -34.93798679
Au	 -11.43360461	 -5.53800000	 -33.48223734
Au	 -13.33920538	 -6.92250000	 -32.02648789
Au	 -15.24480615	 -8.30700000	 -30.57073844
Au	 -17.15040692	 -9.69150000	 -29.11498899
Au	 -19.05600769	 -11.07600000	 -27.65923954
Au	 -20.96160846	 -12.46050000	 -26.20349009
Au	 -18.32813296	 -16.08516806	 -26.20349009
Au	 -16.42253220	 -14.70066806	 -27.65923954
Au	 -15.69465747	 -16.94083611	 -26.20349009
Au	 -14.51693143	 -13.31616806	 -29.11498899
Au	 -13.78905670	 -15.55633611	 -27.65923954
Au	 -13.06118198	 -17.79650417	 -26.20349009
Au	 -12.61133066	 -11.93166806	 -30.57073844
Au	 -11.88345593	 -14.17183611	 -29.11498899
Au	 -11.15558121	 -16.41200417	 -27.65923954
Au	 -10.42770648	 -18.65217223	 -26.20349009
Au	 -10.70572989	 -10.54716806	 -32.02648789
Au	 -9.97785516	 -12.78733611	 -30.57073844
Au	 -9.24998044	 -15.02750417	 -29.11498899
Au	 -8.52210571	 -17.26767223	 -27.65923954
Au	 -7.79423099	 -19.50784029	 -26.20349009
Au	 -8.80012912	 -9.16266806	 -33.48223734
Au	 -8.07225440	 -11.40283611	 -32.02648789
Au	 -7.34437967	 -13.64300417	 -30.57073844
Au	 -6.61650495	 -15.88317223	 -29.11498899
Au	 -5.88863022	 -18.12334029	 -27.65923954
Au	 -5.16075550	 -20.36350834	 -26.20349009
Au	 -6.89452835	 -7.77816806	 -34.93798679
Au	 -6.16665363	 -10.01833611	 -33.48223734
Au	 -5.43877890	 -12.25850417	 -32.02648789
Au	 -4.71090418	 -14.49867223	 -30.57073844
Au	 -3.98302945	 -16.73884029	 -29.11498899
Au	 -3.25515473	 -18.97900834	 -27.65923954
Au	 -2.52728000	 -21.21917640	 -26.20349009
Au	 -4.98892758	 -6.39366806	 -36.39373624
Au	 -4.26105286	 -8.63383611	 -34.93798679
Au	 -3.53317813	 -10.87400417	 -33.48223734
Au	 -2.80530341	 -13.11417223	 -32.02648789
Au	 -2.07742868	 -15.35434029	 -30.57073844
Au	 -1.34955396	 -17.59450834	 -29.11498899
Au	 -0.62167923	 -19.83467640	 -27.65923954
Au	 0.10619549	 -22.07484446	 -26.20349009
Au	 -3.08332681	 -5.00916806	 -37.84948569
Au	 -2.35545209	 -7.24933611	 -36.39373624
Au	 -1.62757736	 -9.48950417	 -34.93798679
Au	 -0.89970264	 -11.72967223	 -33.48223734
Au	 -0.17182791	 -13.96984029	 -32.02648789
Au	 0.55604681	 -16.21000834	 -30.57073844
Au	 1.28392154	 -18.45017640	 -29.11498899
Au	 2.01179626	 -20.69034446	 -27.65923954
Au	 2.73967098	 -22.93051252	 -26.20349009
Au	 -1.17772604	 -3.62466806	 -39.30523514
Au	 -0.44985132	 -5.86483611	 -37.84948569
Au	 0.27802341	 -8.10500417	 -36.39373624
Au	 1.00589813	 -10.34517223	 -34.93798679
Au	 1.73377285	 -12.58534029	 -33.48223734
Au	 2.46164758	 -14.82550834	 -32.02648789
Au	 3.18952230	 -17.06567640	 -30.57073844
Au	 3.91739703	 -19.30584446	 -29.11498899
Au	 4.64527175	 -21.54601252	 -27.65923954
Au	 5.37314648	 -23.78618057	 -26.20349009
Au	 9.63419934	 -22.40168057	 -26.20349009
Au	 8.90632461	 -20.16151252	 -27.65923954
Au	 11.26177670	 -20.16151252	 -26.20349009
Au	 8.17844989	 -17.92134446	 -29.11498899
Au	 10.53390197	 -17.92134446	 -27.65923954
Au	 12.88935406	 -17.92134446	 -26.20349009
Au	 7.45057516	 -15.68117640	 -30.57073844
Au	 9.80602725	 -15.68117640	 -29.11498899
Au	 12.16147934	 -15.68117640	 -27.65923954
Au	 14.51693143	 -15.68117640	 -26.20349009
Au	 6.72270044	 -13.44100834	 -32.02648789
Au	 9.07815253	 -13.44100834	 -30.57073844
Au	 11.43360461	 -13.44100834	 -29.11498899
Au	 13.78905670	 -13.44100834	 -27.65923954
Au	 16.14450879	 -13.44100834	 -26.20349009
Au	 5.99482571	 -11.20084029	 -33.48223734
Au	 8.35027780	 -11.20084029	 -32.02648789
Au	 10.70572989	 -11.20084029	 -30.57073844
Au	 13.06118198	 -11.20084029	 -29.11498899
Au	 15.41663407	 -11.20084029	 -27.65923954
Au	 17.77208615	 -11.20084029	 -26.20349009
Au	 5.26695099	 -8.96067223	 -34.93798679
Au	 7.62240308	 -8.96067223	 -33.48223734
Au	 9.97785516	 -8.96067223	 -32.02648789
Au	 12.33330725	 -8.96067223	 -30.57073844
Au	 14.68875934	 -8.96067223	 -29.11498899
Au	 17.04421143	 -8.96067223	 -27.65923954
Au	 19.39966352	 -8.96067223	 -26.20349009
Au	 4.53907626	 -6.72050417	 -36.39373624
Au	 6.89452835	 -6.72050417	 -34.93798679
Au	 9.24998044	 -6.72050417	 -33.48223734
Au	 11.60543253	 -6.72050417	 -32.02648789
Au	 13.96088462	 -6.72050417	 -30.57073844
Au	 16.31633670	 -6.72050417	 -29.11498899
Au	 18.67178879	 -6.72050417	 -27.65923954
Au	 21.02724088	 -6.72050417	 -26.20349009
Au	 3.81120154	 -4.48033611	 -37.84948569
Au	 6.16665363	 -4.48033611	 -36.39373624
Au	 8.52210571	 -4.48033611	 -34.93798679
Au	 10.87755780	 -4.48033611	 -33.48223734
Au	 13.23300989	 -4.48033611	 -32.02648789
Au	 15.58846198	 -4.48033611	 -30.57073844
Au	 17.94391407	 -4.48033611	 -29.11498899
Au	 20.29936616	 -4.48033611	 -27.65923954
Au	 22.65481824	 -4.48033611	 -26.20349009
Au	 3.08332681	 -2.24016806	 -39.30523514
Au	 5.43877890	 -2.24016806	 -37.84948569
Au	 7.79423099	 -2.24016806	 -36.39373624
Au	 10.14968308	 -2.24016806	 -34.93798679
Au	 12.50513517	 -2.24016806	 -33.48223734
Au	 14.86058725	 -2.24016806	 -32.02648789
Au	 17.21603934	 -2.24016806	 -30.57073844
Au	 19.57149143	 -2.24016806	 -29.11498899
Au	 21.92694352	 -2.24016806	 -27.65923954
Au	 24.28239561	 -2.24016806	 -26.20349009
Au	 0.00000000	 0.00000000	 39.30523514
Au	 0.00000000	 0.00000000	 36.39373624
Au	 0.00000000	 0.00000000	 33.48223734
Au	 0.00000000	 0.00000000	 30.57073844
Au	 0.00000000	 0.00000000	 27.65923954
Au	 0.00000000	 0.00000000	 24.74774064
Au	 0.00000000	 0.00000000	 21.83624174
Au	 0.00000000	 0.00000000	 18.92474284
Au	 0.00000000	 0.00000000	 16.01324394
Au	 0.00000000	 0.00000000	 13.10174505
Au	 0.00000000	 0.00000000	 10.19024615
Au	 0.00000000	 0.00000000	 7.27874725
Au	 0.00000000	 0.00000000	 4.36724835
Au	 0.00000000	 0.00000000	 1.45574945
Au	 0.00000000	 0.00000000	 -1.45574945
Au	 0.00000000	 0.00000000	 -4.36724835
Au	 0.00000000	 0.00000000	 -7.27874725
Au	 0.00000000	 0.00000000	 -10.19024615
Au	 0.00000000	 0.00000000	 -13.10174505
Au	 0.00000000	 0.00000000	 -16.01324394
Au	 0.00000000	 0.00000000	 -18.92474284
Au	 0.00000000	 0.00000000	 -21.83624174
Au	 0.00000000	 0.00000000	 -24.74774064
Au	 0.00000000	 0.00000000	 -27.65923954
Au	 0.00000000	 0.00000000	 -30.57073844
Au	 0.00000000	 0.00000000	 -33.48223734
Au	 0.00000000	 0.00000000	 -36.39373624
Au	 0.00000000	 0.00000000	 -39.30523514
Au	 28.26542506	 0.00000000	 21.83624174
Au	 28.26542506	 0.00000000	 18.92474284
Au	 28.26542506	 0.00000000	 16.01324394
Au	 28.26542506	 0.00000000	 13.10174505
Au	 28.26542506	 0.00000000	 10.19024615
Au	 28.26542506	 0.00000000	 7.27874725
Au	 28.26542506	 0.00000000	 4.36724835
Au	 28.26542506	 0.00000000	 1.45574945
Au	 28.26542506	 0.00000000	 -1.45574945
Au	 28.26542506	 0.00000000	 -4.36724835
Au	 28.26542506	 0.00000000	 -7.27874725
Au	 28.26542506	 0.00000000	 -10.19024615
Au	 28.26542506	 0.00000000	 -13.10174505
Au	 28.26542506	 0.00000000	 -16.01324394
Au	 28.26542506	 0.00000000	 -18.92474284
Au	 28.26542506	 0.00000000	 -21.83624174
Au	 8.73449670	 26.88201669	 21.83624174
Au	 8.73449670	 26.88201669	 18.92474284
Au	 8.73449670	 26.88201669	 16.01324394
Au	 8.73449670	 26.88201669	 13.10174505
Au	 8.73449670	 26.88201669	 10.19024615
Au	 8.73449670	 26.88201669	 7.27874725
Au	 8.73449670	 26.88201669	 4.36724835
Au	 8.73449670	 26.88201669	 1.45574945
Au	 8.73449670	 26.88201669	 -1.45574945
Au	 8.73449670	 26.88201669	 -4.36724835
Au	 8.73449670	 26.88201669	 -7.27874725
Au	 8.73449670	 26.88201669	 -10.19024615
Au	 8.73449670	 26.88201669	 -13.10174505
Au	 8.73449670	 26.88201669	 -16.01324394
Au	 8.73449670	 26.88201669	 -18.92474284
Au	 8.73449670	 26.88201669	 -21.83624174
Au	 -22.86720923	 16.61400000	 21.83624174
Au	 -22.86720923	 16.61400000	 18.92474284
Au	 -22.86720923	 16.61400000	 16.01324394
Au	 -22.86720923	 16.61400000	 13.10174505
Au	 -22.86720923	 16.61400000	 10.19024615
Au	 -22.86720923	 16.61400000	 7.27874725
Au	 -22.86720923	 16.61400000	 4.36724835
Au	 -22.86720923	 16.61400000	 1.45574945
Au	 -22.86720923	 16.61400000	 -1.45574945
Au	 -22.86720923	 16.61400000	 -4.36724835
Au	 -22.86720923	 16.61400000	 -7.27874725
Au	 -22.86720923	 16.61400000	 -10.19024615
Au	 -22.86720923	 16.61400000	 -13.10174505
Au	 -22.86720923	 16.61400000	 -16.01324394
Au	 -22.86720923	 16.61400000	 -18.92474284
Au	 -22.86720923	 16.61400000	 -21.83624174
Au	 -22.86720923	 -16.61400000	 21.83624174
Au	 -22.86720923	 -16.61400000	 18.92474284
Au	 -22.86720923	 -16.61400000	 16.01324394
Au	 -22.86720923	 -16.61400000	 13.10174505
Au	 -22.86720923	 -16.61400000	 10.19024615
Au	 -22.86720923	 -16.61400000	 7.27874725
Au	 -22.86720923	 -16.61400000	 4.36724835
Au	 -22.86720923	 -16.61400000	 1.45574945
Au	 -22.86720923	 -16.61400000	 -1.45574945
Au	 -22.86720923	 -16.61400000	 -4.36724835
Au	 -22.86720923	 -16.61400000	 -7.27874725
Au	 -22.86720923	 -16.61400000	 -10.19024615
Au	 -22.86720923	 -16.61400000	 -13.10174505
Au	 -22.86720923	 -16.61400000	 -16.01324394
Au	 -22.86720923	 -16.61400000	 -18.92474284
Au	 -22.86720923	 -16.61400000	 -21.83624174
Au	 8.73449670	 -26.88201669	 21.83624174
Au	 8.73449670	 -26.88201669	 18.92474284
Au	 8.73449670	 -26.88201669	 16.01324394
Au	 8.73449670	 -26.88201669	 13.10174505
Au	 8.73449670	 -26.88201669	 10.19024615
Au	 8.73449670	 -26.88201669	 7.27874725
Au	 8.73449670	 -26.88201669	 4.36724835
Au	 8.73449670	 -26.88201669	 1.45574945
Au	 8.73449670	 -26.88201669	 -1.45574945
Au	 8.73449670	 -26.88201669	 -4.36724835
Au	 8.73449670	 -26.88201669	 -7.27874725
Au	 8.73449670	 -26.88201669	 -10.19024615
Au	 8.73449670	 -26.88201669	 -13.10174505
Au	 8.73449670	 -26.88201669	 -16.01324394
Au	 8.73449670	 -26.88201669	 -18.92474284
Au	 8.73449670	 -26.88201669	 -21.83624174
Au	 2.35545209	 0.00000000	 37.84948569
Au	 2.35545209	 0.00000000	 34.93798679
Au	 2.35545209	 0.00000000	 32.02648789
Au	 2.35545209	 0.00000000	 29.11498899
Au	 2.35545209	 0.00000000	 26.20349009
Au	 2.35545209	 0.00000000	 23.29199119
Au	 2.35545209	 0.00000000	 20.38049229
Au	 2.35545209	 0.00000000	 17.46899339
Au	 2.35545209	 0.00000000	 14.55749449
Au	 2.35545209	 0.00000000	 11.64599560
Au	 2.35545209	 0.00000000	 8.73449670
Au	 2.35545209	 0.00000000	 5.82299780
Au	 2.35545209	 0.00000000	 2.91149890
Au	 2.35545209	 0.00000000	 0.00000000
Au	 2.35545209	 0.00000000	 -2.91149890
Au	 2.35545209	 0.00000000	 -5.82299780
Au	 2.35545209	 0.00000000	 -8.73449670
Au	 2.35545209	 0.00000000	 -11.64599560
Au	 2.35545209	 0.00000000	 -14.55749449
Au	 2.35545209	 0.00000000	 -17.46899339
Au	 2.35545209	 0.00000000	 -20.38049229
Au	 2.35545209	 0.00000000	 -23.29199119
Au	 2.35545209	 0.00000000	 -26.20349009
Au	 2.35545209	 0.00000000	 -29.11498899
Au	 2.35545209	 0.00000000	 -32.02648789
Au	 2.35545209	 0.00000000	 -34.93798679
Au	 2.35545209	 0.00000000	 -37.84948569
Au	 0.72787472	 2.24016806	 37.84948569
Au	 0.72787472	 2.24016806	 34.93798679
Au	 0.72787472	 2.24016806	 32.02648789
Au	 0.72787472	 2.24016806	 29.11498899
Au	 0.72787472	 2.24016806	 26.20349009
Au	 0.72787472	 2.24016806	 23.29199119
Au	 0.72787472	 2.24016806	 20.38049229
Au	 0.72787472	 2.24016806	 17.46899339
Au	 0.72787472	 2.24016806	 14.55749449
Au	 0.72787472	 2.24016806	 11.64599560
Au	 0.72787472	 2.24016806	 8.73449670
Au	 0.72787472	 2.24016806	 5.82299780
Au	 0.72787472	 2.24016806	 2.91149890
Au	 0.72787472	 2.24016806	 0.00000000
Au	 0.72787472	 2.24016806	 -2.91149890
Au	 0.72787472	 2.24016806	 -5.82299780
Au	 0.72787472	 2.24016806	 -8.73449670
Au	 0.72787472	 2.24016806	 -11.64599560
Au	 0.72787472	 2.24016806	 -14.55749449
Au	 0.72787472	 2.24016806	 -17.46899339
Au	 0.72787472	 2.24016806	 -20.38049229
Au	 0.72787472	 2.24016806	 -23.29199119
Au	 0.72787472	 2.24016806	 -26.20349009
Au	 0.72787472	 2.24016806	 -29.11498899
Au	 0.72787472	 2.24016806	 -32.02648789
Au	 0.72787472	 2.24016806	 -34.93798679
Au	 0.72787472	 2.24016806	 -37.84948569
Au	 -1.90560077	 1.38450000	 37.84948569
Au	 -1.90560077	 1.38450000	 34.93798679
Au	 -1.90560077	 1.38450000	 32.02648789
Au	 -1.90560077	 1.38450000	 29.11498899
Au	 -1.90560077	 1.38450000	 26.20349009
Au	 -1.90560077	 1.38450000	 23.29199119
Au	 -1.90560077	 1.38450000	 20.38049229
Au	 -1.90560077	 1.38450000	 17.46899339
Au	 -1.90560077	 1.38450000	 14.55749449
Au	 -1.90560077	 1.38450000	 11.64599560
Au	 -1.90560077	 1.38450000	 8.73449670
Au	 -1.90560077	 1.38450000	 5.82299780
Au	 -1.90560077	 1.38450000	 2.91149890
Au	 -1.90560077	 1.38450000	 0.00000000
Au	 -1.90560077	 1.38450000	 -2.91149890
Au	 -1.90560077	 1.38450000	 -5.82299780
Au	 -1.90560077	 1.38450000	 -8.73449670
Au	 -1.90560077	 1.38450000	 -11.64599560
Au	 -1.90560077	 1.38450000	 -14.55749449
Au	 -1.90560077	 1.38450000	 -17.46899339
Au	 -1.90560077	 1.38450000	 -20.38049229
Au	 -1.90560077	 1.38450000	 -23.29199119
Au	 -1.90560077	 1.38450000	 -26.20349009
Au	 -1.90560077	 1.38450000	 -29.11498899
Au	 -1.90560077	 1.38450000	 -32.02648789
Au	 -1.90560077	 1.38450000	 -34.93798679
Au	 -1.90560077	 1.38450000	 -37.84948569
Au	 -1.90560077	 -1.38450000	 37.84948569
Au	 -1.90560077	 -1.38450000	 34.93798679
Au	 -1.90560077	 -1.38450000	 32.02648789
Au	 -1.90560077	 -1.38450000	 29.11498899
Au	 -1.90560077	 -1.38450000	 26.20349009
Au	 -1.90560077	 -1.38450000	 23.29199119
Au	 -1.90560077	 -1.38450000	 20.38049229
Au	 -1.90560077	 -1.38450000	 17.46899339
Au	 -1.90560077	 -1.38450000	 14.55749449
Au	 -1.90560077	 -1.38450000	 11.64599560
Au	 -1.90560077	 -1.38450000	 8.73449670
Au	 -1.90560077	 -1.38450000	 5.82299780
Au	 -1.90560077	 -1.38450000	 2.91149890
Au	 -1.90560077	 -1.38450000	 0.00000000
Au	 -1.90560077	 -1.38450000	 -2.91149890
Au	 -1.90560077	 -1.38450000	 -5.82299780
Au	 -1.90560077	 -1.38450000	 -8.73449670
Au	 -1.90560077	 -1.38450000	 -11.64599560
Au	 -1.90560077	 -1.38450000	 -14.55749449
Au	 -1.90560077	 -1.38450000	 -17.46899339
Au	 -1.90560077	 -1.38450000	 -20.38049229
Au	 -1.90560077	 -1.38450000	 -23.29199119
Au	 -1.90560077	 -1.38450000	 -26.20349009
Au	 -1.90560077	 -1.38450000	 -29.11498899
Au	 -1.90560077	 -1.38450000	 -32.02648789
Au	 -1.90560077	 -1.38450000	 -34.93798679
Au	 -1.90560077	 -1.38450000	 -37.84948569
Au	 0.72787472	 -2.24016806	 37.84948569
Au	 0.72787472	 -2.24016806	 34.93798679
Au	 0.72787472	 -2.24016806	 32.02648789
Au	 0.72787472	 -2.24016806	 29.11498899
Au	 0.72787472	 -2.24016806	 26.20349009
Au	 0.72787472	 -2.24016806	 23.29199119
Au	 0.72787472	 -2.24016806	 20.38049229
Au	 0.72787472	 -2.24016806	 17.46899339
Au	 0.72787472	 -2.24016806	 14.55749449
Au	 0.72787472	 -2.24016806	 11.64599560
Au	 0.72787472	 -2.24016806	 8.73449670
Au	 0.72787472	 -2.24016806	 5.82299780
Au	 0.72787472	 -2.24016806	 2.91149890
Au	 0.72787472	 -2.24016806	 0.00000000
Au	 0.72787472	 -2.24016806	 -2.91149890
Au	 0.72787472	 -2.24016806	 -5.82299780
Au	 0.72787472	 -2.24016806	 -8.73449670
Au	 0.72787472	 -2.24016806	 -11.64599560
Au	 0.72787472	 -2.24016806	 -14.55749449
Au	 0.72787472	 -2.24016806	 -17.46899339
Au	 0.72787472	 -2.24016806	 -20.38049229
Au	 0.72787472	 -2.24016806	 -23.29199119
Au	 0.72787472	 -2.24016806	 -26.20349009
Au	 0.72787472	 -2.24016806	 -29.11498899
Au	 0.72787472	 -2.24016806	 -32.02648789
Au	 0.72787472	 -2.24016806	 -34.93798679
Au	 0.72787472	 -2.24016806	 -37.84948569
Au	 26.63784770	 2.24016806	 21.83624174
Au	 26.63784770	 2.24016806	 18.92474284
Au	 26.63784770	 2.24016806	 16.01324394
Au	 26.63784770	 2.24016806	 13.10174505
Au	 26.63784770	 2.24016806	 10.19024615
Au	 26.63784770	 2.24016806	 7.27874725
Au	 26.63784770	 2.24016806	 4.36724835
Au	 26.63784770	 2.24016806	 1.45574945
Au	 26.63784770	 2.24016806	 -1.45574945
Au	 26.63784770	 2.24016806	 -4.36724835
Au	 26.63784770	 2.24016806	 -7.27874725
Au	 26.63784770	 2.24016806	 -10.19024615
Au	 26.63784770	 2.24016806	 -13.10174505
Au	 26.63784770	 2.24016806	 -16.01324394
Au	 26.63784770	 2.24016806	 -18.92474284
Au	 26.63784770	 2.24016806	 -21.83624174
Au	 6.10102120	 26.02634863	 21.83624174
Au	 6.10102120	 26.02634863	 18.92474284
Au	 6.10102120	 26.02634863	 16.01324394
Au	 6.10102120	 26.02634863	 13.10174505
Au	 6.10102120	 26.02634863	 10.19024615
Au	 6.10102120	 26.02634863	 7.27874725
Au	 6.10102120	 26.02634863	 4.36724835
Au	 6.10102120	 26.02634863	 1.45574945
Au	 6.10102120	 26.02634863	 -1.45574945
Au	 6.10102120	 26.02634863	 -4.36724835
Au	 6.10102120	 26.02634863	 -7.27874725
Au	 6.10102120	 26.02634863	 -10.19024615
Au	 6.10102120	 26.02634863	 -13.10174505
Au	 6.10102120	 26.02634863	 -16.01324394
Au	 6.10102120	 26.02634863	 -18.92474284
Au	 6.10102120	 26.02634863	 -21.83624174
Au	 -22.86720923	 13.84500000	 21.83624174
Au	 -22.86720923	 13.84500000	 18.92474284
Au	 -22.86720923	 13.84500000	 16.01324394
Au	 -22.86720923	 13.84500000	 13.10174505
Au	 -22.86720923	 13.84500000	 10.19024615
Au	 -22.86720923	 13.84500000	 7.27874725
Au	 -22.86720923	 13.84500000	 4.36724835
Au	 -22.86720923	 13.84500000	 1.45574945
Au	 -22.86720923	 13.84500000	 -1.45574945
Au	 -22.86720923	 13.84500000	 -4.36724835
Au	 -22.86720923	 13.84500000	 -7.27874725
Au	 -22.86720923	 13.84500000	 -10.19024615
Au	 -22.86720923	 13.84500000	 -13.10174505
Au	 -22.86720923	 13.84500000	 -16.01324394
Au	 -22.86720923	 13.84500000	 -18.92474284
Au	 -22.86720923	 13.84500000	 -21.83624174
Au	 -20.23373373	 -17.46966806	 21.83624174
Au	 -20.23373373	 -17.46966806	 18.92474284
Au	 -20.23373373	 -17.46966806	 16.01324394
Au	 -20.23373373	 -17.46966806	 13.10174505
Au	 -20.23373373	 -17.46966806	 10.19024615
Au	 -20.23373373	 -17.46966806	 7.27874725
Au	 -20.23373373	 -17.46966806	 4.36724835
Au	 -20.23373373	 -17.46966806	 1.45574945
Au	 -20.23373373	 -17.46966806	 -1.45574945
Au	 -20.23373373	 -17.46966806	 -4.36724835
Au	 -20.23373373	 -17.46966806	 -7.27874725
Au	 -20.23373373	 -17.46966806	 -10.19024615
Au	 -20.23373373	 -17.46966806	 -13.10174505
Au	 -20.23373373	 -17.46966806	 -16.01324394
Au	 -20.23373373	 -17.46966806	 -18.92474284
Au	 -20.23373373	 -17.46966806	 -21.83624174
Au	 10.36207406	 -24.64184863	 21.83624174
Au	 10.36207406	 -24.64184863	 18.92474284
Au	 10.36207406	 -24.64184863	 16.01324394
Au	 10.36207406	 -24.64184863	 13.10174505
Au	 10.36207406	 -24.64184863	 10.19024615
Au	 10.36207406	 -24.64184863	 7.27874725
Au	 10.36207406	 -24.64184863	 4.36724835
Au	 10.36207406	 -24.64184863	 1.45574945
Au	 10.36207406	 -24.64184863	 -1.45574945
Au	 10.36207406	 -24.64184863	 -4.36724835
Au	 10.36207406	 -24.64184863	 -7.27874725
Au	 10.36207406	 -24.64184863	 -10.19024615
Au	 10.36207406	 -24.64184863	 -13.10174505
Au	 10.36207406	 -24.64184863	 -16.01324394
Au	 10.36207406	 -24.64184863	 -18.92474284
Au	 10.36207406	 -24.64184863	 -21.83624174
Au	 4.71090418	 0.00000000	 36.39373624
Au	 4.71090418	 0.00000000	 33.48223734
Au	 4.71090418	 0.00000000	 30.57073844
Au	 4.71090418	 0.00000000	 27.65923954
Au	 4.71090418	 0.00000000	 24.74774064
Au	 4.71090418	 0.00000000	 21.83624174
Au	 4.71090418	 0.00000000	 18.92474284
Au	 4.71090418	 0.00000000	 16.01324394
Au	 4.71090418	 0.00000000	 13.10174505
Au	 4.71090418	 0.00000000	 10.19024615
Au	 4.71090418	 0.00000000	 7.27874725
Au	 4.71090418	 0.00000000	 4.36724835
Au	 4.71090418	 0.00000000	 1.45574945
Au	 4.71090418	 0.00000000	 -1.45574945
Au	 4.71090418	 0.00000000	 -4.36724835
Au	 4.71090418	 0.00000000	 -7.27874725
Au	 4.71090418	 0.00000000	 -10.19024615
Au	 4.71090418	 0.00000000	 -13.10174505
Au	 4.71090418	 0.00000000	 -16.01324394
Au	 4.71090418	 0.00000000	 -18.92474284
Au	 4.71090418	 0.00000000	 -21.83624174
Au	 4.71090418	 0.00000000	 -24.74774064
Au	 4.71090418	 0.00000000	 -27.65923954
Au	 4.71090418	 0.00000000	 -30.57073844
Au	 4.71090418	 0.00000000	 -33.48223734
Au	 4.71090418	 0.00000000	 -36.39373624
Au	 1.45574945	 4.48033611	 36.39373624
Au	 1.45574945	 4.48033611	 33.48223734
Au	 1.45574945	 4.48033611	 30.57073844
Au	 1.45574945	 4.48033611	 27.65923954
Au	 1.45574945	 4.48033611	 24.74774064
Au	 1.45574945	 4.48033611	 21.83624174
Au	 1.45574945	 4.48033611	 18.92474284
Au	 1.45574945	 4.48033611	 16.01324394
Au	 1.45574945	 4.48033611	 13.10174505
Au	 1.45574945	 4.48033611	 10.19024615
Au	 1.45574945	 4.48033611	 7.27874725
Au	 1.45574945	 4.48033611	 4.36724835
Au	 1.45574945	 4.48033611	 1.45574945
Au	 1.45574945	 4.48033611	 -1.45574945
Au	 1.45574945	 4.48033611	 -4.36724835
Au	 1.45574945	 4.48033611	 -7.27874725
Au	 1.45574945	 4.48033611	 -10.19024615
Au	 1.45574945	 4.48033611	 -13.10174505
Au	 1.45574945	 4.48033611	 -16.01324394
Au	 1.45574945	 4.48033611	 -18.92474284
Au	 1.45574945	 4.48033611	 -21.83624174
Au	 1.45574945	 4.48033611	 -24.74774064
Au	 1.45574945	 4.48033611	 -27.65923954
Au	 1.45574945	 4.48033611	 -30.57073844
Au	 1.45574945	 4.48033611	 -33.48223734
Au	 1.45574945	 4.48033611	 -36.39373624
Au	 -3.81120154	 2.76900000	 36.39373624
Au	 -3.81120154	 2.76900000	 33.48223734
Au	 -3.81120154	 2.76900000	 30.57073844
Au	 -3.81120154	 2.76900000	 27.65923954
Au	 -3.81120154	 2.76900000	 24.74774064
Au	 -3.81120154	 2.76900000	 21.83624174
Au	 -3.81120154	 2.76900000	 18.92474284
Au	 -3.81120154	 2.76900000	 16.01324394
Au	 -3.81120154	 2.76900000	 13.10174505
Au	 -3.81120154	 2.76900000	 10.19024615
Au	 -3.81120154	 2.76900000	 7.27874725
Au	 -3.81120154	 2.76900000	 4.36724835
Au	 -3.81120154	 2.76900000	 1.45574945
Au	 -3.81120154	 2.76900000	 -1.45574945
Au	 -3.81120154	 2.76900000	 -4.36724835
Au	 -3.81120154	 2.76900000	 -7.27874725
Au	 -3.81120154	 2.76900000	 -10.19024615
Au	 -3.81120154	 2.76900000	 -13.10174505
Au	 -3.81120154	 2.76900000	 -16.01324394
Au	 -3.81120154	 2.76900000	 -18.92474284
Au	 -3.81120154	 2.76900000	 -21.83624174
Au	 -3.81120154	 2.76900000	 -24.74774064
Au	 -3.81120154	 2.76900000	 -27.65923954
Au	 -3.81120154	 2.76900000	 -30.57073844
Au	 -3.81120154	 2.76900000	 -33.48223734
Au	 -3.81120154	 2.76900000	 -36.39373624
Au	 -3.81120154	 -2.76900000	 36.39373624
Au	 -3.81120154	 -2.76900000	 33.48223734
Au	 -3.81120154	 -2.76900000	 30.57073844
Au	 -3.81120154	 -2.76900000	 27.65923954
Au	 -3.81120154	 -2.76900000	 24.74774064
Au	 -3.81120154	 -2.76900000	 21.83624174
Au	 -3.81120154	 -2.76900000	 18.92474284
Au	 -3.81120154	 -2.76900000	 16.01324394
Au	 -3.81120154	 -2.76900000	 13.10174505
Au	 -3.81120154	 -2.76900000	 10.19024615
Au	 -3.81120154	 -2.76900000	 7.27874725
Au	 -3.81120154	 -2.76900000	 4.36724835
Au	 -3.81120154	 -2.76900000	 1.45574945
Au	 -3.81120154	 -2.76900000	 -1.45574945
Au	 -3.81120154	 -2.76900000	 -4.36724835
Au	 -3.81120154	 -2.76900000	 -7.27874725
Au	 -3.81120154	 -2.76900000	 -10.19024615
Au	 -3.81120154	 -2.76900000	 -13.10174505
Au	 -3.81120154	 -2.76900000	 -16.01324394
Au	 -3.81120154	 -2.76900000	 -18.92474284
Au	 -3.81120154	 -2.76900000	 -21.83624174
Au	 -3.81120154	 -2.76900000	 -24.74774064
Au	 -3.81120154	 -2.76900000	 -27.65923954
Au	 -3.81120154	 -2.76900000	 -30.57073844
Au	 -3.81120154	 -2.76900000	 -33.48223734
Au	 -3.81120154	 -2.76900000	 -36.39373624
Au	 1.45574945	 -4.48033611	 36.39373624
Au	 1.45574945	 -4.48033611	 33.48223734
Au	 1.45574945	 -4.48033611	 30.57073844
Au	 1.45574945	 -4.48033611	 27.65923954
Au	 1.45574945	 -4.48033611	 24.74774064
Au	 1.45574945	 -4.48033611	 21.83624174
Au	 1.45574945	 -4.48033611	 18.92474284
Au	 1.45574945	 -4.48033611	 16.01324394
Au	 1.45574945	 -4.48033611	 13.10174505
Au	 1.45574945	 -4.48033611	 10.19024615
Au	 1.45574945	 -4.48033611	 7.27874725
Au	 1.45574945	 -4.48033611	 4.36724835
Au	 1.45574945	 -4.48033611	 1.45574945
Au	 1.45574945	 -4.48033611	 -1.45574945
Au	 1.45574945	 -4.48033611	 -4.36724835
Au	 1.45574945	 -4.48033611	 -7.27874725
Au	 1.45574945	 -4.48033611	 -10.19024615
Au	 1.45574945	 -4.48033611	 -13.10174505
Au	 1.45574945	 -4.48033611	 -16.01324394
Au	 1.45574945	 -4.48033611	 -18.92474284
Au	 1.45574945	 -4.48033611	 -21.83624174
Au	 1.45574945	 -4.48033611	 -24.74774064
Au	 1.45574945	 -4.48033611	 -27.65923954
Au	 1.45574945	 -4.48033611	 -30.57073844
Au	 1.45574945	 -4.48033611	 -33.48223734
Au	 1.45574945	 -4.48033611	 -36.39373624
Au	 25.01027033	 4.48033611	 21.83624174
Au	 25.01027033	 4.48033611	 18.92474284
Au	 25.01027033	 4.48033611	 16.01324394
Au	 25.01027033	 4.48033611	 13.10174505
Au	 25.01027033	 4.48033611	 10.19024615
Au	 25.01027033	 4.48033611	 7.27874725
Au	 25.01027033	 4.48033611	 4.36724835
Au	 25.01027033	 4.48033611	 1.45574945
Au	 25.01027033	 4.48033611	 -1.45574945
Au	 25.01027033	 4.48033611	 -4.36724835
Au	 25.01027033	 4.48033611	 -7.27874725
Au	 25.01027033	 4.48033611	 -10.19024615
Au	 25.01027033	 4.48033611	 -13.10174505
Au	 25.01027033	 4.48033611	 -16.01324394
Au	 25.01027033	 4.48033611	 -18.92474284
Au	 25.01027033	 4.48033611	 -21.83624174
Au	 3.46754571	 25.17068057	 21.83624174
Au	 3.46754571	 25.17068057	 18.92474284
Au	 3.46754571	 25.17068057	 16.01324394
Au	 3.46754571	 25.17068057	 13.10174505
Au	 3.46754571	 25.17068057	 10.19024615
Au	 3.46754571	 25.17068057	 7.27874725
Au	 3.46754571	 25.17068057	 4.36724835
Au	 3.46754571	 25.17068057	 1.45574945
Au	 3.46754571	 25.17068057	 -1.45574945
Au	 3.46754571	 25.17068057	 -4.36724835
Au	 3.46754571	 25.17068057	 -7.27874725
Au	 3.46754571	 25.17068057	 -10.19024615
Au	 3.46754571	 25.17068057	 -13.10174505
Au	 3.46754571	 25.17068057	 -16.01324394
Au	 3.46754571	 25.17068057	 -18.92474284
Au	 3.46754571	 25.17068057	 -21.83624174
Au	 -22.86720923	 11.07600000	 21.83624174
Au	 -22.86720923	 11.07600000	 18.92474284
Au	 -22.86720923	 11.07600000	 16.01324394
Au	 -22.86720923	 11.07600000	 13.10174505
Au	 -22.86720923	 11.07600000	 10.19024615
Au	 -22.86720923	 11.07600000	 7.27874725
Au	 -22.86720923	 11.07600000	 4.36724835
Au	 -22.86720923	 11.07600000	 1.45574945
Au	 -22.86720923	 11.07600000	 -1.45574945
Au	 -22.86720923	 11.07600000	 -4.36724835
Au	 -22.86720923	 11.07600000	 -7.27874725
Au	 -22.86720923	 11.07600000	 -10.19024615
Au	 -22.86720923	 11.07600000	 -13.10174505
Au	 -22.86720923	 11.07600000	 -16.01324394
Au	 -22.86720923	 11.07600000	 -18.92474284
Au	 -22.86720923	 11.07600000	 -21.83624174
Au	 -17.60025824	 -18.32533611	 21.83624174
Au	 -17.60025824	 -18.32533611	 18.92474284
Au	 -17.60025824	 -18.32533611	 16.01324394
Au	 -17.60025824	 -18.32533611	 13.10174505
Au	 -17.60025824	 -18.32533611	 10.19024615
Au	 -17.60025824	 -18.32533611	 7.27874725
Au	 -17.60025824	 -18.32533611	 4.36724835
Au	 -17.60025824	 -18.32533611	 1.45574945
Au	 -17.60025824	 -18.32533611	 -1.45574945
Au	 -17.60025824	 -18.32533611	 -4.36724835
Au	 -17.60025824	 -18.32533611	 -7.27874725
Au	 -17.60025824	 -18.32533611	 -10.19024615
Au	 -17.60025824	 -18.32533611	 -13.10174505
Au	 -17.60025824	 -18.32533611	 -16.01324394
Au	 -17.60025824	 -18.32533611	 -18.92474284
Au	 -17.60025824	 -18.32533611	 -21.83624174
Au	 11.98965142	 -22.40168057	 21.83624174
Au	 11.98965142	 -22.40168057	 18.92474284
Au	 11.98965142	 -22.40168057	 16.01324394
Au	 11.98965142	 -22.40168057	 13.10174505
Au	 11.98965142	 -22.40168057	 10.19024615
Au	 11.98965142	 -22.40168057	 7.27874725
Au	 11.98965142	 -22.40168057	 4.36724835
Au	 11.98965142	 -22.40168057	 1.45574945
Au	 11.98965142	 -22.40168057	 -1.45574945
Au	 11.98965142	 -22.40168057	 -4.36724835
Au	 11.98965142	 -22.40168057	 -7.27874725
Au	 11.98965142	 -22.40168057	 -10.19024615
Au	 11.98965142	 -22.40168057	 -13.10174505
Au	 11.98965142	 -22.40168057	 -16.01324394
Au	 11.98965142	 -22.40168057	 -18.92474284
Au	 11.98965142	 -22.40168057	 -21.83624174
Au	 7.06635626	 0.00000000	 34.93798679
Au	 7.06635626	 0.00000000	 32.02648789
Au	 7.06635626	 0.00000000	 29.11498899
Au	 7.06635626	 0.00000000	 26.20349009
Au	 7.06635626	 0.00000000	 23.29199119
Au	 7.06635626	 0.00000000	 20.38049229
Au	 7.06635626	 0.00000000	 17.46899339
Au	 7.06635626	 0.00000000	 14.55749449
Au	 7.06635626	 0.00000000	 11.64599560
Au	 7.06635626	 0.00000000	 8.73449670
Au	 7.06635626	 0.00000000	 5.82299780
Au	 7.06635626	 0.00000000	 2.91149890
Au	 7.06635626	 0.00000000	 0.00000000
Au	 7.06635626	 0.00000000	 -2.91149890
Au	 7.06635626	 0.00000000	 -5.82299780
Au	 7.06635626	 0.00000000	 -8.73449670
Au	 7.06635626	 0.00000000	 -11.64599560
Au	 7.06635626	 0.00000000	 -14.55749449
Au	 7.06635626	 0.00000000	 -17.46899339
Au	 7.06635626	 0.00000000	 -20.38049229
Au	 7.06635626	 0.00000000	 -23.29199119
Au	 7.06635626	 0.00000000	 -26.20349009
Au	 7.06635626	 0.00000000	 -29.11498899
Au	 7.06635626	 0.00000000	 -32.02648789
Au	 7.06635626	 0.00000000	 -34.93798679
Au	 2.18362417	 6.72050417	 34.93798679
Au	 2.18362417	 6.72050417	 32.02648789
Au	 2.18362417	 6.72050417	 29.11498899
Au	 2.18362417	 6.72050417	 26.20349009
Au	 2.18362417	 6.72050417	 23.29199119
Au	 2.18362417	 6.72050417	 20.38049229
Au	 2.18362417	 6.72050417	 17.46899339
Au	 2.18362417	 6.72050417	 14.55749449
Au	 2.18362417	 6.72050417	 11.64599560
Au	 2.18362417	 6.72050417	 8.73449670
Au	 2.18362417	 6.72050417	 5.82299780
Au	 2.18362417	 6.72050417	 2.91149890
Au	 2.18362417	 6.72050417	 0.00000000
Au	 2.18362417	 6.72050417	 -2.91149890
Au	 2.18362417	 6.72050417	 -5.82299780
Au	 2.18362417	 6.72050417	 -8.73449670
Au	 2.18362417	 6.72050417	 -11.64599560
Au	 2.18362417	 6.72050417	 -14.55749449
Au	 2.18362417	 6.72050417	 -17.46899339
Au	 2.18362417	 6.72050417	 -20.38049229
Au	 2.18362417	 6.72050417	 -23.29199119
Au	 2.18362417	 6.72050417	 -26.20349009
Au	 2.18362417	 6.72050417	 -29.11498899
Au	 2.18362417	 6.72050417	 -32.02648789
Au	 2.18362417	 6.72050417	 -34.93798679
Au	 -5.71680231	 4.15350000	 34.93798679
Au	 -5.71680231	 4.15350000	 32.02648789
Au	 -5.71680231	 4.15350000	 29.11498899
Au	 -5.71680231	 4.15350000	 26.20349009
Au	 -5.71680231	 4.15350000	 23.29199119
Au	 -5.71680231	 4.15350000	 20.38049229
Au	 -5.71680231	 4.15350000	 17.46899339
Au	 -5.71680231	 4.15350000	 14.55749449
Au	 -5.71680231	 4.15350000	 11.64599560
Au	 -5.71680231	 4.15350000	 8.73449670
Au	 -5.71680231	 4.15350000	 5.82299780
Au	 -5.71680231	 4.15350000	 2.91149890
Au	 -5.71680231	 4.15350000	 0.00000000
Au	 -5.71680231	 4.15350000	 -2.91149890
Au	 -5.71680231	 4.15350000	 -5.82299780
Au	 -5.71680231	 4.15350000	 -8.73449670
Au	 -5.71680231	 4.15350000	 -11.64599560
Au	 -5.71680231	 4.15350000	 -14.55749449
Au	 -5.71680231	 4.15350000	 -17.46899339
Au	 -5.71680231	 4.15350000	 -20.38049229
Au	 -5.71680231	 4.15350000	 -23.29199119
Au	 -5.71680231	 4.15350000	 -26.20349009
Au	 -5.71680231	 4.15350000	 -29.11498899
Au	 -5.71680231	 4.15350000	 -32.02648789
Au	 -5.71680231	 4.15350000	 -34.93798679
Au	 -5.71680231	 -4.15350000	 34.93798679
Au	 -5.71680231	 -4.15350000	 32.02648789
Au	 -5.71680231	 -4.15350000	 29.11498899
Au	 -5.71680231	 -4.15350000	 26.20349009
Au	 -5.71680231	 -4.15350000	 23.29199119
Au	 -5.71680231	 -4.15350000	 20.38049229
Au	 -5.71680231	 -4.15350000	 17.46899339
Au	 -5.71680231	 -4.15350000	 14.55749449
Au	 -5.71680231	 -4.15350000	 11.64599560
Au	 -5.71680231	 -4.15350000	 8.73449670
Au	 -5.71680231	 -4.15350000	 5.82299780
Au	 -5.71680231	 -4.15350000	 2.91149890
Au	 -5.71680231	 -4.15350000	 0.00000000
Au	 -5.71680231	 -4.15350000	 -2.91149890
Au	 -5.71680231	 -4.15350000	 -5.82299780
Au	 -5.71680231	 -4.15350000	 -8.73449670
Au	 -5.71680231	 -4.15350000	 -11.64599560
Au	 -5.71680231	 -4.15350000	 -14.55749449
Au	 -5.71680231	 -4.15350000	 -17.46899339
Au	 -5.71680231	 -4.15350000	 -20.38049229
Au	 -5.71680231	 -4.15350000	 -23.29199119
Au	 -5.71680231	 -4.15350000	 -26.20349009
Au	 -5.71680231	 -4.15350000	 -29.11498899
Au	 -5.71680231	 -4.15350000	 -32.02648789
Au	 -5.71680231	 -4.15350000	 -34.93798679
Au	 2.18362417	 -6.72050417	 34.93798679
Au	 2.18362417	 -6.72050417	 32.02648789
Au	 2.18362417	 -6.72050417	 29.11498899
Au	 2.18362417	 -6.72050417	 26.20349009
Au	 2.18362417	 -6.72050417	 23.29199119
Au	 2.18362417	 -6.72050417	 20.38049229
Au	 2.18362417	 -6.72050417	 17.46899339
Au	 2.18362417	 -6.72050417	 14.55749449
Au	 2.18362417	 -6.72050417	 11.64599560
Au	 2.18362417	 -6.72050417	 8.73449670
Au	 2.18362417	 -6.72050417	 5.82299780
Au	 2.18362417	 -6.72050417	 2.91149890
Au	 2.18362417	 -6.72050417	 0.00000000
Au	 2.18362417	 -6.72050417	 -2.91149890
Au	 2.18362417	 -6.72050417	 -5.82299780
Au	 2.18362417	 -6.72050417	 -8.73449670
Au	 2.18362417	 -6.72050417	 -11.64599560
Au	 2.18362417	 -6.72050417	 -14.55749449
Au	 2.18362417	 -6.72050417	 -17.46899339
Au	 2.18362417	 -6.72050417	 -20.38049229
Au	 2.18362417	 -6.72050417	 -23.29199119
Au	 2.18362417	 -6.72050417	 -26.20349009
Au	 2.18362417	 -6.72050417	 -29.11498899
Au	 2.18362417	 -6.72050417	 -32.02648789
Au	 2.18362417	 -6.72050417	 -34.93798679
Au	 23.38269297	 6.72050417	 21.83624174
Au	 23.38269297	 6.72050417	 18.92474284
Au	 23.38269297	 6.72050417	 16.01324394
Au	 23.38269297	 6.72050417	 13.10174505
Au	 23.38269297	 6.72050417	 10.19024615
Au	 23.38269297	 6.72050417	 7.27874725
Au	 23.38269297	 6.72050417	 4.36724835
Au	 23.38269297	 6.72050417	 1.45574945
Au	 23.38269297	 6.72050417	 -1.45574945
Au	 23.38269297	 6.72050417	 -4.36724835
Au	 23.38269297	 6.72050417	 -7.27874725
Au	 23.38269297	 6.72050417	 -10.19024615
Au	 23.38269297	 6.72050417	 -13.10174505
Au	 23.38269297	 6.72050417	 -16.01324394
Au	 23.38269297	 6.72050417	 -18.92474284
Au	 23.38269297	 6.72050417	 -21.83624174
Au	 0.83407022	 24.31501252	 21.83624174
Au	 0.83407022	 24.31501252	 18.92474284
Au	 0.83407022	 24.31501252	 16.01324394
Au	 0.83407022	 24.31501252	 13.10174505
Au	 0.83407022	 24.31501252	 10.19024615
Au	 0.83407022	 24.31501252	 7.27874725
Au	 0.83407022	 24.31501252	 4.36724835
Au	 0.83407022	 24.31501252	 1.45574945
Au	 0.83407022	 24.31501252	 -1.45574945
Au	 0.83407022	 24.31501252	 -4.36724835
Au	 0.83407022	 24.31501252	 -7.27874725
Au	 0.83407022	 24.31501252	 -10.19024615
Au	 0.83407022	 24.31501252	 -13.10174505
Au	 0.83407022	 24.31501252	 -16.01324394
Au	 0.83407022	 24.31501252	 -18.92474284
Au	 0.83407022	 24.31501252	 -21.83624174
Au	 -22.86720923	 8.30700000	 21.83624174
Au	 -22.86720923	 8.30700000	 18.92474284
Au	 -22.86720923	 8.30700000	 16.01324394
Au	 -22.86720923	 8.30700000	 13.10174505
Au	 -22.86720923	 8.30700000	 10.19024615
Au	 -22.86720923	 8.30700000	 7.27874725
Au	 -22.86720923	 8.30700000	 4.36724835
Au	 -22.86720923	 8.30700000	 1.45574945
Au	 -22.86720923	 8.30700000	 -1.45574945
Au	 -22.86720923	 8.30700000	 -4.36724835
Au	 -22.86720923	 8.30700000	 -7.27874725
Au	 -22.86720923	 8.30700000	 -10.19024615
Au	 -22.86720923	 8.30700000	 -13.10174505
Au	 -22.86720923	 8.30700000	 -16.01324394
Au	 -22.86720923	 8.30700000	 -18.92474284
Au	 -22.86720923	 8.30700000	 -21.83624174
Au	 -14.96678275	 -19.18100417	 21.83624174
Au	 -14.96678275	 -19.18100417	 18.92474284
Au	 -14.96678275	 -19.18100417	 16.01324394
Au	 -14.96678275	 -19.18100417	 13.10174505
Au	 -14.96678275	 -19.18100417	 10.19024615
Au	 -14.96678275	 -19.18100417	 7.27874725
Au	 -14.96678275	 -19.18100417	 4.36724835
Au	 -14.96678275	 -19.18100417	 1.45574945
Au	 -14.96678275	 -19.18100417	 -1.45574945
Au	 -14.96678275	 -19.18100417	 -4.36724835
Au	 -14.96678275	 -19.18100417	 -7.27874725
Au	 -14.96678275	 -19.18100417	 -10.19024615
Au	 -14.96678275	 -19.18100417	 -13.10174505
Au	 -14.96678275	 -19.18100417	 -16.01324394
Au	 -14.96678275	 -19.18100417	 -18.92474284
Au	 -14.96678275	 -19.18100417	 -21.83624174
Au	 13.61722879	 -20.16151252	 21.83624174
Au	 13.61722879	 -20.16151252	 18.92474284
Au	 13.61722879	 -20.16151252	 16.01324394
Au	 13.61722879	 -20.16151252	 13.10174505
Au	 13.61722879	 -20.16151252	 10.19024615
Au	 13.61722879	 -20.16151252	 7.27874725
Au	 13.61722879	 -20.16151252	 4.36724835
Au	 13.61722879	 -20.16151252	 1.45574945
Au	 13.61722879	 -20.16151252	 -1.45574945
Au	 13.61722879	 -20.16151252	 -4.36724835
Au	 13.61722879	 -20.16151252	 -7.27874725
Au	 13.61722879	 -20.16151252	 -10.19024615
Au	 13.61722879	 -20.16151252	 -13.10174505
Au	 13.61722879	 -20.16151252	 -16.01324394
Au	 13.61722879	 -20.16151252	 -18.92474284
Au	 13.61722879	 -20.16151252	 -21.83624174
Au	 9.42180835	 0.00000000	 33.48223734
Au	 9.42180835	 0.00000000	 30.57073844
Au	 9.42180835	 0.00000000	 27.65923954
Au	 9.42180835	 0.00000000	 24.74774064
Au	 9.42180835	 0.00000000	 21.83624174
Au	 9.42180835	 0.00000000	 18.92474284
Au	 9.42180835	 0.00000000	 16.01324394
Au	 9.42180835	 0.00000000	 13.10174505
Au	 9.42180835	 0.00000000	 10.19024615
Au	 9.42180835	 0.00000000	 7.27874725
Au	 9.42180835	 0.00000000	 4.36724835
Au	 9.42180835	 0.00000000	 1.45574945
Au	 9.42180835	 0.00000000	 -1.45574945
Au	 9.42180835	 0.00000000	 -4.36724835
Au	 9.42180835	 0.00000000	 -7.27874725
Au	 9.42180835	 0.00000000	 -10.19024615
Au	 9.42180835	 0.00000000	 -13.10174505
Au	 9.42180835	 0.00000000	 -16.01324394
Au	 9.42180835	 0.00000000	 -18.92474284
Au	 9.42180835	 0.00000000	 -21.83624174
Au	 9.42180835	 0.00000000	 -24.74774064
Au	 9.42180835	 0.00000000	 -27.65923954
Au	 9.42180835	 0.00000000	 -30.57073844
Au	 9.42180835	 0.00000000	 -33.48223734
Au	 2.91149890	 8.96067223	 33.48223734
Au	 2.91149890	 8.96067223	 30.57073844
Au	 2.91149890	 8.96067223	 27.65923954
Au	 2.91149890	 8.96067223	 24.74774064
Au	 2.91149890	 8.96067223	 21.83624174
Au	 2.91149890	 8.96067223	 18.92474284
Au	 2.91149890	 8.96067223	 16.01324394
Au	 2.91149890	 8.96067223	 13.10174505
Au	 2.91149890	 8.96067223	 10.19024615
Au	 2.91149890	 8.96067223	 7.27874725
Au	 2.91149890	 8.96067223	 4.36724835
Au	 2.91149890	 8.96067223	 1.45574945
Au	 2.91149890	 8.96067223	 -1.45574945
Au	 2.91149890	 8.96067223	 -4.36724835
Au	 2.91149890	 8.96067223	 -7.27874725
Au	 2.91149890	 8.96067223	 -10.19024615
Au	 2.91149890	 8.96067223	 -13.10174505
Au	 2.91149890	 8.96067223	 -16.01324394
Au	 2.91149890	 8.96067223	 -18.92474284
Au	 2.91149890	 8.96067223	 -21.83624174
Au	 2.91149890	 8.96067223	 -24.74774064
Au	 2.91149890	 8.96067223	 -27.65923954
Au	 2.91149890	 8.96067223	 -30.57073844
Au	 2.91149890	 8.96067223	 -33.48223734
Au	 -7.62240308	 5.53800000	 33.48223734
Au	 -7.62240308	 5.53800000	 30.57073844
Au	 -7.62240308	 5.53800000	 27.65923954
Au	 -7.62240308	 5.53800000	 24.74774064
Au	 -7.62240308	 5.53800000	 21.83624174
Au	 -7.62240308	 5.53800000	 18.92474284
Au	 -7.62240308	 5.53800000	 16.01324394
Au	 -7.62240308	 5.53800000	 13.10174505
Au	 -7.62240308	 5.53800000	 10.19024615
Au	 -7.62240308	 5.53800000	 7.27874725
Au	 -7.62240308	 5.53800000	 4.36724835
Au	 -7.62240308	 5.53800000	 1.45574945
Au	 -7.62240308	 5.53800000	 -1.45574945
Au	 -7.62240308	 5.53800000	 -4.36724835
Au	 -7.62240308	 5.53800000	 -7.27874725
Au	 -7.62240308	 5.53800000	 -10.19024615
Au	 -7.62240308	 5.53800000	 -13.10174505
Au	 -7.62240308	 5.53800000	 -16.01324394
Au	 -7.62240308	 5.53800000	 -18.92474284
Au	 -7.62240308	 5.53800000	 -21.83624174
Au	 -7.62240308	 5.53800000	 -24.74774064
Au	 -7.62240308	 5.53800000	 -27.65923954
Au	 -7.62240308	 5.53800000	 -30.57073844
Au	 -7.62240308	 5.53800000	 -33.48223734
Au	 -7.62240308	 -5.53800000	 33.48223734
Au	 -7.62240308	 -5.53800000	 30.57073844
Au	 -7.62240308	 -5.53800000	 27.65923954
Au	 -7.62240308	 -5.53800000	 24.74774064
Au	 -7.62240308	 -5.53800000	 21.83624174
Au	 -7.62240308	 -5.53800000	 18.92474284
Au	 -7.62240308	 -5.53800000	 16.01324394
Au	 -7.62240308	 -5.53800000	 13.10174505
Au	 -7.62240308	 -5.53800000	 10.19024615
Au	 -7.62240308	 -5.53800000	 7.27874725
Au	 -7.62240308	 -5.53800000	 4.36724835
Au	 -7.62240308	 -5.53800000	 1.45574945
Au	 -7.62240308	 -5.53800000	 -1.45574945
Au	 -7.62240308	 -5.53800000	 -4.36724835
Au	 -7.62240308	 -5.53800000	 -7.27874725
Au	 -7.62240308	 -5.53800000	 -10.19024615
Au	 -7.62240308	 -5.53800000	 -13.10174505
Au	 -7.62240308	 -5.53800000	 -16.01324394
Au	 -7.62240308	 -5.53800000	 -18.92474284
Au	 -7.62240308	 -5.53800000	 -21.83624174
Au	 -7.62240308	 -5.53800000	 -24.74774064
Au	 -7.62240308	 -5.53800000	 -27.65923954
Au	 -7.62240308	 -5.53800000	 -30.57073844
Au	 -7.62240308	 -5.53800000	 -33.48223734
Au	 2.91149890	 -8.96067223	 33.48223734
Au	 2.91149890	 -8.96067223	 30.57073844
Au	 2.91149890	 -8.96067223	 27.65923954
Au	 2.91149890	 -8.96067223	 24.74774064
Au	 2.91149890	 -8.96067223	 21.83624174
Au	 2.91149890	 -8.96067223	 18.92474284
Au	 2.91149890	 -8.96067223	 16.01324394
Au	 2.91149890	 -8.96067223	 13.10174505
Au	 2.91149890	 -8.96067223	 10.19024615
Au	 2.91149890	 -8.96067223	 7.27874725
Au	 2.91149890	 -8.96067223	 4.36724835
Au	 2.91149890	 -8.96067223	 1.45574945
Au	 2.91149890	 -8.96067223	 -1.45574945
Au	 2.91149890	 -8.96067223	 -4.36724835
Au	 2.91149890	 -8.96067223	 -7.27874725
Au	 2.91149890	 -8.96067223	 -10.19024615
Au	 2.91149890	 -8.96067223	 -13.10174505
Au	 2.91149890	 -8.96067223	 -16.01324394
Au	 2.91149890	 -8.96067223	 -18.92474284
Au	 2.91149890	 -8.96067223	 -21.83624174
Au	 2.91149890	 -8.96067223	 -24.74774064
Au	 2.91149890	 -8.96067223	 -27.65923954
Au	 2.91149890	 -8.96067223	 -30.57073844
Au	 2.91149890	 -8.96067223	 -33.48223734
Au	 21.75511561	 8.96067223	 21.83624174
Au	 21.75511561	 8.96067223	 18.92474284
Au	 21.75511561	 8.96067223	 16.01324394
Au	 21.75511561	 8.96067223	 13.10174505
Au	 21.75511561	 8.96067223	 10.19024615
Au	 21.75511561	 8.96067223	 7.27874725
Au	 21.75511561	 8.96067223	 4.36724835
Au	 21.75511561	 8.96067223	 1.45574945
Au	 21.75511561	 8.96067223	 -1.45574945
Au	 21.75511561	 8.96067223	 -4.36724835
Au	 21.75511561	 8.96067223	 -7.27874725
Au	 21.75511561	 8.96067223	 -10.19024615
Au	 21.75511561	 8.96067223	 -13.10174505
Au	 21.75511561	 8.96067223	 -16.01324394
Au	 21.75511561	 8.96067223	 -18.92474284
Au	 21.75511561	 8.96067223	 -21.83624174
Au	 -1.79940528	 23.45934446	 21.83624174
Au	 -1.79940528	 23.45934446	 18.92474284
Au	 -1.79940528	 23.45934446	 16.01324394
Au	 -1.79940528	 23.45934446	 13.10174505
Au	 -1.79940528	 23.45934446	 10.19024615
Au	 -1.79940528	 23.45934446	 7.27874725
Au	 -1.79940528	 23.45934446	 4.36724835
Au	 -1.79940528	 23.45934446	 1.45574945
Au	 -1.79940528	 23.45934446	 -1.45574945
Au	 -1.79940528	 23.45934446	 -4.36724835
Au	 -1.79940528	 23.45934446	 -7.27874725
Au	 -1.79940528	 23.45934446	 -10.19024615
Au	 -1.79940528	 23.45934446	 -13.10174505
Au	 -1.79940528	 23.45934446	 -16.01324394
Au	 -1.79940528	 23.45934446	 -18.92474284
Au	 -1.79940528	 23.45934446	 -21.83624174
Au	 -22.86720923	 5.53800000	 21.83624174
Au	 -22.86720923	 5.53800000	 18.92474284
Au	 -22.86720923	 5.53800000	 16.01324394
Au	 -22.86720923	 5.53800000	 13.10174505
Au	 -22.86720923	 5.53800000	 10.19024615
Au	 -22.86720923	 5.53800000	 7.27874725
Au	 -22.86720923	 5.53800000	 4.36724835
Au	 -22.86720923	 5.53800000	 1.45574945
Au	 -22.86720923	 5.53800000	 -1.45574945
Au	 -22.86720923	 5.53800000	 -4.36724835
Au	 -22.86720923	 5.53800000	 -7.27874725
Au	 -22.86720923	 5.53800000	 -10.19024615
Au	 -22.86720923	 5.53800000	 -13.10174505
Au	 -22.86720923	 5.53800000	 -16.01324394
Au	 -22.86720923	 5.53800000	 -18.92474284
Au	 -22.86720923	 5.53800000	 -21.83624174
Au	 -12.33330725	 -20.03667223	 21.83624174
Au	 -12.33330725	 -20.03667223	 18.92474284
Au	 -12.33330725	 -20.03667223	 16.01324394
Au	 -12.33330725	 -20.03667223	 13.10174505
Au	 -12.33330725	 -20.03667223	 10.19024615
Au	 -12.33330725	 -20.03667223	 7.27874725
Au	 -12.33330725	 -20.03667223	 4.36724835
Au	 -12.33330725	 -20.03667223	 1.45574945
Au	 -12.33330725	 -20.03667223	 -1.45574945
Au	 -12.33330725	 -20.03667223	 -4.36724835
Au	 -12.33330725	 -20.03667223	 -7.27874725
Au	 -12.33330725	 -20.03667223	 -10.19024615
Au	 -12.33330725	 -20.03667223	 -13.10174505
Au	 -12.33330725	 -20.03667223	 -16.01324394
Au	 -12.33330725	 -20.03667223	 -18.92474284
Au	 -12.33330725	 -20.03667223	 -21.83624174
Au	 15.24480615	 -17.92134446	 21.83624174
Au	 15.24480615	 -17.92134446	 18.92474284
Au	 15.24480615	 -17.92134446	 16.01324394
Au	 15.24480615	 -17.92134446	 13.10174505
Au	 15.24480615	 -17.92134446	 10.19024615
Au	 15.24480615	 -17.92134446	 7.27874725
Au	 15.24480615	 -17.92134446	 4.36724835
Au	 15.24480615	 -17.92134446	 1.45574945
Au	 15.24480615	 -17.92134446	 -1.45574945
Au	 15.24480615	 -17.92134446	 -4.36724835
Au	 15.24480615	 -17.92134446	 -7.27874725
Au	 15.24480615	 -17.92134446	 -10.19024615
Au	 15.24480615	 -17.92134446	 -13.10174505
Au	 15.24480615	 -17.92134446	 -16.01324394
Au	 15.24480615	 -17.92134446	 -18.92474284
Au	 15.24480615	 -17.92134446	 -21.83624174
Au	 11.77726044	 0.00000000	 32.02648789
Au	 11.77726044	 0.00000000	 29.11498899
Au	 11.77726044	 0.00000000	 26.20349009
Au	 11.77726044	 0.00000000	 23.29199119
Au	 11.77726044	 0.00000000	 20.38049229
Au	 11.77726044	 0.00000000	 17.46899339
Au	 11.77726044	 0.00000000	 14.55749449
Au	 11.77726044	 0.00000000	 11.64599560
Au	 11.77726044	 0.00000000	 8.73449670
Au	 11.77726044	 0.00000000	 5.82299780
Au	 11.77726044	 0.00000000	 2.91149890
Au	 11.77726044	 0.00000000	 0.00000000
Au	 11.77726044	 0.00000000	 -2.91149890
Au	 11.77726044	 0.00000000	 -5.82299780
Au	 11.77726044	 0.00000000	 -8.73449670
Au	 11.77726044	 0.00000000	 -11.64599560
Au	 11.77726044	 0.00000000	 -14.55749449
Au	 11.77726044	 0.00000000	 -17.46899339
Au	 11.77726044	 0.00000000	 -20.38049229
Au	 11.77726044	 0.00000000	 -23.29199119
Au	 11.77726044	 0.00000000	 -26.20349009
Au	 11.77726044	 0.00000000	 -29.11498899
Au	 11.77726044	 0.00000000	 -32.02648789
Au	 3.63937362	 11.20084029	 32.02648789
Au	 3.63937362	 11.20084029	 29.11498899
Au	 3.63937362	 11.20084029	 26.20349009
Au	 3.63937362	 11.20084029	 23.29199119
Au	 3.63937362	 11.20084029	 20.38049229
Au	 3.63937362	 11.20084029	 17.46899339
Au	 3.63937362	 11.20084029	 14.55749449
Au	 3.63937362	 11.20084029	 11.64599560
Au	 3.63937362	 11.20084029	 8.73449670
Au	 3.63937362	 11.20084029	 5.82299780
Au	 3.63937362	 11.20084029	 2.91149890
Au	 3.63937362	 11.20084029	 0.00000000
Au	 3.63937362	 11.20084029	 -2.91149890
Au	 3.63937362	 11.20084029	 -5.82299780
Au	 3.63937362	 11.20084029	 -8.73449670
Au	 3.63937362	 11.20084029	 -11.64599560
Au	 3.63937362	 11.20084029	 -14.55749449
Au	 3.63937362	 11.20084029	 -17.46899339
Au	 3.63937362	 11.20084029	 -20.38049229
Au	 3.63937362	 11.20084029	 -23.29199119
Au	 3.63937362	 11.20084029	 -26.20349009
Au	 3.63937362	 11.20084029	 -29.11498899
Au	 3.63937362	 11.20084029	 -32.02648789
Au	 -9.52800384	 6.92250000	 32.02648789
Au	 -9.52800384	 6.92250000	 29.11498899
Au	 -9.52800384	 6.92250000	 26.20349009
Au	 -9.52800384	 6.92250000	 23.29199119
Au	 -9.52800384	 6.92250000	 20.38049229
Au	 -9.52800384	 6.92250000	 17.46899339
Au	 -9.52800384	 6.92250000	 14.55749449
Au	 -9.52800384	 6.92250000	 11.64599560
Au	 -9.52800384	 6.92250000	 8.73449670
Au	 -9.52800384	 6.92250000	 5.82299780
Au	 -9.52800384	 6.92250000	 2.91149890
Au	 -9.52800384	 6.92250000	 0.00000000
Au	 -9.52800384	 6.92250000	 -2.91149890
Au	 -9.52800384	 6.92250000	 -5.82299780
Au	 -9.52800384	 6.92250000	 -8.73449670
Au	 -9.52800384	 6.92250000	 -11.64599560
Au	 -9.52800384	 6.92250000	 -14.55749449
Au	 -9.52800384	 6.92250000	 -17.46899339
Au	 -9.52800384	 6.92250000	 -20.38049229
Au	 -9.52800384	 6.92250000	 -23.29199119
Au	 -9.52800384	 6.92250000	 -26.20349009
Au	 -9.52800384	 6.92250000	 -29.11498899
Au	 -9.52800384	 6.92250000	 -32.02648789
Au	 -9.52800384	 -6.92250000	 32.02648789
Au	 -9.52800384	 -6.92250000	 29.11498899
Au	 -9.52800384	 -6.92250000	 26.20349009
Au	 -9.52800384	 -6.92250000	 23.29199119
Au	 -9.52800384	 -6.92250000	 20.38049229
Au	 -9.52800384	 -6.92250000	 17.46899339
Au	 -9.52800384	 -6.92250000	 14.55749449
Au	 -9.52800384	 -6.92250000	 11.64599560
Au	 -9.52800384	 -6.92250000	 8.73449670
Au	 -9.52800384	 -6.92250000	 5.82299780
Au	 -9.52800384	 -6.92250000	 2.91149890
Au	 -9.52800384	 -6.92250000	 0.00000000
Au	 -9.52800384	 -6.92250000	 -2.91149890
Au	 -9.52800384	 -6.92250000	 -5.82299780
Au	 -9.52800384	 -6.92250000	 -8.73449670
Au	 -9.52800384	 -6.92250000	 -11.64599560
Au	 -9.52800384	 -6.92250000	 -14.55749449
Au	 -9.52800384	 -6.92250000	 -17.46899339
Au	 -9.52800384	 -6.92250000	 -20.38049229
Au	 -9.52800384	 -6.92250000	 -23.29199119
Au	 -9.52800384	 -6.92250000	 -26.20349009
Au	 -9.52800384	 -6.92250000	 -29.11498899
Au	 -9.52800384	 -6.92250000	 -32.02648789
Au	 3.63937362	 -11.20084029	 32.02648789
Au	 3.63937362	 -11.20084029	 29.11498899
Au	 3.63937362	 -11.20084029	 26.20349009
Au	 3.63937362	 -11.20084029	 23.29199119
Au	 3.63937362	 -11.20084029	 20.38049229
Au	 3.63937362	 -11.20084029	 17.46899339
Au	 3.63937362	 -11.20084029	 14.55749449
Au	 3.63937362	 -11.20084029	 11.64599560
Au	 3.63937362	 -11.20084029	 8.73449670
Au	 3.63937362	 -11.20084029	 5.82299780
Au	 3.63937362	 -11.20084029	 2.91149890
Au	 3.63937362	 -11.20084029	 0.00000000
Au	 3.63937362	 -11.20084029	 -2.91149890
Au	 3.63937362	 -11.20084029	 -5.82299780
Au	 3.63937362	 -11.20084029	 -8.73449670
Au	 3.63937362	 -11.20084029	 -11.64599560
Au	 3.63937362	 -11.20084029	 -14.55749449
Au	 3.63937362	 -11.20084029	 -17.46899339
Au	 3.63937362	 -11.20084029	 -20.38049229
Au	 3.63937362	 -11.20084029	 -23.29199119
Au	 3.63937362	 -11.20084029	 -26.20349009
Au	 3.63937362	 -11.20084029	 -29.11498899
Au	 3.63937362	 -11.20084029	 -32.02648789
Au	 20.12753824	 11.20084029	 21.83624174
Au	 20.12753824	 11.20084029	 18.92474284
Au	 20.12753824	 11.20084029	 16.01324394
Au	 20.12753824	 11.20084029	 13.10174505
Au	 20.12753824	 11.20084029	 10.19024615
Au	 20.12753824	 11.20084029	 7.27874725
Au	 20.12753824	 11.20084029	 4.36724835
Au	 20.12753824	 11.20084029	 1.45574945
Au	 20.12753824	 11.20084029	 -1.45574945
Au	 20.12753824	 11.20084029	 -4.36724835
Au	 20.12753824	 11.20084029	 -7.27874725
Au	 20.12753824	 11.20084029	 -10.19024615
Au	 20.12753824	 11.20084029	 -13.10174505
Au	 20.12753824	 11.20084029	 -16.01324394
Au	 20.12753824	 11.20084029	 -18.92474284
Au	 20.12753824	 11.20084029	 -21.83624174
Au	 -4.43288077	 22.60367640	 21.83624174
Au	 -4.43288077	 22.60367640	 18.92474284
Au	 -4.43288077	 22.60367640	 16.01324394
Au	 -4.43288077	 22.60367640	 13.10174505
Au	 -4.43288077	 22.60367640	 10.19024615
Au	 -4.43288077	 22.60367640	 7.27874725
Au	 -4.43288077	 22.60367640	 4.36724835
Au	 -4.43288077	 22.60367640	 1.45574945
Au	 -4.43288077	 22.60367640	 -1.45574945
Au	 -4.43288077	 22.60367640	 -4.36724835
Au	 -4.43288077	 22.60367640	 -7.27874725
Au	 -4.43288077	 22.60367640	 -10.19024615
Au	 -4.43288077	 22.60367640	 -13.10174505
Au	 -4.43288077	 22.60367640	 -16.01324394
Au	 -4.43288077	 22.60367640	 -18.92474284
Au	 -4.43288077	 22.60367640	 -21.83624174
Au	 -22.86720923	 2.76900000	 21.83624174
Au	 -22.86720923	 2.76900000	 18.92474284
Au	 -22.86720923	 2.76900000	 16.01324394
Au	 -22.86720923	 2.76900000	 13.10174505
Au	 -22.86720923	 2.76900000	 10.19024615
Au	 -22.86720923	 2.76900000	 7.27874725
Au	 -22.86720923	 2.76900000	 4.36724835
Au	 -22.86720923	 2.76900000	 1.45574945
Au	 -22.86720923	 2.76900000	 -1.45574945
Au	 -22.86720923	 2.76900000	 -4.36724835
Au	 -22.86720923	 2.76900000	 -7.27874725
Au	 -22.86720923	 2.76900000	 -10.19024615
Au	 -22.86720923	 2.76900000	 -13.10174505
Au	 -22.86720923	 2.76900000	 -16.01324394
Au	 -22.86720923	 2.76900000	 -18.92474284
Au	 -22.86720923	 2.76900000	 -21.83624174
Au	 -9.69983176	 -20.89234029	 21.83624174
Au	 -9.69983176	 -20.89234029	 18.92474284
Au	 -9.69983176	 -20.89234029	 16.01324394
Au	 -9.69983176	 -20.89234029	 13.10174505
Au	 -9.69983176	 -20.89234029	 10.19024615
Au	 -9.69983176	 -20.89234029	 7.27874725
Au	 -9.69983176	 -20.89234029	 4.36724835
Au	 -9.69983176	 -20.89234029	 1.45574945
Au	 -9.69983176	 -20.89234029	 -1.45574945
Au	 -9.69983176	 -20.89234029	 -4.36724835
Au	 -9.69983176	 -20.89234029	 -7.27874725
Au	 -9.69983176	 -20.89234029	 -10.19024615
Au	 -9.69983176	 -20.89234029	 -13.10174505
Au	 -9.69983176	 -20.89234029	 -16.01324394
Au	 -9.69983176	 -20.89234029	 -18.92474284
Au	 -9.69983176	 -20.89234029	 -21.83624174
Au	 16.87238351	 -15.68117640	 21.83624174
Au	 16.87238351	 -15.68117640	 18.92474284
Au	 16.87238351	 -15.68117640	 16.01324394
Au	 16.87238351	 -15.68117640	 13.10174505
Au	 16.87238351	 -15.68117640	 10.19024615
Au	 16.87238351	 -15.68117640	 7.27874725
Au	 16.87238351	 -15.68117640	 4.36724835
Au	 16.87238351	 -15.68117640	 1.45574945
Au	 16.87238351	 -15.68117640	 -1.45574945
Au	 16.87238351	 -15.68117640	 -4.36724835
Au	 16.87238351	 -15.68117640	 -7.27874725
Au	 16.87238351	 -15.68117640	 -10.19024615
Au	 16.87238351	 -15.68117640	 -13.10174505
Au	 16.87238351	 -15.68117640	 -16.01324394
Au	 16.87238351	 -15.68117640	 -18.92474284
Au	 16.87238351	 -15.68117640	 -21.83624174
Au	 14.13271253	 0.00000000	 30.57073844
Au	 14.13271253	 0.00000000	 27.65923954
Au	 14.13271253	 0.00000000	 24.74774064
Au	 14.13271253	 0.00000000	 21.83624174
Au	 14.13271253	 0.00000000	 18.92474284
Au	 14.13271253	 0.00000000	 16.01324394
Au	 14.13271253	 0.00000000	 13.10174505
Au	 14.13271253	 0.00000000	 10.19024615
Au	 14.13271253	 0.00000000	 7.27874725
Au	 14.13271253	 0.00000000	 4.36724835
Au	 14.13271253	 0.00000000	 1.45574945
Au	 14.13271253	 0.00000000	 -1.45574945
Au	 14.13271253	 0.00000000	 -4.36724835
Au	 14.13271253	 0.00000000	 -7.27874725
Au	 14.13271253	 0.00000000	 -10.19024615
Au	 14.13271253	 0.00000000	 -13.10174505
Au	 14.13271253	 0.00000000	 -16.01324394
Au	 14.13271253	 0.00000000	 -18.92474284
Au	 14.13271253	 0.00000000	 -21.83624174
Au	 14.13271253	 0.00000000	 -24.74774064
Au	 14.13271253	 0.00000000	 -27.65923954
Au	 14.13271253	 0.00000000	 -30.57073844
Au	 4.36724835	 13.44100834	 30.57073844
Au	 4.36724835	 13.44100834	 27.65923954
Au	 4.36724835	 13.44100834	 24.74774064
Au	 4.36724835	 13.44100834	 21.83624174
Au	 4.36724835	 13.44100834	 18.92474284
Au	 4.36724835	 13.44100834	 16.01324394
Au	 4.36724835	 13.44100834	 13.10174505
Au	 4.36724835	 13.44100834	 10.19024615
Au	 4.36724835	 13.44100834	 7.27874725
Au	 4.36724835	 13.44100834	 4.36724835
Au	 4.36724835	 13.44100834	 1.45574945
Au	 4.36724835	 13.44100834	 -1.45574945
Au	 4.36724835	 13.44100834	 -4.36724835
Au	 4.36724835	 13.44100834	 -7.27874725
Au	 4.36724835	 13.44100834	 -10.19024615
Au	 4.36724835	 13.44100834	 -13.10174505
Au	 4.36724835	 13.44100834	 -16.01324394
Au	 4.36724835	 13.44100834	 -18.92474284
Au	 4.36724835	 13.44100834	 -21.83624174
Au	 4.36724835	 13.44100834	 -24.74774064
Au	 4.36724835	 13.44100834	 -27.65923954
Au	 4.36724835	 13.44100834	 -30.57073844
Au	 -11.43360461	 8.30700000	 30.57073844
Au	 -11.43360461	 8.30700000	 27.65923954
Au	 -11.43360461	 8.30700000	 24.74774064
Au	 -11.43360461	 8.30700000	 21.83624174
Au	 -11.43360461	 8.30700000	 18.92474284
Au	 -11.43360461	 8.30700000	 16.01324394
Au	 -11.43360461	 8.30700000	 13.10174505
Au	 -11.43360461	 8.30700000	 10.19024615
Au	 -11.43360461	 8.30700000	 7.27874725
Au	 -11.43360461	 8.30700000	 4.36724835
Au	 -11.43360461	 8.30700000	 1.45574945
Au	 -11.43360461	 8.30700000	 -1.45574945
Au	 -11.43360461	 8.30700000	 -4.36724835
Au	 -11.43360461	 8.30700000	 -7.27874725
Au	 -11.43360461	 8.30700000	 -10.19024615
Au	 -11.43360461	 8.30700000	 -13.10174505
Au	 -11.43360461	 8.30700000	 -16.01324394
Au	 -11.43360461	 8.30700000	 -18.92474284
Au	 -11.43360461	 8.30700000	 -21.83624174
Au	 -11.43360461	 8.30700000	 -24.74774064
Au	 -11.43360461	 8.30700000	 -27.65923954
Au	 -11.43360461	 8.30700000	 -30.57073844
Au	 -11.43360461	 -8.30700000	 30.57073844
Au	 -11.43360461	 -8.30700000	 27.65923954
Au	 -11.43360461	 -8.30700000	 24.74774064
Au	 -11.43360461	 -8.30700000	 21.83624174
Au	 -11.43360461	 -8.30700000	 18.92474284
Au	 -11.43360461	 -8.30700000	 16.01324394
Au	 -11.43360461	 -8.30700000	 13.10174505
Au	 -11.43360461	 -8.30700000	 10.19024615
Au	 -11.43360461	 -8.30700000	 7.27874725
Au	 -11.43360461	 -8.30700000	 4.36724835
Au	 -11.43360461	 -8.30700000	 1.45574945
Au	 -11.43360461	 -8.30700000	 -1.45574945
Au	 -11.43360461	 -8.30700000	 -4.36724835
Au	 -11.43360461	 -8.30700000	 -7.27874725
Au	 -11.43360461	 -8.30700000	 -10.19024615
Au	 -11.43360461	 -8.30700000	 -13.10174505
Au	 -11.43360461	 -8.30700000	 -16.01324394
Au	 -11.43360461	 -8.30700000	 -18.92474284
Au	 -11.43360461	 -8.30700000	 -21.83624174
Au	 -11.43360461	 -8.30700000	 -24.74774064
Au	 -11.43360461	 -8.30700000	 -27.65923954
Au	 -11.43360461	 -8.30700000	 -30.57073844
Au	 4.36724835	 -13.44100834	 30.57073844
Au	 4.36724835	 -13.44100834	 27.65923954
Au	 4.36724835	 -13.44100834	 24.74774064
Au	 4.36724835	 -13.44100834	 21.83624174
Au	 4.36724835	 -13.44100834	 18.92474284
Au	 4.36724835	 -13.44100834	 16.01324394
Au	 4.36724835	 -13.44100834	 13.10174505
Au	 4.36724835	 -13.44100834	 10.19024615
Au	 4.36724835	 -13.44100834	 7.27874725
Au	 4.36724835	 -13.44100834	 4.36724835
Au	 4.36724835	 -13.44100834	 1.45574945
Au	 4.36724835	 -13.44100834	 -1.45574945
Au	 4.36724835	 -13.44100834	 -4.36724835
Au	 4.36724835	 -13.44100834	 -7.27874725
Au	 4.36724835	 -13.44100834	 -10.19024615
Au	 4.36724835	 -13.44100834	 -13.10174505
Au	 4.36724835	 -13.44100834	 -16.01324394
Au	 4.36724835	 -13.44100834	 -18.92474284
Au	 4.36724835	 -13.44100834	 -21.83624174
Au	 4.36724835	 -13.44100834	 -24.74774064
Au	 4.36724835	 -13.44100834	 -27.65923954
Au	 4.36724835	 -13.44100834	 -30.57073844
Au	 18.49996088	 13.44100834	 21.83624174
Au	 18.49996088	 13.44100834	 18.92474284
Au	 18.49996088	 13.44100834	 16.01324394
Au	 18.49996088	 13.44100834	 13.10174505
Au	 18.49996088	 13.44100834	 10.19024615
Au	 18.49996088	 13.44100834	 7.27874725
Au	 18.49996088	 13.44100834	 4.36724835
Au	 18.49996088	 13.44100834	 1.45574945
Au	 18.49996088	 13.44100834	 -1.45574945
Au	 18.49996088	 13.44100834	 -4.36724835
Au	 18.49996088	 13.44100834	 -7.27874725
Au	 18.49996088	 13.44100834	 -10.19024615
Au	 18.49996088	 13.44100834	 -13.10174505
Au	 18.49996088	 13.44100834	 -16.01324394
Au	 18.49996088	 13.44100834	 -18.92474284
Au	 18.49996088	 13.44100834	 -21.83624174
Au	 -7.06635626	 21.74800834	 21.83624174
Au	 -7.06635626	 21.74800834	 18.92474284
Au	 -7.06635626	 21.74800834	 16.01324394
Au	 -7.06635626	 21.74800834	 13.10174505
Au	 -7.06635626	 21.74800834	 10.19024615
Au	 -7.06635626	 21.74800834	 7.27874725
Au	 -7.06635626	 21.74800834	 4.36724835
Au	 -7.06635626	 21.74800834	 1.45574945
Au	 -7.06635626	 21.74800834	 -1.45574945
Au	 -7.06635626	 21.74800834	 -4.36724835
Au	 -7.06635626	 21.74800834	 -7.27874725
Au	 -7.06635626	 21.74800834	 -10.19024615
Au	 -7.06635626	 21.74800834	 -13.10174505
Au	 -7.06635626	 21.74800834	 -16.01324394
Au	 -7.06635626	 21.74800834	 -18.92474284
Au	 -7.06635626	 21.74800834	 -21.83624174
Au	 -22.86720923	 0.00000000	 21.83624174
Au	 -22.86720923	 0.00000000	 18.92474284
Au	 -22.86720923	 0.00000000	 16.01324394
Au	 -22.86720923	 0.00000000	 13.10174505
Au	 -22.86720923	 0.00000000	 10.19024615
Au	 -22.86720923	 0.00000000	 7.27874725
Au	 -22.86720923	 0.00000000	 4.36724835
Au	 -22.86720923	 0.00000000	 1.45574945
Au	 -22.86720923	 0.00000000	 -1.45574945
Au	 -22.86720923	 0.00000000	 -4.36724835
Au	 -22.86720923	 0.00000000	 -7.27874725
Au	 -22.86720923	 0.00000000	 -10.19024615
Au	 -22.86720923	 0.00000000	 -13.10174505
Au	 -22.86720923	 0.00000000	 -16.01324394
Au	 -22.86720923	 0.00000000	 -18.92474284
Au	 -22.86720923	 0.00000000	 -21.83624174
Au	 -7.06635626	 -21.74800834	 21.83624174
Au	 -7.06635626	 -21.74800834	 18.92474284
Au	 -7.06635626	 -21.74800834	 16.01324394
Au	 -7.06635626	 -21.74800834	 13.10174505
Au	 -7.06635626	 -21.74800834	 10.19024615
Au	 -7.06635626	 -21.74800834	 7.27874725
Au	 -7.06635626	 -21.74800834	 4.36724835
Au	 -7.06635626	 -21.74800834	 1.45574945
Au	 -7.06635626	 -21.74800834	 -1.45574945
Au	 -7.06635626	 -21.74800834	 -4.36724835
Au	 -7.06635626	 -21.74800834	 -7.27874725
Au	 -7.06635626	 -21.74800834	 -10.19024615
Au	 -7.06635626	 -21.74800834	 -13.10174505
Au	 -7.06635626	 -21.74800834	 -16.01324394
Au	 -7.06635626	 -21.74800834	 -18.92474284
Au	 -7.06635626	 -21.74800834	 -21.83624174
Au	 18.49996088	 -13.44100834	 21.83624174
Au	 18.49996088	 -13.44100834	 18.92474284
Au	 18.49996088	 -13.44100834	 16.01324394
Au	 18.49996088	 -13.44100834	 13.10174505
Au	 18.49996088	 -13.44100834	 10.19024615
Au	 18.49996088	 -13.44100834	 7.27874725
Au	 18.49996088	 -13.44100834	 4.36724835
Au	 18.49996088	 -13.44100834	 1.45574945
Au	 18.49996088	 -13.44100834	 -1.45574945
Au	 18.49996088	 -13.44100834	 -4.36724835
Au	 18.49996088	 -13.44100834	 -7.27874725
Au	 18.49996088	 -13.44100834	 -10.19024615
Au	 18.49996088	 -13.44100834	 -13.10174505
Au	 18.49996088	 -13.44100834	 -16.01324394
Au	 18.49996088	 -13.44100834	 -18.92474284
Au	 18.49996088	 -13.44100834	 -21.83624174
Au	 16.48816462	 0.00000000	 29.11498899
Au	 16.48816462	 0.00000000	 26.20349009
Au	 16.48816462	 0.00000000	 23.29199119
Au	 16.48816462	 0.00000000	 20.38049229
Au	 16.48816462	 0.00000000	 17.46899339
Au	 16.48816462	 0.00000000	 14.55749449
Au	 16.48816462	 0.00000000	 11.64599560
Au	 16.48816462	 0.00000000	 8.73449670
Au	 16.48816462	 0.00000000	 5.82299780
Au	 16.48816462	 0.00000000	 2.91149890
Au	 16.48816462	 0.00000000	 0.00000000
Au	 16.48816462	 0.00000000	 -2.91149890
Au	 16.48816462	 0.00000000	 -5.82299780
Au	 16.48816462	 0.00000000	 -8.73449670
Au	 16.48816462	 0.00000000	 -11.64599560
Au	 16.48816462	 0.00000000	 -14.55749449
Au	 16.48816462	 0.00000000	 -17.46899339
Au	 16.48816462	 0.00000000	 -20.38049229
Au	 16.48816462	 0.00000000	 -23.29199119
Au	 16.48816462	 0.00000000	 -26.20349009
Au	 16.48816462	 0.00000000	 -29.11498899
Au	 5.09512307	 15.68117640	 29.11498899
Au	 5.09512307	 15.68117640	 26.20349009
Au	 5.09512307	 15.68117640	 23.29199119
Au	 5.09512307	 15.68117640	 20.38049229
Au	 5.09512307	 15.68117640	 17.46899339
Au	 5.09512307	 15.68117640	 14.55749449
Au	 5.09512307	 15.68117640	 11.64599560
Au	 5.09512307	 15.68117640	 8.73449670
Au	 5.09512307	 15.68117640	 5.82299780
Au	 5.09512307	 15.68117640	 2.91149890
Au	 5.09512307	 15.68117640	 0.00000000
Au	 5.09512307	 15.68117640	 -2.91149890
Au	 5.09512307	 15.68117640	 -5.82299780
Au	 5.09512307	 15.68117640	 -8.73449670
Au	 5.09512307	 15.68117640	 -11.64599560
Au	 5.09512307	 15.68117640	 -14.55749449
Au	 5.09512307	 15.68117640	 -17.46899339
Au	 5.09512307	 15.68117640	 -20.38049229
Au	 5.09512307	 15.68117640	 -23.29199119
Au	 5.09512307	 15.68117640	 -26.20349009
Au	 5.09512307	 15.68117640	 -29.11498899
Au	 -13.33920538	 9.69150000	 29.11498899
Au	 -13.33920538	 9.69150000	 26.20349009
Au	 -13.33920538	 9.69150000	 23.29199119
Au	 -13.33920538	 9.69150000	 20.38049229
Au	 -13.33920538	 9.69150000	 17.46899339
Au	 -13.33920538	 9.69150000	 14.55749449
Au	 -13.33920538	 9.69150000	 11.64599560
Au	 -13.33920538	 9.69150000	 8.73449670
Au	 -13.33920538	 9.69150000	 5.82299780
Au	 -13.33920538	 9.69150000	 2.91149890
Au	 -13.33920538	 9.69150000	 0.00000000
Au	 -13.33920538	 9.69150000	 -2.91149890
Au	 -13.33920538	 9.69150000	 -5.82299780
Au	 -13.33920538	 9.69150000	 -8.73449670
Au	 -13.33920538	 9.69150000	 -11.64599560
Au	 -13.33920538	 9.69150000	 -14.55749449
Au	 -13.33920538	 9.69150000	 -17.46899339
Au	 -13.33920538	 9.69150000	 -20.38049229
Au	 -13.33920538	 9.69150000	 -23.29199119
Au	 -13.33920538	 9.69150000	 -26.20349009
Au	 -13.33920538	 9.69150000	 -29.11498899
Au	 -13.33920538	 -9.69150000	 29.11498899
Au	 -13.33920538	 -9.69150000	 26.20349009
Au	 -13.33920538	 -9.69150000	 23.29199119
Au	 -13.33920538	 -9.69150000	 20.38049229
Au	 -13.33920538	 -9.69150000	 17.46899339
Au	 -13.33920538	 -9.69150000	 14.55749449
Au	 -13.33920538	 -9.69150000	 11.64599560
Au	 -13.33920538	 -9.69150000	 8.73449670
Au	 -13.33920538	 -9.69150000	 5.82299780
Au	 -13.33920538	 -9.69150000	 2.91149890
Au	 -13.33920538	 -9.69150000	 0.00000000
Au	 -13.33920538	 -9.69150000	 -2.91149890
Au	 -13.33920538	 -9.69150000	 -5.82299780
Au	 -13.33920538	 -9.69150000	 -8.73449670
Au	 -13.33920538	 -9.69150000	 -11.64599560
Au	 -13.33920538	 -9.69150000	 -14.55749449
Au	 -13.33920538	 -9.69150000	 -17.46899339
Au	 -13.33920538	 -9.69150000	 -20.38049229
Au	 -13.33920538	 -9.69150000	 -23.29199119
Au	 -13.33920538	 -9.69150000	 -26.20349009
Au	 -13.33920538	 -9.69150000	 -29.11498899
Au	 5.09512307	 -15.68117640	 29.11498899
Au	 5.09512307	 -15.68117640	 26.20349009
Au	 5.09512307	 -15.68117640	 23.29199119
Au	 5.09512307	 -15.68117640	 20.38049229
Au	 5.09512307	 -15.68117640	 17.46899339
Au	 5.09512307	 -15.68117640	 14.55749449
Au	 5.09512307	 -15.68117640	 11.64599560
Au	 5.09512307	 -15.68117640	 8.73449670
Au	 5.09512307	 -15.68117640	 5.82299780
Au	 5.09512307	 -15.68117640	 2.91149890
Au	 5.09512307	 -15.68117640	 0.00000000
Au	 5.09512307	 -15.68117640	 -2.91149890
Au	 5.09512307	 -15.68117640	 -5.82299780
Au	 5.09512307	 -15.68117640	 -8.73449670
Au	 5.09512307	 -15.68117640	 -11.64599560
Au	 5.09512307	 -15.68117640	 -14.55749449
Au	 5.09512307	 -15.68117640	 -17.46899339
Au	 5.09512307	 -15.68117640	 -20.38049229
Au	 5.09512307	 -15.68117640	 -23.29199119
Au	 5.09512307	 -15.68117640	 -26.20349009
Au	 5.09512307	 -15.68117640	 -29.11498899
Au	 16.87238351	 15.68117640	 21.83624174
Au	 16.87238351	 15.68117640	 18.92474284
Au	 16.87238351	 15.68117640	 16.01324394
Au	 16.87238351	 15.68117640	 13.10174505
Au	 16.87238351	 15.68117640	 10.19024615
Au	 16.87238351	 15.68117640	 7.27874725
Au	 16.87238351	 15.68117640	 4.36724835
Au	 16.87238351	 15.68117640	 1.45574945
Au	 16.87238351	 15.68117640	 -1.45574945
Au	 16.87238351	 15.68117640	 -4.36724835
Au	 16.87238351	 15.68117640	 -7.27874725
Au	 16.87238351	 15.68117640	 -10.19024615
Au	 16.87238351	 15.68117640	 -13.10174505
Au	 16.87238351	 15.68117640	 -16.01324394
Au	 16.87238351	 15.68117640	 -18.92474284
Au	 16.87238351	 15.68117640	 -21.83624174
Au	 -9.69983176	 20.89234029	 21.83624174
Au	 -9.69983176	 20.89234029	 18.92474284
Au	 -9.69983176	 20.89234029	 16.01324394
Au	 -9.69983176	 20.89234029	 13.10174505
Au	 -9.69983176	 20.89234029	 10.19024615
Au	 -9.69983176	 20.89234029	 7.27874725
Au	 -9.69983176	 20.89234029	 4.36724835
Au	 -9.69983176	 20.89234029	 1.45574945
Au	 -9.69983176	 20.89234029	 -1.45574945
Au	 -9.69983176	 20.89234029	 -4.36724835
Au	 -9.69983176	 20.89234029	 -7.27874725
Au	 -9.69983176	 20.89234029	 -10.19024615
Au	 -9.69983176	 20.89234029	 -13.10174505
Au	 -9.69983176	 20.89234029	 -16.01324394
Au	 -9.69983176	 20.89234029	 -18.92474284
Au	 -9.69983176	 20.89234029	 -21.83624174
Au	 -22.86720923	 -2.76900000	 21.83624174
Au	 -22.86720923	 -2.76900000	 18.92474284
Au	 -22.86720923	 -2.76900000	 16.01324394
Au	 -22.86720923	 -2.76900000	 13.10174505
Au	 -22.86720923	 -2.76900000	 10.19024615
Au	 -22.86720923	 -2.76900000	 7.27874725
Au	 -22.86720923	 -2.76900000	 4.36724835
Au	 -22.86720923	 -2.76900000	 1.45574945
Au	 -22.86720923	 -2.76900000	 -1.45574945
Au	 -22.86720923	 -2.76900000	 -4.36724835
Au	 -22.86720923	 -2.76900000	 -7.27874725
Au	 -22.86720923	 -2.76900000	 -10.19024615
Au	 -22.86720923	 -2.76900000	 -13.10174505
Au	 -22.86720923	 -2.76900000	 -16.01324394
Au	 -22.86720923	 -2.76900000	 -18.92474284
Au	 -22.86720923	 -2.76900000	 -21.83624174
Au	 -4.43288077	 -22.60367640	 21.83624174
Au	 -4.43288077	 -22.60367640	 18.92474284
Au	 -4.43288077	 -22.60367640	 16.01324394
Au	 -4.43288077	 -22.60367640	 13.10174505
Au	 -4.43288077	 -22.60367640	 10.19024615
Au	 -4.43288077	 -22.60367640	 7.27874725
Au	 -4.43288077	 -22.60367640	 4.36724835
Au	 -4.43288077	 -22.60367640	 1.45574945
Au	 -4.43288077	 -22.60367640	 -1.45574945
Au	 -4.43288077	 -22.60367640	 -4.36724835
Au	 -4.43288077	 -22.60367640	 -7.27874725
Au	 -4.43288077	 -22.60367640	 -10.19024615
Au	 -4.43288077	 -22.60367640	 -13.10174505
Au	 -4.43288077	 -22.60367640	 -16.01324394
Au	 -4.43288077	 -22.60367640	 -18.92474284
Au	 -4.43288077	 -22.60367640	 -21.83624174
Au	 20.12753824	 -11.20084029	 21.83624174
Au	 20.12753824	 -11.20084029	 18.92474284
Au	 20.12753824	 -11.20084029	 16.01324394
Au	 20.12753824	 -11.20084029	 13.10174505
Au	 20.12753824	 -11.20084029	 10.19024615
Au	 20.12753824	 -11.20084029	 7.27874725
Au	 20.12753824	 -11.20084029	 4.36724835
Au	 20.12753824	 -11.20084029	 1.45574945
Au	 20.12753824	 -11.20084029	 -1.45574945
Au	 20.12753824	 -11.20084029	 -4.36724835
Au	 20.12753824	 -11.20084029	 -7.27874725
Au	 20.12753824	 -11.20084029	 -10.19024615
Au	 20.12753824	 -11.20084029	 -13.10174505
Au	 20.12753824	 -11.20084029	 -16.01324394
Au	 20.12753824	 -11.20084029	 -18.92474284
Au	 20.12753824	 -11.20084029	 -21.83624174
Au	 18.84361671	 0.00000000	 27.65923954
Au	 18.84361671	 0.00000000	 24.74774064
Au	 18.84361671	 0.00000000	 21.83624174
Au	 18.84361671	 0.00000000	 18.92474284
Au	 18.84361671	 0.00000000	 16.01324394
Au	 18.84361671	 0.00000000	 13.10174505
Au	 18.84361671	 0.00000000	 10.19024615
Au	 18.84361671	 0.00000000	 7.27874725
Au	 18.84361671	 0.00000000	 4.36724835
Au	 18.84361671	 0.00000000	 1.45574945
Au	 18.84361671	 0.00000000	 -1.45574945
Au	 18.84361671	 0.00000000	 -4.36724835
Au	 18.84361671	 0.00000000	 -7.27874725
Au	 18.84361671	 0.00000000	 -10.19024615
Au	 18.84361671	 0.00000000	 -13.10174505
Au	 18.84361671	 0.00000000	 -16.01324394
Au	 18.84361671	 0.00000000	 -18.92474284
Au	 18.84361671	 0.00000000	 -21.83624174
Au	 18.84361671	 0.00000000	 -24.74774064
Au	 18.84361671	 0.00000000	 -27.65923954
Au	 5.82299780	 17.92134446	 27.65923954
Au	 5.82299780	 17.92134446	 24.74774064
Au	 5.82299780	 17.92134446	 21.83624174
Au	 5.82299780	 17.92134446	 18.92474284
Au	 5.82299780	 17.92134446	 16.01324394
Au	 5.82299780	 17.92134446	 13.10174505
Au	 5.82299780	 17.92134446	 10.19024615
Au	 5.82299780	 17.92134446	 7.27874725
Au	 5.82299780	 17.92134446	 4.36724835
Au	 5.82299780	 17.92134446	 1.45574945
Au	 5.82299780	 17.92134446	 -1.45574945
Au	 5.82299780	 17.92134446	 -4.36724835
Au	 5.82299780	 17.92134446	 -7.27874725
Au	 5.82299780	 17.92134446	 -10.19024615
Au	 5.82299780	 17.92134446	 -13.10174505
Au	 5.82299780	 17.92134446	 -16.01324394
Au	 5.82299780	 17.92134446	 -18.92474284
Au	 5.82299780	 17.92134446	 -21.83624174
Au	 5.82299780	 17.92134446	 -24.74774064
Au	 5.82299780	 17.92134446	 -27.65923954
Au	 -15.24480615	 11.07600000	 27.65923954
Au	 -15.24480615	 11.07600000	 24.74774064
Au	 -15.24480615	 11.07600000	 21.83624174
Au	 -15.24480615	 11.07600000	 18.92474284
Au	 -15.24480615	 11.07600000	 16.01324394
Au	 -15.24480615	 11.07600000	 13.10174505
Au	 -15.24480615	 11.07600000	 10.19024615
Au	 -15.24480615	 11.07600000	 7.27874725
Au	 -15.24480615	 11.07600000	 4.36724835
Au	 -15.24480615	 11.07600000	 1.45574945
Au	 -15.24480615	 11.07600000	 -1.45574945
Au	 -15.24480615	 11.07600000	 -4.36724835
Au	 -15.24480615	 11.07600000	 -7.27874725
Au	 -15.24480615	 11.07600000	 -10.19024615
Au	 -15.24480615	 11.07600000	 -13.10174505
Au	 -15.24480615	 11.07600000	 -16.01324394
Au	 -15.24480615	 11.07600000	 -18.92474284
Au	 -15.24480615	 11.07600000	 -21.83624174
Au	 -15.24480615	 11.07600000	 -24.74774064
Au	 -15.24480615	 11.07600000	 -27.65923954
Au	 -15.24480615	 -11.07600000	 27.65923954
Au	 -15.24480615	 -11.07600000	 24.74774064
Au	 -15.24480615	 -11.07600000	 21.83624174
Au	 -15.24480615	 -11.07600000	 18.92474284
Au	 -15.24480615	 -11.07600000	 16.01324394
Au	 -15.24480615	 -11.07600000	 13.10174505
Au	 -15.24480615	 -11.07600000	 10.19024615
Au	 -15.24480615	 -11.07600000	 7.27874725
Au	 -15.24480615	 -11.07600000	 4.36724835
Au	 -15.24480615	 -11.07600000	 1.45574945
Au	 -15.24480615	 -11.07600000	 -1.45574945
Au	 -15.24480615	 -11.07600000	 -4.36724835
Au	 -15.24480615	 -11.07600000	 -7.27874725
Au	 -15.24480615	 -11.07600000	 -10.19024615
Au	 -15.24480615	 -11.07600000	 -13.10174505
Au	 -15.24480615	 -11.07600000	 -16.01324394
Au	 -15.24480615	 -11.07600000	 -18.92474284
Au	 -15.24480615	 -11.07600000	 -21.83624174
Au	 -15.24480615	 -11.07600000	 -24.74774064
Au	 -15.24480615	 -11.07600000	 -27.65923954
Au	 5.82299780	 -17.92134446	 27.65923954
Au	 5.82299780	 -17.92134446	 24.74774064
Au	 5.82299780	 -17.92134446	 21.83624174
Au	 5.82299780	 -17.92134446	 18.92474284
Au	 5.82299780	 -17.92134446	 16.01324394
Au	 5.82299780	 -17.92134446	 13.10174505
Au	 5.82299780	 -17.92134446	 10.19024615
Au	 5.82299780	 -17.92134446	 7.27874725
Au	 5.82299780	 -17.92134446	 4.36724835
Au	 5.82299780	 -17.92134446	 1.45574945
Au	 5.82299780	 -17.92134446	 -1.45574945
Au	 5.82299780	 -17.92134446	 -4.36724835
Au	 5.82299780	 -17.92134446	 -7.27874725
Au	 5.82299780	 -17.92134446	 -10.19024615
Au	 5.82299780	 -17.92134446	 -13.10174505
Au	 5.82299780	 -17.92134446	 -16.01324394
Au	 5.82299780	 -17.92134446	 -18.92474284
Au	 5.82299780	 -17.92134446	 -21.83624174
Au	 5.82299780	 -17.92134446	 -24.74774064
Au	 5.82299780	 -17.92134446	 -27.65923954
Au	 15.24480615	 17.92134446	 21.83624174
Au	 15.24480615	 17.92134446	 18.92474284
Au	 15.24480615	 17.92134446	 16.01324394
Au	 15.24480615	 17.92134446	 13.10174505
Au	 15.24480615	 17.92134446	 10.19024615
Au	 15.24480615	 17.92134446	 7.27874725
Au	 15.24480615	 17.92134446	 4.36724835
Au	 15.24480615	 17.92134446	 1.45574945
Au	 15.24480615	 17.92134446	 -1.45574945
Au	 15.24480615	 17.92134446	 -4.36724835
Au	 15.24480615	 17.92134446	 -7.27874725
Au	 15.24480615	 17.92134446	 -10.19024615
Au	 15.24480615	 17.92134446	 -13.10174505
Au	 15.24480615	 17.92134446	 -16.01324394
Au	 15.24480615	 17.92134446	 -18.92474284
Au	 15.24480615	 17.92134446	 -21.83624174
Au	 -12.33330725	 20.03667223	 21.83624174
Au	 -12.33330725	 20.03667223	 18.92474284
Au	 -12.33330725	 20.03667223	 16.01324394
Au	 -12.33330725	 20.03667223	 13.10174505
Au	 -12.33330725	 20.03667223	 10.19024615
Au	 -12.33330725	 20.03667223	 7.27874725
Au	 -12.33330725	 20.03667223	 4.36724835
Au	 -12.33330725	 20.03667223	 1.45574945
Au	 -12.33330725	 20.03667223	 -1.45574945
Au	 -12.33330725	 20.03667223	 -4.36724835
Au	 -12.33330725	 20.03667223	 -7.27874725
Au	 -12.33330725	 20.03667223	 -10.19024615
Au	 -12.33330725	 20.03667223	 -13.10174505
Au	 -12.33330725	 20.03667223	 -16.01324394
Au	 -12.33330725	 20.03667223	 -18.92474284
Au	 -12.33330725	 20.03667223	 -21.83624174
Au	 -22.86720923	 -5.53800000	 21.83624174
Au	 -22.86720923	 -5.53800000	 18.92474284
Au	 -22.86720923	 -5.53800000	 16.01324394
Au	 -22.86720923	 -5.53800000	 13.10174505
Au	 -22.86720923	 -5.53800000	 10.19024615
Au	 -22.86720923	 -5.53800000	 7.27874725
Au	 -22.86720923	 -5.53800000	 4.36724835
Au	 -22.86720923	 -5.53800000	 1.45574945
Au	 -22.86720923	 -5.53800000	 -1.45574945
Au	 -22.86720923	 -5.53800000	 -4.36724835
Au	 -22.86720923	 -5.53800000	 -7.27874725
Au	 -22.86720923	 -5.53800000	 -10.19024615
Au	 -22.86720923	 -5.53800000	 -13.10174505
Au	 -22.86720923	 -5.53800000	 -16.01324394
Au	 -22.86720923	 -5.53800000	 -18.92474284
Au	 -22.86720923	 -5.53800000	 -21.83624174
Au	 -1.79940528	 -23.45934446	 21.83624174
Au	 -1.79940528	 -23.45934446	 18.92474284
Au	 -1.79940528	 -23.45934446	 16.01324394
Au	 -1.79940528	 -23.45934446	 13.10174505
Au	 -1.79940528	 -23.45934446	 10.19024615
Au	 -1.79940528	 -23.45934446	 7.27874725
Au	 -1.79940528	 -23.45934446	 4.36724835
Au	 -1.79940528	 -23.45934446	 1.45574945
Au	 -1.79940528	 -23.45934446	 -1.45574945
Au	 -1.79940528	 -23.45934446	 -4.36724835
Au	 -1.79940528	 -23.45934446	 -7.27874725
Au	 -1.79940528	 -23.45934446	 -10.19024615
Au	 -1.79940528	 -23.45934446	 -13.10174505
Au	 -1.79940528	 -23.45934446	 -16.01324394
Au	 -1.79940528	 -23.45934446	 -18.92474284
Au	 -1.79940528	 -23.45934446	 -21.83624174
Au	 21.75511561	 -8.96067223	 21.83624174
Au	 21.75511561	 -8.96067223	 18.92474284
Au	 21.75511561	 -8.96067223	 16.01324394
Au	 21.75511561	 -8.96067223	 13.10174505
Au	 21.75511561	 -8.96067223	 10.19024615
Au	 21.75511561	 -8.96067223	 7.27874725
Au	 21.75511561	 -8.96067223	 4.36724835
Au	 21.75511561	 -8.96067223	 1.45574945
Au	 21.75511561	 -8.96067223	 -1.45574945
Au	 21.75511561	 -8.96067223	 -4.36724835
Au	 21.75511561	 -8.96067223	 -7.27874725
Au	 21.75511561	 -8.96067223	 -10.19024615
Au	 21.75511561	 -8.96067223	 -13.10174505
Au	 21.75511561	 -8.96067223	 -16.01324394
Au	 21.75511561	 -8.96067223	 -18.92474284
Au	 21.75511561	 -8.96067223	 -21.83624174
Au	 21.19906879	 0.00000000	 26.20349009
Au	 21.19906879	 0.00000000	 23.29199119
Au	 21.19906879	 0.00000000	 20.38049229
Au	 21.19906879	 0.00000000	 17.46899339
Au	 21.19906879	 0.00000000	 14.55749449
Au	 21.19906879	 0.00000000	 11.64599560
Au	 21.19906879	 0.00000000	 8.73449670
Au	 21.19906879	 0.00000000	 5.82299780
Au	 21.19906879	 0.00000000	 2.91149890
Au	 21.19906879	 0.00000000	 0.00000000
Au	 21.19906879	 0.00000000	 -2.91149890
Au	 21.19906879	 0.00000000	 -5.82299780
Au	 21.19906879	 0.00000000	 -8.73449670
Au	 21.19906879	 0.00000000	 -11.64599560
Au	 21.19906879	 0.00000000	 -14.55749449
Au	 21.19906879	 0.00000000	 -17.46899339
Au	 21.19906879	 0.00000000	 -20.38049229
Au	 21.19906879	 0.00000000	 -23.29199119
Au	 21.19906879	 0.00000000	 -26.20349009
Au	 6.55087252	 20.16151252	 26.20349009
Au	 6.55087252	 20.16151252	 23.29199119
Au	 6.55087252	 20.16151252	 20.38049229
Au	 6.55087252	 20.16151252	 17.46899339
Au	 6.55087252	 20.16151252	 14.55749449
Au	 6.55087252	 20.16151252	 11.64599560
Au	 6.55087252	 20.16151252	 8.73449670
Au	 6.55087252	 20.16151252	 5.82299780
Au	 6.55087252	 20.16151252	 2.91149890
Au	 6.55087252	 20.16151252	 0.00000000
Au	 6.55087252	 20.16151252	 -2.91149890
Au	 6.55087252	 20.16151252	 -5.82299780
Au	 6.55087252	 20.16151252	 -8.73449670
Au	 6.55087252	 20.16151252	 -11.64599560
Au	 6.55087252	 20.16151252	 -14.55749449
Au	 6.55087252	 20.16151252	 -17.46899339
Au	 6.55087252	 20.16151252	 -20.38049229
Au	 6.55087252	 20.16151252	 -23.29199119
Au	 6.55087252	 20.16151252	 -26.20349009
Au	 -17.15040692	 12.46050000	 26.20349009
Au	 -17.15040692	 12.46050000	 23.29199119
Au	 -17.15040692	 12.46050000	 20.38049229
Au	 -17.15040692	 12.46050000	 17.46899339
Au	 -17.15040692	 12.46050000	 14.55749449
Au	 -17.15040692	 12.46050000	 11.64599560
Au	 -17.15040692	 12.46050000	 8.73449670
Au	 -17.15040692	 12.46050000	 5.82299780
Au	 -17.15040692	 12.46050000	 2.91149890
Au	 -17.15040692	 12.46050000	 0.00000000
Au	 -17.15040692	 12.46050000	 -2.91149890
Au	 -17.15040692	 12.46050000	 -5.82299780
Au	 -17.15040692	 12.46050000	 -8.73449670
Au	 -17.15040692	 12.46050000	 -11.64599560
Au	 -17.15040692	 12.46050000	 -14.55749449
Au	 -17.15040692	 12.46050000	 -17.46899339
Au	 -17.15040692	 12.46050000	 -20.38049229
Au	 -17.15040692	 12.46050000	 -23.29199119
Au	 -17.15040692	 12.46050000	 -26.20349009
Au	 -17.15040692	 -12.46050000	 26.20349009
Au	 -17.15040692	 -12.46050000	 23.29199119
Au	 -17.15040692	 -12.46050000	 20.38049229
Au	 -17.15040692	 -12.46050000	 17.46899339
Au	 -17.15040692	 -12.46050000	 14.55749449
Au	 -17.15040692	 -12.46050000	 11.64599560
Au	 -17.15040692	 -12.46050000	 8.73449670
Au	 -17.15040692	 -12.46050000	 5.82299780
Au	 -17.15040692	 -12.46050000	 2.91149890
Au	 -17.15040692	 -12.46050000	 0.00000000
Au	 -17.15040692	 -12.46050000	 -2.91149890
Au	 -17.15040692	 -12.46050000	 -5.82299780
Au	 -17.15040692	 -12.46050000	 -8.73449670
Au	 -17.15040692	 -12.46050000	 -11.64599560
Au	 -17.15040692	 -12.46050000	 -14.55749449
Au	 -17.15040692	 -12.46050000	 -17.46899339
Au	 -17.15040692	 -12.46050000	 -20.38049229
Au	 -17.15040692	 -12.46050000	 -23.29199119
Au	 -17.15040692	 -12.46050000	 -26.20349009
Au	 6.55087252	 -20.16151252	 26.20349009
Au	 6.55087252	 -20.16151252	 23.29199119
Au	 6.55087252	 -20.16151252	 20.38049229
Au	 6.55087252	 -20.16151252	 17.46899339
Au	 6.55087252	 -20.16151252	 14.55749449
Au	 6.55087252	 -20.16151252	 11.64599560
Au	 6.55087252	 -20.16151252	 8.73449670
Au	 6.55087252	 -20.16151252	 5.82299780
Au	 6.55087252	 -20.16151252	 2.91149890
Au	 6.55087252	 -20.16151252	 0.00000000
Au	 6.55087252	 -20.16151252	 -2.91149890
Au	 6.55087252	 -20.16151252	 -5.82299780
Au	 6.55087252	 -20.16151252	 -8.73449670
Au	 6.55087252	 -20.16151252	 -11.64599560
Au	 6.55087252	 -20.16151252	 -14.55749449
Au	 6.55087252	 -20.16151252	 -17.46899339
Au	 6.55087252	 -20.16151252	 -20.38049229
Au	 6.55087252	 -20.16151252	 -23.29199119
Au	 6.55087252	 -20.16151252	 -26.20349009
Au	 13.61722879	 20.16151252	 21.83624174
Au	 13.61722879	 20.16151252	 18.92474284
Au	 13.61722879	 20.16151252	 16.01324394
Au	 13.61722879	 20.16151252	 13.10174505
Au	 13.61722879	 20.16151252	 10.19024615
Au	 13.61722879	 20.16151252	 7.27874725
Au	 13.61722879	 20.16151252	 4.36724835
Au	 13.61722879	 20.16151252	 1.45574945
Au	 13.61722879	 20.16151252	 -1.45574945
Au	 13.61722879	 20.16151252	 -4.36724835
Au	 13.61722879	 20.16151252	 -7.27874725
Au	 13.61722879	 20.16151252	 -10.19024615
Au	 13.61722879	 20.16151252	 -13.10174505
Au	 13.61722879	 20.16151252	 -16.01324394
Au	 13.61722879	 20.16151252	 -18.92474284
Au	 13.61722879	 20.16151252	 -21.83624174
Au	 -14.96678275	 19.18100417	 21.83624174
Au	 -14.96678275	 19.18100417	 18.92474284
Au	 -14.96678275	 19.18100417	 16.01324394
Au	 -14.96678275	 19.18100417	 13.10174505
Au	 -14.96678275	 19.18100417	 10.19024615
Au	 -14.96678275	 19.18100417	 7.27874725
Au	 -14.96678275	 19.18100417	 4.36724835
Au	 -14.96678275	 19.18100417	 1.45574945
Au	 -14.96678275	 19.18100417	 -1.45574945
Au	 -14.96678275	 19.18100417	 -4.36724835
Au	 -14.96678275	 19.18100417	 -7.27874725
Au	 -14.96678275	 19.18100417	 -10.19024615
Au	 -14.96678275	 19.18100417	 -13.10174505
Au	 -14.96678275	 19.18100417	 -16.01324394
Au	 -14.96678275	 19.18100417	 -18.92474284
Au	 -14.96678275	 19.18100417	 -21.83624174
Au	 -22.86720923	 -8.30700000	 21.83624174
Au	 -22.86720923	 -8.30700000	 18.92474284
Au	 -22.86720923	 -8.30700000	 16.01324394
Au	 -22.86720923	 -8.30700000	 13.10174505
Au	 -22.86720923	 -8.30700000	 10.19024615
Au	 -22.86720923	 -8.30700000	 7.27874725
Au	 -22.86720923	 -8.30700000	 4.36724835
Au	 -22.86720923	 -8.30700000	 1.45574945
Au	 -22.86720923	 -8.30700000	 -1.45574945
Au	 -22.86720923	 -8.30700000	 -4.36724835
Au	 -22.86720923	 -8.30700000	 -7.27874725
Au	 -22.86720923	 -8.30700000	 -10.19024615
Au	 -22.86720923	 -8.30700000	 -13.10174505
Au	 -22.86720923	 -8.30700000	 -16.01324394
Au	 -22.86720923	 -8.30700000	 -18.92474284
Au	 -22.86720923	 -8.30700000	 -21.83624174
Au	 0.83407022	 -24.31501252	 21.83624174
Au	 0.83407022	 -24.31501252	 18.92474284
Au	 0.83407022	 -24.31501252	 16.01324394
Au	 0.83407022	 -24.31501252	 13.10174505
Au	 0.83407022	 -24.31501252	 10.19024615
Au	 0.83407022	 -24.31501252	 7.27874725
Au	 0.83407022	 -24.31501252	 4.36724835
Au	 0.83407022	 -24.31501252	 1.45574945
Au	 0.83407022	 -24.31501252	 -1.45574945
Au	 0.83407022	 -24.31501252	 -4.36724835
Au	 0.83407022	 -24.31501252	 -7.27874725
Au	 0.83407022	 -24.31501252	 -10.19024615
Au	 0.83407022	 -24.31501252	 -13.10174505
Au	 0.83407022	 -24.31501252	 -16.01324394
Au	 0.83407022	 -24.31501252	 -18.92474284
Au	 0.83407022	 -24.31501252	 -21.83624174
Au	 23.38269297	 -6.72050417	 21.83624174
Au	 23.38269297	 -6.72050417	 18.92474284
Au	 23.38269297	 -6.72050417	 16.01324394
Au	 23.38269297	 -6.72050417	 13.10174505
Au	 23.38269297	 -6.72050417	 10.19024615
Au	 23.38269297	 -6.72050417	 7.27874725
Au	 23.38269297	 -6.72050417	 4.36724835
Au	 23.38269297	 -6.72050417	 1.45574945
Au	 23.38269297	 -6.72050417	 -1.45574945
Au	 23.38269297	 -6.72050417	 -4.36724835
Au	 23.38269297	 -6.72050417	 -7.27874725
Au	 23.38269297	 -6.72050417	 -10.19024615
Au	 23.38269297	 -6.72050417	 -13.10174505
Au	 23.38269297	 -6.72050417	 -16.01324394
Au	 23.38269297	 -6.72050417	 -18.92474284
Au	 23.38269297	 -6.72050417	 -21.83624174
Au	 23.55452088	 0.00000000	 24.74774064
Au	 23.55452088	 0.00000000	 21.83624174
Au	 23.55452088	 0.00000000	 18.92474284
Au	 23.55452088	 0.00000000	 16.01324394
Au	 23.55452088	 0.00000000	 13.10174505
Au	 23.55452088	 0.00000000	 10.19024615
Au	 23.55452088	 0.00000000	 7.27874725
Au	 23.55452088	 0.00000000	 4.36724835
Au	 23.55452088	 0.00000000	 1.45574945
Au	 23.55452088	 0.00000000	 -1.45574945
Au	 23.55452088	 0.00000000	 -4.36724835
Au	 23.55452088	 0.00000000	 -7.27874725
Au	 23.55452088	 0.00000000	 -10.19024615
Au	 23.55452088	 0.00000000	 -13.10174505
Au	 23.55452088	 0.00000000	 -16.01324394
Au	 23.55452088	 0.00000000	 -18.92474284
Au	 23.55452088	 0.00000000	 -21.83624174
Au	 23.55452088	 0.00000000	 -24.74774064
Au	 7.27874725	 22.40168057	 24.74774064
Au	 7.27874725	 22.40168057	 21.83624174
Au	 7.27874725	 22.40168057	 18.92474284
Au	 7.27874725	 22.40168057	 16.01324394
Au	 7.27874725	 22.40168057	 13.10174505
Au	 7.27874725	 22.40168057	 10.19024615
Au	 7.27874725	 22.40168057	 7.27874725
Au	 7.27874725	 22.40168057	 4.36724835
Au	 7.27874725	 22.40168057	 1.45574945
Au	 7.27874725	 22.40168057	 -1.45574945
Au	 7.27874725	 22.40168057	 -4.36724835
Au	 7.27874725	 22.40168057	 -7.27874725
Au	 7.27874725	 22.40168057	 -10.19024615
Au	 7.27874725	 22.40168057	 -13.10174505
Au	 7.27874725	 22.40168057	 -16.01324394
Au	 7.27874725	 22.40168057	 -18.92474284
Au	 7.27874725	 22.40168057	 -21.83624174
Au	 7.27874725	 22.40168057	 -24.74774064
Au	 -19.05600769	 13.84500000	 24.74774064
Au	 -19.05600769	 13.84500000	 21.83624174
Au	 -19.05600769	 13.84500000	 18.92474284
Au	 -19.05600769	 13.84500000	 16.01324394
Au	 -19.05600769	 13.84500000	 13.10174505
Au	 -19.05600769	 13.84500000	 10.19024615
Au	 -19.05600769	 13.84500000	 7.27874725
Au	 -19.05600769	 13.84500000	 4.36724835
Au	 -19.05600769	 13.84500000	 1.45574945
Au	 -19.05600769	 13.84500000	 -1.45574945
Au	 -19.05600769	 13.84500000	 -4.36724835
Au	 -19.05600769	 13.84500000	 -7.27874725
Au	 -19.05600769	 13.84500000	 -10.19024615
Au	 -19.05600769	 13.84500000	 -13.10174505
Au	 -19.05600769	 13.84500000	 -16.01324394
Au	 -19.05600769	 13.84500000	 -18.92474284
Au	 -19.05600769	 13.84500000	 -21.83624174
Au	 -19.05600769	 13.84500000	 -24.74774064
Au	 -19.05600769	 -13.84500000	 24.74774064
Au	 -19.05600769	 -13.84500000	 21.83624174
Au	 -19.05600769	 -13.84500000	 18.92474284
Au	 -19.05600769	 -13.84500000	 16.01324394
Au	 -19.05600769	 -13.84500000	 13.10174505
Au	 -19.05600769	 -13.84500000	 10.19024615
Au	 -19.05600769	 -13.84500000	 7.27874725
Au	 -19.05600769	 -13.84500000	 4.36724835
Au	 -19.05600769	 -13.84500000	 1.45574945
Au	 -19.05600769	 -13.84500000	 -1.45574945
Au	 -19.05600769	 -13.84500000	 -4.36724835
Au	 -19.05600769	 -13.84500000	 -7.27874725
Au	 -19.05600769	 -13.84500000	 -10.19024615
Au	 -19.05600769	 -13.84500000	 -13.10174505
Au	 -19.05600769	 -13.84500000	 -16.01324394
Au	 -19.05600769	 -13.84500000	 -18.92474284
Au	 -19.05600769	 -13.84500000	 -21.83624174
Au	 -19.05600769	 -13.84500000	 -24.74774064
Au	 7.27874725	 -22.40168057	 24.74774064
Au	 7.27874725	 -22.40168057	 21.83624174
Au	 7.27874725	 -22.40168057	 18.92474284
Au	 7.27874725	 -22.40168057	 16.01324394
Au	 7.27874725	 -22.40168057	 13.10174505
Au	 7.27874725	 -22.40168057	 10.19024615
Au	 7.27874725	 -22.40168057	 7.27874725
Au	 7.27874725	 -22.40168057	 4.36724835
Au	 7.27874725	 -22.40168057	 1.45574945
Au	 7.27874725	 -22.40168057	 -1.45574945
Au	 7.27874725	 -22.40168057	 -4.36724835
Au	 7.27874725	 -22.40168057	 -7.27874725
Au	 7.27874725	 -22.40168057	 -10.19024615
Au	 7.27874725	 -22.40168057	 -13.10174505
Au	 7.27874725	 -22.40168057	 -16.01324394
Au	 7.27874725	 -22.40168057	 -18.92474284
Au	 7.27874725	 -22.40168057	 -21.83624174
Au	 7.27874725	 -22.40168057	 -24.74774064
Au	 11.98965142	 22.40168057	 21.83624174
Au	 11.98965142	 22.40168057	 18.92474284
Au	 11.98965142	 22.40168057	 16.01324394
Au	 11.98965142	 22.40168057	 13.10174505
Au	 11.98965142	 22.40168057	 10.19024615
Au	 11.98965142	 22.40168057	 7.27874725
Au	 11.98965142	 22.40168057	 4.36724835
Au	 11.98965142	 22.40168057	 1.45574945
Au	 11.98965142	 22.40168057	 -1.45574945
Au	 11.98965142	 22.40168057	 -4.36724835
Au	 11.98965142	 22.40168057	 -7.27874725
Au	 11.98965142	 22.40168057	 -10.19024615
Au	 11.98965142	 22.40168057	 -13.10174505
Au	 11.98965142	 22.40168057	 -16.01324394
Au	 11.98965142	 22.40168057	 -18.92474284
Au	 11.98965142	 22.40168057	 -21.83624174
Au	 -17.60025824	 18.32533611	 21.83624174
Au	 -17.60025824	 18.32533611	 18.92474284
Au	 -17.60025824	 18.32533611	 16.01324394
Au	 -17.60025824	 18.32533611	 13.10174505
Au	 -17.60025824	 18.32533611	 10.19024615
Au	 -17.60025824	 18.32533611	 7.27874725
Au	 -17.60025824	 18.32533611	 4.36724835
Au	 -17.60025824	 18.32533611	 1.45574945
Au	 -17.60025824	 18.32533611	 -1.45574945
Au	 -17.60025824	 18.32533611	 -4.36724835
Au	 -17.60025824	 18.32533611	 -7.27874725
Au	 -17.60025824	 18.32533611	 -10.19024615
Au	 -17.60025824	 18.32533611	 -13.10174505
Au	 -17.60025824	 18.32533611	 -16.01324394
Au	 -17.60025824	 18.32533611	 -18.92474284
Au	 -17.60025824	 18.32533611	 -21.83624174
Au	 -22.86720923	 -11.07600000	 21.83624174
Au	 -22.86720923	 -11.07600000	 18.92474284
Au	 -22.86720923	 -11.07600000	 16.01324394
Au	 -22.86720923	 -11.07600000	 13.10174505
Au	 -22.86720923	 -11.07600000	 10.19024615
Au	 -22.86720923	 -11.07600000	 7.27874725
Au	 -22.86720923	 -11.07600000	 4.36724835
Au	 -22.86720923	 -11.07600000	 1.45574945
Au	 -22.86720923	 -11.07600000	 -1.45574945
Au	 -22.86720923	 -11.07600000	 -4.36724835
Au	 -22.86720923	 -11.07600000	 -7.27874725
Au	 -22.86720923	 -11.07600000	 -10.19024615
Au	 -22.86720923	 -11.07600000	 -13.10174505
Au	 -22.86720923	 -11.07600000	 -16.01324394
Au	 -22.86720923	 -11.07600000	 -18.92474284
Au	 -22.86720923	 -11.07600000	 -21.83624174
Au	 3.46754571	 -25.17068057	 21.83624174
Au	 3.46754571	 -25.17068057	 18.92474284
Au	 3.46754571	 -25.17068057	 16.01324394
Au	 3.46754571	 -25.17068057	 13.10174505
Au	 3.46754571	 -25.17068057	 10.19024615
Au	 3.46754571	 -25.17068057	 7.27874725
Au	 3.46754571	 -25.17068057	 4.36724835
Au	 3.46754571	 -25.17068057	 1.45574945
Au	 3.46754571	 -25.17068057	 -1.45574945
Au	 3.46754571	 -25.17068057	 -4.36724835
Au	 3.46754571	 -25.17068057	 -7.27874725
Au	 3.46754571	 -25.17068057	 -10.19024615
Au	 3.46754571	 -25.17068057	 -13.10174505
Au	 3.46754571	 -25.17068057	 -16.01324394
Au	 3.46754571	 -25.17068057	 -18.92474284
Au	 3.46754571	 -25.17068057	 -21.83624174
Au	 25.01027033	 -4.48033611	 21.83624174
Au	 25.01027033	 -4.48033611	 18.92474284
Au	 25.01027033	 -4.48033611	 16.01324394
Au	 25.01027033	 -4.48033611	 13.10174505
Au	 25.01027033	 -4.48033611	 10.19024615
Au	 25.01027033	 -4.48033611	 7.27874725
Au	 25.01027033	 -4.48033611	 4.36724835
Au	 25.01027033	 -4.48033611	 1.45574945
Au	 25.01027033	 -4.48033611	 -1.45574945
Au	 25.01027033	 -4.48033611	 -4.36724835
Au	 25.01027033	 -4.48033611	 -7.27874725
Au	 25.01027033	 -4.48033611	 -10.19024615
Au	 25.01027033	 -4.48033611	 -13.10174505
Au	 25.01027033	 -4.48033611	 -16.01324394
Au	 25.01027033	 -4.48033611	 -18.92474284
Au	 25.01027033	 -4.48033611	 -21.83624174
Au	 25.90997297	 0.00000000	 23.29199119
Au	 25.90997297	 0.00000000	 20.38049229
Au	 25.90997297	 0.00000000	 17.46899339
Au	 25.90997297	 0.00000000	 14.55749449
Au	 25.90997297	 0.00000000	 11.64599560
Au	 25.90997297	 0.00000000	 8.73449670
Au	 25.90997297	 0.00000000	 5.82299780
Au	 25.90997297	 0.00000000	 2.91149890
Au	 25.90997297	 0.00000000	 0.00000000
Au	 25.90997297	 0.00000000	 -2.91149890
Au	 25.90997297	 0.00000000	 -5.82299780
Au	 25.90997297	 0.00000000	 -8.73449670
Au	 25.90997297	 0.00000000	 -11.64599560
Au	 25.90997297	 0.00000000	 -14.55749449
Au	 25.90997297	 0.00000000	 -17.46899339
Au	 25.90997297	 0.00000000	 -20.38049229
Au	 25.90997297	 0.00000000	 -23.29199119
Au	 8.00662197	 24.64184863	 23.29199119
Au	 8.00662197	 24.64184863	 20.38049229
Au	 8.00662197	 24.64184863	 17.46899339
Au	 8.00662197	 24.64184863	 14.55749449
Au	 8.00662197	 24.64184863	 11.64599560
Au	 8.00662197	 24.64184863	 8.73449670
Au	 8.00662197	 24.64184863	 5.82299780
Au	 8.00662197	 24.64184863	 2.91149890
Au	 8.00662197	 24.64184863	 0.00000000
Au	 8.00662197	 24.64184863	 -2.91149890
Au	 8.00662197	 24.64184863	 -5.82299780
Au	 8.00662197	 24.64184863	 -8.73449670
Au	 8.00662197	 24.64184863	 -11.64599560
Au	 8.00662197	 24.64184863	 -14.55749449
Au	 8.00662197	 24.64184863	 -17.46899339
Au	 8.00662197	 24.64184863	 -20.38049229
Au	 8.00662197	 24.64184863	 -23.29199119
Au	 -20.96160846	 15.22950000	 23.29199119
Au	 -20.96160846	 15.22950000	 20.38049229
Au	 -20.96160846	 15.22950000	 17.46899339
Au	 -20.96160846	 15.22950000	 14.55749449
Au	 -20.96160846	 15.22950000	 11.64599560
Au	 -20.96160846	 15.22950000	 8.73449670
Au	 -20.96160846	 15.22950000	 5.82299780
Au	 -20.96160846	 15.22950000	 2.91149890
Au	 -20.96160846	 15.22950000	 0.00000000
Au	 -20.96160846	 15.22950000	 -2.91149890
Au	 -20.96160846	 15.22950000	 -5.82299780
Au	 -20.96160846	 15.22950000	 -8.73449670
Au	 -20.96160846	 15.22950000	 -11.64599560
Au	 -20.96160846	 15.22950000	 -14.55749449
Au	 -20.96160846	 15.22950000	 -17.46899339
Au	 -20.96160846	 15.22950000	 -20.38049229
Au	 -20.96160846	 15.22950000	 -23.29199119
Au	 -20.96160846	 -15.22950000	 23.29199119
Au	 -20.96160846	 -15.22950000	 20.38049229
Au	 -20.96160846	 -15.22950000	 17.46899339
Au	 -20.96160846	 -15.22950000	 14.55749449
Au	 -20.96160846	 -15.22950000	 11.64599560
Au	 -20.96160846	 -15.22950000	 8.73449670
Au	 -20.96160846	 -15.22950000	 5.82299780
Au	 -20.96160846	 -15.22950000	 2.91149890
Au	 -20.96160846	 -15.22950000	 0.00000000
Au	 -20.96160846	 -15.22950000	 -2.91149890
Au	 -20.96160846	 -15.22950000	 -5.82299780
Au	 -20.96160846	 -15.22950000	 -8.73449670
Au	 -20.96160846	 -15.22950000	 -11.64599560
Au	 -20.96160846	 -15.22950000	 -14.55749449
Au	 -20.96160846	 -15.22950000	 -17.46899339
Au	 -20.96160846	 -15.22950000	 -20.38049229
Au	 -20.96160846	 -15.22950000	 -23.29199119
Au	 8.00662197	 -24.64184863	 23.29199119
Au	 8.00662197	 -24.64184863	 20.38049229
Au	 8.00662197	 -24.64184863	 17.46899339
Au	 8.00662197	 -24.64184863	 14.55749449
Au	 8.00662197	 -24.64184863	 11.64599560
Au	 8.00662197	 -24.64184863	 8.73449670
Au	 8.00662197	 -24.64184863	 5.82299780
Au	 8.00662197	 -24.64184863	 2.91149890
Au	 8.00662197	 -24.64184863	 0.00000000
Au	 8.00662197	 -24.64184863	 -2.91149890
Au	 8.00662197	 -24.64184863	 -5.82299780
Au	 8.00662197	 -24.64184863	 -8.73449670
Au	 8.00662197	 -24.64184863	 -11.64599560
Au	 8.00662197	 -24.64184863	 -14.55749449
Au	 8.00662197	 -24.64184863	 -17.46899339
Au	 8.00662197	 -24.64184863	 -20.38049229
Au	 8.00662197	 -24.64184863	 -23.29199119
Au	 10.36207406	 24.64184863	 21.83624174
Au	 10.36207406	 24.64184863	 18.92474284
Au	 10.36207406	 24.64184863	 16.01324394
Au	 10.36207406	 24.64184863	 13.10174505
Au	 10.36207406	 24.64184863	 10.19024615
Au	 10.36207406	 24.64184863	 7.27874725
Au	 10.36207406	 24.64184863	 4.36724835
Au	 10.36207406	 24.64184863	 1.45574945
Au	 10.36207406	 24.64184863	 -1.45574945
Au	 10.36207406	 24.64184863	 -4.36724835
Au	 10.36207406	 24.64184863	 -7.27874725
Au	 10.36207406	 24.64184863	 -10.19024615
Au	 10.36207406	 24.64184863	 -13.10174505
Au	 10.36207406	 24.64184863	 -16.01324394
Au	 10.36207406	 24.64184863	 -18.92474284
Au	 10.36207406	 24.64184863	 -21.83624174
Au	 -20.23373373	 17.46966806	 21.83624174
Au	 -20.23373373	 17.46966806	 18.92474284
Au	 -20.23373373	 17.46966806	 16.01324394
Au	 -20.23373373	 17.46966806	 13.10174505
Au	 -20.23373373	 17.46966806	 10.19024615
Au	 -20.23373373	 17.46966806	 7.27874725
Au	 -20.23373373	 17.46966806	 4.36724835
Au	 -20.23373373	 17.46966806	 1.45574945
Au	 -20.23373373	 17.46966806	 -1.45574945
Au	 -20.23373373	 17.46966806	 -4.36724835
Au	 -20.23373373	 17.46966806	 -7.27874725
Au	 -20.23373373	 17.46966806	 -10.19024615
Au	 -20.23373373	 17.46966806	 -13.10174505
Au	 -20.23373373	 17.46966806	 -16.01324394
Au	 -20.23373373	 17.46966806	 -18.92474284
Au	 -20.23373373	 17.46966806	 -21.83624174
Au	 -22.86720923	 -13.84500000	 21.83624174
Au	 -22.86720923	 -13.84500000	 18.92474284
Au	 -22.86720923	 -13.84500000	 16.01324394
Au	 -22.86720923	 -13.84500000	 13.10174505
Au	 -22.86720923	 -13.84500000	 10.19024615
Au	 -22.86720923	 -13.84500000	 7.27874725
Au	 -22.86720923	 -13.84500000	 4.36724835
Au	 -22.86720923	 -13.84500000	 1.45574945
Au	 -22.86720923	 -13.84500000	 -1.45574945
Au	 -22.86720923	 -13.84500000	 -4.36724835
Au	 -22.86720923	 -13.84500000	 -7.27874725
Au	 -22.86720923	 -13.84500000	 -10.19024615
Au	 -22.86720923	 -13.84500000	 -13.10174505
Au	 -22.86720923	 -13.84500000	 -16.01324394
Au	 -22.86720923	 -13.84500000	 -18.92474284
Au	 -22.86720923	 -13.84500000	 -21.83624174
Au	 6.10102120	 -26.02634863	 21.83624174
Au	 6.10102120	 -26.02634863	 18.92474284
Au	 6.10102120	 -26.02634863	 16.01324394
Au	 6.10102120	 -26.02634863	 13.10174505
Au	 6.10102120	 -26.02634863	 10.19024615
Au	 6.10102120	 -26.02634863	 7.27874725
Au	 6.10102120	 -26.02634863	 4.36724835
Au	 6.10102120	 -26.02634863	 1.45574945
Au	 6.10102120	 -26.02634863	 -1.45574945
Au	 6.10102120	 -26.02634863	 -4.36724835
Au	 6.10102120	 -26.02634863	 -7.27874725
Au	 6.10102120	 -26.02634863	 -10.19024615
Au	 6.10102120	 -26.02634863	 -13.10174505
Au	 6.10102120	 -26.02634863	 -16.01324394
Au	 6.10102120	 -26.02634863	 -18.92474284
Au	 6.10102120	 -26.02634863	 -21.83624174
Au	 26.63784770	 -2.24016806	 21.83624174
Au	 26.63784770	 -2.24016806	 18.92474284
Au	 26.63784770	 -2.24016806	 16.01324394
Au	 26.63784770	 -2.24016806	 13.10174505
Au	 26.63784770	 -2.24016806	 10.19024615
Au	 26.63784770	 -2.24016806	 7.27874725
Au	 26.63784770	 -2.24016806	 4.36724835
Au	 26.63784770	 -2.24016806	 1.45574945
Au	 26.63784770	 -2.24016806	 -1.45574945
Au	 26.63784770	 -2.24016806	 -4.36724835
Au	 26.63784770	 -2.24016806	 -7.27874725
Au	 26.63784770	 -2.24016806	 -10.19024615
Au	 26.63784770	 -2.24016806	 -13.10174505
Au	 26.63784770	 -2.24016806	 -16.01324394
Au	 26.63784770	 -2.24016806	 -18.92474284
Au	 26.63784770	 -2.24016806	 -21.83624174
Au	 24.28239561	 2.24016806	 23.29199119
Au	 24.28239561	 2.24016806	 20.38049229
Au	 24.28239561	 2.24016806	 17.46899339
Au	 24.28239561	 2.24016806	 14.55749449
Au	 24.28239561	 2.24016806	 11.64599560
Au	 24.28239561	 2.24016806	 8.73449670
Au	 24.28239561	 2.24016806	 5.82299780
Au	 24.28239561	 2.24016806	 2.91149890
Au	 24.28239561	 2.24016806	 -0.00000000
Au	 24.28239561	 2.24016806	 -2.91149890
Au	 24.28239561	 2.24016806	 -5.82299780
Au	 24.28239561	 2.24016806	 -8.73449670
Au	 24.28239561	 2.24016806	 -11.64599560
Au	 24.28239561	 2.24016806	 -14.55749449
Au	 24.28239561	 2.24016806	 -17.46899339
Au	 24.28239561	 2.24016806	 -20.38049229
Au	 24.28239561	 2.24016806	 -23.29199119
Au	 21.92694352	 2.24016806	 24.74774064
Au	 21.92694352	 2.24016806	 21.83624174
Au	 21.92694352	 2.24016806	 18.92474284
Au	 21.92694352	 2.24016806	 16.01324394
Au	 21.92694352	 2.24016806	 13.10174505
Au	 21.92694352	 2.24016806	 10.19024615
Au	 21.92694352	 2.24016806	 7.27874725
Au	 21.92694352	 2.24016806	 4.36724835
Au	 21.92694352	 2.24016806	 1.45574945
Au	 21.92694352	 2.24016806	 -1.45574945
Au	 21.92694352	 2.24016806	 -4.36724835
Au	 21.92694352	 2.24016806	 -7.27874725
Au	 21.92694352	 2.24016806	 -10.19024615
Au	 21.92694352	 2.24016806	 -13.10174505
Au	 21.92694352	 2.24016806	 -16.01324394
Au	 21.92694352	 2.24016806	 -18.92474284
Au	 21.92694352	 2.24016806	 -21.83624174
Au	 21.92694352	 2.24016806	 -24.74774064
Au	 22.65481824	 4.48033611	 23.29199119
Au	 22.65481824	 4.48033611	 20.38049229
Au	 22.65481824	 4.48033611	 17.46899339
Au	 22.65481824	 4.48033611	 14.55749449
Au	 22.65481824	 4.48033611	 11.64599560
Au	 22.65481824	 4.48033611	 8.73449670
Au	 22.65481824	 4.48033611	 5.82299780
Au	 22.65481824	 4.48033611	 2.91149890
Au	 22.65481824	 4.48033611	 -0.00000000
Au	 22.65481824	 4.48033611	 -2.91149890
Au	 22.65481824	 4.48033611	 -5.82299780
Au	 22.65481824	 4.48033611	 -8.73449670
Au	 22.65481824	 4.48033611	 -11.64599560
Au	 22.65481824	 4.48033611	 -14.55749449
Au	 22.65481824	 4.48033611	 -17.46899339
Au	 22.65481824	 4.48033611	 -20.38049229
Au	 22.65481824	 4.48033611	 -23.29199119
Au	 19.57149143	 2.24016806	 26.20349009
Au	 19.57149143	 2.24016806	 23.29199119
Au	 19.57149143	 2.24016806	 20.38049229
Au	 19.57149143	 2.24016806	 17.46899339
Au	 19.57149143	 2.24016806	 14.55749449
Au	 19.57149143	 2.24016806	 11.64599560
Au	 19.57149143	 2.24016806	 8.73449670
Au	 19.57149143	 2.24016806	 5.82299780
Au	 19.57149143	 2.24016806	 2.91149890
Au	 19.57149143	 2.24016806	 0.00000000
Au	 19.57149143	 2.24016806	 -2.91149890
Au	 19.57149143	 2.24016806	 -5.82299780
Au	 19.57149143	 2.24016806	 -8.73449670
Au	 19.57149143	 2.24016806	 -11.64599560
Au	 19.57149143	 2.24016806	 -14.55749449
Au	 19.57149143	 2.24016806	 -17.46899339
Au	 19.57149143	 2.24016806	 -20.38049229
Au	 19.57149143	 2.24016806	 -23.29199119
Au	 19.57149143	 2.24016806	 -26.20349009
Au	 20.29936616	 4.48033611	 24.74774064
Au	 20.29936616	 4.48033611	 21.83624174
Au	 20.29936616	 4.48033611	 18.92474284
Au	 20.29936616	 4.48033611	 16.01324394
Au	 20.29936616	 4.48033611	 13.10174505
Au	 20.29936616	 4.48033611	 10.19024615
Au	 20.29936616	 4.48033611	 7.27874725
Au	 20.29936616	 4.48033611	 4.36724835
Au	 20.29936616	 4.48033611	 1.45574945
Au	 20.29936616	 4.48033611	 -1.45574945
Au	 20.29936616	 4.48033611	 -4.36724835
Au	 20.29936616	 4.48033611	 -7.27874725
Au	 20.29936616	 4.48033611	 -10.19024615
Au	 20.29936616	 4.48033611	 -13.10174505
Au	 20.29936616	 4.48033611	 -16.01324394
Au	 20.29936616	 4.48033611	 -18.92474284
Au	 20.29936616	 4.48033611	 -21.83624174
Au	 20.29936616	 4.48033611	 -24.74774064
Au	 21.02724088	 6.72050417	 23.29199119
Au	 21.02724088	 6.72050417	 20.38049229
Au	 21.02724088	 6.72050417	 17.46899339
Au	 21.02724088	 6.72050417	 14.55749449
Au	 21.02724088	 6.72050417	 11.64599560
Au	 21.02724088	 6.72050417	 8.73449670
Au	 21.02724088	 6.72050417	 5.82299780
Au	 21.02724088	 6.72050417	 2.91149890
Au	 21.02724088	 6.72050417	 -0.00000000
Au	 21.02724088	 6.72050417	 -2.91149890
Au	 21.02724088	 6.72050417	 -5.82299780
Au	 21.02724088	 6.72050417	 -8.73449670
Au	 21.02724088	 6.72050417	 -11.64599560
Au	 21.02724088	 6.72050417	 -14.55749449
Au	 21.02724088	 6.72050417	 -17.46899339
Au	 21.02724088	 6.72050417	 -20.38049229
Au	 21.02724088	 6.72050417	 -23.29199119
Au	 17.21603934	 2.24016806	 27.65923954
Au	 17.21603934	 2.24016806	 24.74774064
Au	 17.21603934	 2.24016806	 21.83624174
Au	 17.21603934	 2.24016806	 18.92474284
Au	 17.21603934	 2.24016806	 16.01324394
Au	 17.21603934	 2.24016806	 13.10174505
Au	 17.21603934	 2.24016806	 10.19024615
Au	 17.21603934	 2.24016806	 7.27874725
Au	 17.21603934	 2.24016806	 4.36724835
Au	 17.21603934	 2.24016806	 1.45574945
Au	 17.21603934	 2.24016806	 -1.45574945
Au	 17.21603934	 2.24016806	 -4.36724835
Au	 17.21603934	 2.24016806	 -7.27874725
Au	 17.21603934	 2.24016806	 -10.19024615
Au	 17.21603934	 2.24016806	 -13.10174505
Au	 17.21603934	 2.24016806	 -16.01324394
Au	 17.21603934	 2.24016806	 -18.92474284
Au	 17.21603934	 2.24016806	 -21.83624174
Au	 17.21603934	 2.24016806	 -24.74774064
Au	 17.21603934	 2.24016806	 -27.65923954
Au	 17.94391407	 4.48033611	 26.20349009
Au	 17.94391407	 4.48033611	 23.29199119
Au	 17.94391407	 4.48033611	 20.38049229
Au	 17.94391407	 4.48033611	 17.46899339
Au	 17.94391407	 4.48033611	 14.55749449
Au	 17.94391407	 4.48033611	 11.64599560
Au	 17.94391407	 4.48033611	 8.73449670
Au	 17.94391407	 4.48033611	 5.82299780
Au	 17.94391407	 4.48033611	 2.91149890
Au	 17.94391407	 4.48033611	 -0.00000000
Au	 17.94391407	 4.48033611	 -2.91149890
Au	 17.94391407	 4.48033611	 -5.82299780
Au	 17.94391407	 4.48033611	 -8.73449670
Au	 17.94391407	 4.48033611	 -11.64599560
Au	 17.94391407	 4.48033611	 -14.55749449
Au	 17.94391407	 4.48033611	 -17.46899339
Au	 17.94391407	 4.48033611	 -20.38049229
Au	 17.94391407	 4.48033611	 -23.29199119
Au	 17.94391407	 4.48033611	 -26.20349009
Au	 18.67178879	 6.72050417	 24.74774064
Au	 18.67178879	 6.72050417	 21.83624174
Au	 18.67178879	 6.72050417	 18.92474284
Au	 18.67178879	 6.72050417	 16.01324394
Au	 18.67178879	 6.72050417	 13.10174505
Au	 18.67178879	 6.72050417	 10.19024615
Au	 18.67178879	 6.72050417	 7.27874725
Au	 18.67178879	 6.72050417	 4.36724835
Au	 18.67178879	 6.72050417	 1.45574945
Au	 18.67178879	 6.72050417	 -1.45574945
Au	 18.67178879	 6.72050417	 -4.36724835
Au	 18.67178879	 6.72050417	 -7.27874725
Au	 18.67178879	 6.72050417	 -10.19024615
Au	 18.67178879	 6.72050417	 -13.10174505
Au	 18.67178879	 6.72050417	 -16.01324394
Au	 18.67178879	 6.72050417	 -18.92474284
Au	 18.67178879	 6.72050417	 -21.83624174
Au	 18.67178879	 6.72050417	 -24.74774064
Au	 19.39966352	 8.96067223	 23.29199119
Au	 19.39966352	 8.96067223	 20.38049229
Au	 19.39966352	 8.96067223	 17.46899339
Au	 19.39966352	 8.96067223	 14.55749449
Au	 19.39966352	 8.96067223	 11.64599560
Au	 19.39966352	 8.96067223	 8.73449670
Au	 19.39966352	 8.96067223	 5.82299780
Au	 19.39966352	 8.96067223	 2.91149890
Au	 19.39966352	 8.96067223	 -0.00000000
Au	 19.39966352	 8.96067223	 -2.91149890
Au	 19.39966352	 8.96067223	 -5.82299780
Au	 19.39966352	 8.96067223	 -8.73449670
Au	 19.39966352	 8.96067223	 -11.64599560
Au	 19.39966352	 8.96067223	 -14.55749449
Au	 19.39966352	 8.96067223	 -17.46899339
Au	 19.39966352	 8.96067223	 -20.38049229
Au	 19.39966352	 8.96067223	 -23.29199119
Au	 14.86058725	 2.24016806	 29.11498899
Au	 14.86058725	 2.24016806	 26.20349009
Au	 14.86058725	 2.24016806	 23.29199119
Au	 14.86058725	 2.24016806	 20.38049229
Au	 14.86058725	 2.24016806	 17.46899339
Au	 14.86058725	 2.24016806	 14.55749449
Au	 14.86058725	 2.24016806	 11.64599560
Au	 14.86058725	 2.24016806	 8.73449670
Au	 14.86058725	 2.24016806	 5.82299780
Au	 14.86058725	 2.24016806	 2.91149890
Au	 14.86058725	 2.24016806	 0.00000000
Au	 14.86058725	 2.24016806	 -2.91149890
Au	 14.86058725	 2.24016806	 -5.82299780
Au	 14.86058725	 2.24016806	 -8.73449670
Au	 14.86058725	 2.24016806	 -11.64599560
Au	 14.86058725	 2.24016806	 -14.55749449
Au	 14.86058725	 2.24016806	 -17.46899339
Au	 14.86058725	 2.24016806	 -20.38049229
Au	 14.86058725	 2.24016806	 -23.29199119
Au	 14.86058725	 2.24016806	 -26.20349009
Au	 14.86058725	 2.24016806	 -29.11498899
Au	 15.58846198	 4.48033611	 27.65923954
Au	 15.58846198	 4.48033611	 24.74774064
Au	 15.58846198	 4.48033611	 21.83624174
Au	 15.58846198	 4.48033611	 18.92474284
Au	 15.58846198	 4.48033611	 16.01324394
Au	 15.58846198	 4.48033611	 13.10174505
Au	 15.58846198	 4.48033611	 10.19024615
Au	 15.58846198	 4.48033611	 7.27874725
Au	 15.58846198	 4.48033611	 4.36724835
Au	 15.58846198	 4.48033611	 1.45574945
Au	 15.58846198	 4.48033611	 -1.45574945
Au	 15.58846198	 4.48033611	 -4.36724835
Au	 15.58846198	 4.48033611	 -7.27874725
Au	 15.58846198	 4.48033611	 -10.19024615
Au	 15.58846198	 4.48033611	 -13.10174505
Au	 15.58846198	 4.48033611	 -16.01324394
Au	 15.58846198	 4.48033611	 -18.92474284
Au	 15.58846198	 4.48033611	 -21.83624174
Au	 15.58846198	 4.48033611	 -24.74774064
Au	 15.58846198	 4.48033611	 -27.65923954
Au	 16.31633670	 6.72050417	 26.20349009
Au	 16.31633670	 6.72050417	 23.29199119
Au	 16.31633670	 6.72050417	 20.38049229
Au	 16.31633670	 6.72050417	 17.46899339
Au	 16.31633670	 6.72050417	 14.55749449
Au	 16.31633670	 6.72050417	 11.64599560
Au	 16.31633670	 6.72050417	 8.73449670
Au	 16.31633670	 6.72050417	 5.82299780
Au	 16.31633670	 6.72050417	 2.91149890
Au	 16.31633670	 6.72050417	 0.00000000
Au	 16.31633670	 6.72050417	 -2.91149890
Au	 16.31633670	 6.72050417	 -5.82299780
Au	 16.31633670	 6.72050417	 -8.73449670
Au	 16.31633670	 6.72050417	 -11.64599560
Au	 16.31633670	 6.72050417	 -14.55749449
Au	 16.31633670	 6.72050417	 -17.46899339
Au	 16.31633670	 6.72050417	 -20.38049229
Au	 16.31633670	 6.72050417	 -23.29199119
Au	 16.31633670	 6.72050417	 -26.20349009
Au	 17.04421143	 8.96067223	 24.74774064
Au	 17.04421143	 8.96067223	 21.83624174
Au	 17.04421143	 8.96067223	 18.92474284
Au	 17.04421143	 8.96067223	 16.01324394
Au	 17.04421143	 8.96067223	 13.10174505
Au	 17.04421143	 8.96067223	 10.19024615
Au	 17.04421143	 8.96067223	 7.27874725
Au	 17.04421143	 8.96067223	 4.36724835
Au	 17.04421143	 8.96067223	 1.45574945
Au	 17.04421143	 8.96067223	 -1.45574945
Au	 17.04421143	 8.96067223	 -4.36724835
Au	 17.04421143	 8.96067223	 -7.27874725
Au	 17.04421143	 8.96067223	 -10.19024615
Au	 17.04421143	 8.96067223	 -13.10174505
Au	 17.04421143	 8.96067223	 -16.01324394
Au	 17.04421143	 8.96067223	 -18.92474284
Au	 17.04421143	 8.96067223	 -21.83624174
Au	 17.04421143	 8.96067223	 -24.74774064
Au	 17.77208615	 11.20084029	 23.29199119
Au	 17.77208615	 11.20084029	 20.38049229
Au	 17.77208615	 11.20084029	 17.46899339
Au	 17.77208615	 11.20084029	 14.55749449
Au	 17.77208615	 11.20084029	 11.64599560
Au	 17.77208615	 11.20084029	 8.73449670
Au	 17.77208615	 11.20084029	 5.82299780
Au	 17.77208615	 11.20084029	 2.91149890
Au	 17.77208615	 11.20084029	 0.00000000
Au	 17.77208615	 11.20084029	 -2.91149890
Au	 17.77208615	 11.20084029	 -5.82299780
Au	 17.77208615	 11.20084029	 -8.73449670
Au	 17.77208615	 11.20084029	 -11.64599560
Au	 17.77208615	 11.20084029	 -14.55749449
Au	 17.77208615	 11.20084029	 -17.46899339
Au	 17.77208615	 11.20084029	 -20.38049229
Au	 17.77208615	 11.20084029	 -23.29199119
Au	 12.50513517	 2.24016806	 30.57073844
Au	 12.50513517	 2.24016806	 27.65923954
Au	 12.50513517	 2.24016806	 24.74774064
Au	 12.50513517	 2.24016806	 21.83624174
Au	 12.50513517	 2.24016806	 18.92474284
Au	 12.50513517	 2.24016806	 16.01324394
Au	 12.50513517	 2.24016806	 13.10174505
Au	 12.50513517	 2.24016806	 10.19024615
Au	 12.50513517	 2.24016806	 7.27874725
Au	 12.50513517	 2.24016806	 4.36724835
Au	 12.50513517	 2.24016806	 1.45574945
Au	 12.50513517	 2.24016806	 -1.45574945
Au	 12.50513517	 2.24016806	 -4.36724835
Au	 12.50513517	 2.24016806	 -7.27874725
Au	 12.50513517	 2.24016806	 -10.19024615
Au	 12.50513517	 2.24016806	 -13.10174505
Au	 12.50513517	 2.24016806	 -16.01324394
Au	 12.50513517	 2.24016806	 -18.92474284
Au	 12.50513517	 2.24016806	 -21.83624174
Au	 12.50513517	 2.24016806	 -24.74774064
Au	 12.50513517	 2.24016806	 -27.65923954
Au	 12.50513517	 2.24016806	 -30.57073844
Au	 13.23300989	 4.48033611	 29.11498899
Au	 13.23300989	 4.48033611	 26.20349009
Au	 13.23300989	 4.48033611	 23.29199119
Au	 13.23300989	 4.48033611	 20.38049229
Au	 13.23300989	 4.48033611	 17.46899339
Au	 13.23300989	 4.48033611	 14.55749449
Au	 13.23300989	 4.48033611	 11.64599560
Au	 13.23300989	 4.48033611	 8.73449670
Au	 13.23300989	 4.48033611	 5.82299780
Au	 13.23300989	 4.48033611	 2.91149890
Au	 13.23300989	 4.48033611	 0.00000000
Au	 13.23300989	 4.48033611	 -2.91149890
Au	 13.23300989	 4.48033611	 -5.82299780
Au	 13.23300989	 4.48033611	 -8.73449670
Au	 13.23300989	 4.48033611	 -11.64599560
Au	 13.23300989	 4.48033611	 -14.55749449
Au	 13.23300989	 4.48033611	 -17.46899339
Au	 13.23300989	 4.48033611	 -20.38049229
Au	 13.23300989	 4.48033611	 -23.29199119
Au	 13.23300989	 4.48033611	 -26.20349009
Au	 13.23300989	 4.48033611	 -29.11498899
Au	 13.96088462	 6.72050417	 27.65923954
Au	 13.96088462	 6.72050417	 24.74774064
Au	 13.96088462	 6.72050417	 21.83624174
Au	 13.96088462	 6.72050417	 18.92474284
Au	 13.96088462	 6.72050417	 16.01324394
Au	 13.96088462	 6.72050417	 13.10174505
Au	 13.96088462	 6.72050417	 10.19024615
Au	 13.96088462	 6.72050417	 7.27874725
Au	 13.96088462	 6.72050417	 4.36724835
Au	 13.96088462	 6.72050417	 1.45574945
Au	 13.96088462	 6.72050417	 -1.45574945
Au	 13.96088462	 6.72050417	 -4.36724835
Au	 13.96088462	 6.72050417	 -7.27874725
Au	 13.96088462	 6.72050417	 -10.19024615
Au	 13.96088462	 6.72050417	 -13.10174505
Au	 13.96088462	 6.72050417	 -16.01324394
Au	 13.96088462	 6.72050417	 -18.92474284
Au	 13.96088462	 6.72050417	 -21.83624174
Au	 13.96088462	 6.72050417	 -24.74774064
Au	 13.96088462	 6.72050417	 -27.65923954
Au	 14.68875934	 8.96067223	 26.20349009
Au	 14.68875934	 8.96067223	 23.29199119
Au	 14.68875934	 8.96067223	 20.38049229
Au	 14.68875934	 8.96067223	 17.46899339
Au	 14.68875934	 8.96067223	 14.55749449
Au	 14.68875934	 8.96067223	 11.64599560
Au	 14.68875934	 8.96067223	 8.73449670
Au	 14.68875934	 8.96067223	 5.82299780
Au	 14.68875934	 8.96067223	 2.91149890
Au	 14.68875934	 8.96067223	 -0.00000000
Au	 14.68875934	 8.96067223	 -2.91149890
Au	 14.68875934	 8.96067223	 -5.82299780
Au	 14.68875934	 8.96067223	 -8.73449670
Au	 14.68875934	 8.96067223	 -11.64599560
Au	 14.68875934	 8.96067223	 -14.55749449
Au	 14.68875934	 8.96067223	 -17.46899339
Au	 14.68875934	 8.96067223	 -20.38049229
Au	 14.68875934	 8.96067223	 -23.29199119
Au	 14.68875934	 8.96067223	 -26.20349009
Au	 15.41663407	 11.20084029	 24.74774064
Au	 15.41663407	 11.20084029	 21.83624174
Au	 15.41663407	 11.20084029	 18.92474284
Au	 15.41663407	 11.20084029	 16.01324394
Au	 15.41663407	 11.20084029	 13.10174505
Au	 15.41663407	 11.20084029	 10.19024615
Au	 15.41663407	 11.20084029	 7.27874725
Au	 15.41663407	 11.20084029	 4.36724835
Au	 15.41663407	 11.20084029	 1.45574945
Au	 15.41663407	 11.20084029	 -1.45574945
Au	 15.41663407	 11.20084029	 -4.36724835
Au	 15.41663407	 11.20084029	 -7.27874725
Au	 15.41663407	 11.20084029	 -10.19024615
Au	 15.41663407	 11.20084029	 -13.10174505
Au	 15.41663407	 11.20084029	 -16.01324394
Au	 15.41663407	 11.20084029	 -18.92474284
Au	 15.41663407	 11.20084029	 -21.83624174
Au	 15.41663407	 11.20084029	 -24.74774064
Au	 16.14450879	 13.44100834	 23.29199119
Au	 16.14450879	 13.44100834	 20.38049229
Au	 16.14450879	 13.44100834	 17.46899339
Au	 16.14450879	 13.44100834	 14.55749449
Au	 16.14450879	 13.44100834	 11.64599560
Au	 16.14450879	 13.44100834	 8.73449670
Au	 16.14450879	 13.44100834	 5.82299780
Au	 16.14450879	 13.44100834	 2.91149890
Au	 16.14450879	 13.44100834	 -0.00000000
Au	 16.14450879	 13.44100834	 -2.91149890
Au	 16.14450879	 13.44100834	 -5.82299780
Au	 16.14450879	 13.44100834	 -8.73449670
Au	 16.14450879	 13.44100834	 -11.64599560
Au	 16.14450879	 13.44100834	 -14.55749449
Au	 16.14450879	 13.44100834	 -17.46899339
Au	 16.14450879	 13.44100834	 -20.38049229
Au	 16.14450879	 13.44100834	 -23.29199119
Au	 10.14968308	 2.24016806	 32.02648789
Au	 10.14968308	 2.24016806	 29.11498899
Au	 10.14968308	 2.24016806	 26.20349009
Au	 10.14968308	 2.24016806	 23.29199119
Au	 10.14968308	 2.24016806	 20.38049229
Au	 10.14968308	 2.24016806	 17.46899339
Au	 10.14968308	 2.24016806	 14.55749449
Au	 10.14968308	 2.24016806	 11.64599560
Au	 10.14968308	 2.24016806	 8.73449670
Au	 10.14968308	 2.24016806	 5.82299780
Au	 10.14968308	 2.24016806	 2.91149890
Au	 10.14968308	 2.24016806	 0.00000000
Au	 10.14968308	 2.24016806	 -2.91149890
Au	 10.14968308	 2.24016806	 -5.82299780
Au	 10.14968308	 2.24016806	 -8.73449670
Au	 10.14968308	 2.24016806	 -11.64599560
Au	 10.14968308	 2.24016806	 -14.55749449
Au	 10.14968308	 2.24016806	 -17.46899339
Au	 10.14968308	 2.24016806	 -20.38049229
Au	 10.14968308	 2.24016806	 -23.29199119
Au	 10.14968308	 2.24016806	 -26.20349009
Au	 10.14968308	 2.24016806	 -29.11498899
Au	 10.14968308	 2.24016806	 -32.02648789
Au	 10.87755780	 4.48033611	 30.57073844
Au	 10.87755780	 4.48033611	 27.65923954
Au	 10.87755780	 4.48033611	 24.74774064
Au	 10.87755780	 4.48033611	 21.83624174
Au	 10.87755780	 4.48033611	 18.92474284
Au	 10.87755780	 4.48033611	 16.01324394
Au	 10.87755780	 4.48033611	 13.10174505
Au	 10.87755780	 4.48033611	 10.19024615
Au	 10.87755780	 4.48033611	 7.27874725
Au	 10.87755780	 4.48033611	 4.36724835
Au	 10.87755780	 4.48033611	 1.45574945
Au	 10.87755780	 4.48033611	 -1.45574945
Au	 10.87755780	 4.48033611	 -4.36724835
Au	 10.87755780	 4.48033611	 -7.27874725
Au	 10.87755780	 4.48033611	 -10.19024615
Au	 10.87755780	 4.48033611	 -13.10174505
Au	 10.87755780	 4.48033611	 -16.01324394
Au	 10.87755780	 4.48033611	 -18.92474284
Au	 10.87755780	 4.48033611	 -21.83624174
Au	 10.87755780	 4.48033611	 -24.74774064
Au	 10.87755780	 4.48033611	 -27.65923954
Au	 10.87755780	 4.48033611	 -30.57073844
Au	 11.60543253	 6.72050417	 29.11498899
Au	 11.60543253	 6.72050417	 26.20349009
Au	 11.60543253	 6.72050417	 23.29199119
Au	 11.60543253	 6.72050417	 20.38049229
Au	 11.60543253	 6.72050417	 17.46899339
Au	 11.60543253	 6.72050417	 14.55749449
Au	 11.60543253	 6.72050417	 11.64599560
Au	 11.60543253	 6.72050417	 8.73449670
Au	 11.60543253	 6.72050417	 5.82299780
Au	 11.60543253	 6.72050417	 2.91149890
Au	 11.60543253	 6.72050417	 0.00000000
Au	 11.60543253	 6.72050417	 -2.91149890
Au	 11.60543253	 6.72050417	 -5.82299780
Au	 11.60543253	 6.72050417	 -8.73449670
Au	 11.60543253	 6.72050417	 -11.64599560
Au	 11.60543253	 6.72050417	 -14.55749449
Au	 11.60543253	 6.72050417	 -17.46899339
Au	 11.60543253	 6.72050417	 -20.38049229
Au	 11.60543253	 6.72050417	 -23.29199119
Au	 11.60543253	 6.72050417	 -26.20349009
Au	 11.60543253	 6.72050417	 -29.11498899
Au	 12.33330725	 8.96067223	 27.65923954
Au	 12.33330725	 8.96067223	 24.74774064
Au	 12.33330725	 8.96067223	 21.83624174
Au	 12.33330725	 8.96067223	 18.92474284
Au	 12.33330725	 8.96067223	 16.01324394
Au	 12.33330725	 8.96067223	 13.10174505
Au	 12.33330725	 8.96067223	 10.19024615
Au	 12.33330725	 8.96067223	 7.27874725
Au	 12.33330725	 8.96067223	 4.36724835
Au	 12.33330725	 8.96067223	 1.45574945
Au	 12.33330725	 8.96067223	 -1.45574945
Au	 12.33330725	 8.96067223	 -4.36724835
Au	 12.33330725	 8.96067223	 -7.27874725
Au	 12.33330725	 8.96067223	 -10.19024615
Au	 12.33330725	 8.96067223	 -13.10174505
Au	 12.33330725	 8.96067223	 -16.01324394
Au	 12.33330725	 8.96067223	 -18.92474284
Au	 12.33330725	 8.96067223	 -21.83624174
Au	 12.33330725	 8.96067223	 -24.74774064
Au	 12.33330725	 8.96067223	 -27.65923954
Au	 13.06118198	 11.20084029	 26.20349009
Au	 13.06118198	 11.20084029	 23.29199119
Au	 13.06118198	 11.20084029	 20.38049229
Au	 13.06118198	 11.20084029	 17.46899339
Au	 13.06118198	 11.20084029	 14.55749449
Au	 13.06118198	 11.20084029	 11.64599560
Au	 13.06118198	 11.20084029	 8.73449670
Au	 13.06118198	 11.20084029	 5.82299780
Au	 13.06118198	 11.20084029	 2.91149890
Au	 13.06118198	 11.20084029	 -0.00000000
Au	 13.06118198	 11.20084029	 -2.91149890
Au	 13.06118198	 11.20084029	 -5.82299780
Au	 13.06118198	 11.20084029	 -8.73449670
Au	 13.06118198	 11.20084029	 -11.64599560
Au	 13.06118198	 11.20084029	 -14.55749449
Au	 13.06118198	 11.20084029	 -17.46899339
Au	 13.06118198	 11.20084029	 -20.38049229
Au	 13.06118198	 11.20084029	 -23.29199119
Au	 13.06118198	 11.20084029	 -26.20349009
Au	 13.78905670	 13.44100834	 24.74774064
Au	 13.78905670	 13.44100834	 21.83624174
Au	 13.78905670	 13.44100834	 18.92474284
Au	 13.78905670	 13.44100834	 16.01324394
Au	 13.78905670	 13.44100834	 13.10174505
Au	 13.78905670	 13.44100834	 10.19024615
Au	 13.78905670	 13.44100834	 7.27874725
Au	 13.78905670	 13.44100834	 4.36724835
Au	 13.78905670	 13.44100834	 1.45574945
Au	 13.78905670	 13.44100834	 -1.45574945
Au	 13.78905670	 13.44100834	 -4.36724835
Au	 13.78905670	 13.44100834	 -7.27874725
Au	 13.78905670	 13.44100834	 -10.19024615
Au	 13.78905670	 13.44100834	 -13.10174505
Au	 13.78905670	 13.44100834	 -16.01324394
Au	 13.78905670	 13.44100834	 -18.92474284
Au	 13.78905670	 13.44100834	 -21.83624174
Au	 13.78905670	 13.44100834	 -24.74774064
Au	 14.51693143	 15.68117640	 23.29199119
Au	 14.51693143	 15.68117640	 20.38049229
Au	 14.51693143	 15.68117640	 17.46899339
Au	 14.51693143	 15.68117640	 14.55749449
Au	 14.51693143	 15.68117640	 11.64599560
Au	 14.51693143	 15.68117640	 8.73449670
Au	 14.51693143	 15.68117640	 5.82299780
Au	 14.51693143	 15.68117640	 2.91149890
Au	 14.51693143	 15.68117640	 -0.00000000
Au	 14.51693143	 15.68117640	 -2.91149890
Au	 14.51693143	 15.68117640	 -5.82299780
Au	 14.51693143	 15.68117640	 -8.73449670
Au	 14.51693143	 15.68117640	 -11.64599560
Au	 14.51693143	 15.68117640	 -14.55749449
Au	 14.51693143	 15.68117640	 -17.46899339
Au	 14.51693143	 15.68117640	 -20.38049229
Au	 14.51693143	 15.68117640	 -23.29199119
Au	 7.79423099	 2.24016806	 33.48223734
Au	 7.79423099	 2.24016806	 30.57073844
Au	 7.79423099	 2.24016806	 27.65923954
Au	 7.79423099	 2.24016806	 24.74774064
Au	 7.79423099	 2.24016806	 21.83624174
Au	 7.79423099	 2.24016806	 18.92474284
Au	 7.79423099	 2.24016806	 16.01324394
Au	 7.79423099	 2.24016806	 13.10174505
Au	 7.79423099	 2.24016806	 10.19024615
Au	 7.79423099	 2.24016806	 7.27874725
Au	 7.79423099	 2.24016806	 4.36724835
Au	 7.79423099	 2.24016806	 1.45574945
Au	 7.79423099	 2.24016806	 -1.45574945
Au	 7.79423099	 2.24016806	 -4.36724835
Au	 7.79423099	 2.24016806	 -7.27874725
Au	 7.79423099	 2.24016806	 -10.19024615
Au	 7.79423099	 2.24016806	 -13.10174505
Au	 7.79423099	 2.24016806	 -16.01324394
Au	 7.79423099	 2.24016806	 -18.92474284
Au	 7.79423099	 2.24016806	 -21.83624174
Au	 7.79423099	 2.24016806	 -24.74774064
Au	 7.79423099	 2.24016806	 -27.65923954
Au	 7.79423099	 2.24016806	 -30.57073844
Au	 7.79423099	 2.24016806	 -33.48223734
Au	 8.52210571	 4.48033611	 32.02648789
Au	 8.52210571	 4.48033611	 29.11498899
Au	 8.52210571	 4.48033611	 26.20349009
Au	 8.52210571	 4.48033611	 23.29199119
Au	 8.52210571	 4.48033611	 20.38049229
Au	 8.52210571	 4.48033611	 17.46899339
Au	 8.52210571	 4.48033611	 14.55749449
Au	 8.52210571	 4.48033611	 11.64599560
Au	 8.52210571	 4.48033611	 8.73449670
Au	 8.52210571	 4.48033611	 5.82299780
Au	 8.52210571	 4.48033611	 2.91149890
Au	 8.52210571	 4.48033611	 0.00000000
Au	 8.52210571	 4.48033611	 -2.91149890
Au	 8.52210571	 4.48033611	 -5.82299780
Au	 8.52210571	 4.48033611	 -8.73449670
Au	 8.52210571	 4.48033611	 -11.64599560
Au	 8.52210571	 4.48033611	 -14.55749449
Au	 8.52210571	 4.48033611	 -17.46899339
Au	 8.52210571	 4.48033611	 -20.38049229
Au	 8.52210571	 4.48033611	 -23.29199119
Au	 8.52210571	 4.48033611	 -26.20349009
Au	 8.52210571	 4.48033611	 -29.11498899
Au	 8.52210571	 4.48033611	 -32.02648789
Au	 9.24998044	 6.72050417	 30.57073844
Au	 9.24998044	 6.72050417	 27.65923954
Au	 9.24998044	 6.72050417	 24.74774064
Au	 9.24998044	 6.72050417	 21.83624174
Au	 9.24998044	 6.72050417	 18.92474284
Au	 9.24998044	 6.72050417	 16.01324394
Au	 9.24998044	 6.72050417	 13.10174505
Au	 9.24998044	 6.72050417	 10.19024615
Au	 9.24998044	 6.72050417	 7.27874725
Au	 9.24998044	 6.72050417	 4.36724835
Au	 9.24998044	 6.72050417	 1.45574945
Au	 9.24998044	 6.72050417	 -1.45574945
Au	 9.24998044	 6.72050417	 -4.36724835
Au	 9.24998044	 6.72050417	 -7.27874725
Au	 9.24998044	 6.72050417	 -10.19024615
Au	 9.24998044	 6.72050417	 -13.10174505
Au	 9.24998044	 6.72050417	 -16.01324394
Au	 9.24998044	 6.72050417	 -18.92474284
Au	 9.24998044	 6.72050417	 -21.83624174
Au	 9.24998044	 6.72050417	 -24.74774064
Au	 9.24998044	 6.72050417	 -27.65923954
Au	 9.24998044	 6.72050417	 -30.57073844
Au	 9.97785516	 8.96067223	 29.11498899
Au	 9.97785516	 8.96067223	 26.20349009
Au	 9.97785516	 8.96067223	 23.29199119
Au	 9.97785516	 8.96067223	 20.38049229
Au	 9.97785516	 8.96067223	 17.46899339
Au	 9.97785516	 8.96067223	 14.55749449
Au	 9.97785516	 8.96067223	 11.64599560
Au	 9.97785516	 8.96067223	 8.73449670
Au	 9.97785516	 8.96067223	 5.82299780
Au	 9.97785516	 8.96067223	 2.91149890
Au	 9.97785516	 8.96067223	 0.00000000
Au	 9.97785516	 8.96067223	 -2.91149890
Au	 9.97785516	 8.96067223	 -5.82299780
Au	 9.97785516	 8.96067223	 -8.73449670
Au	 9.97785516	 8.96067223	 -11.64599560
Au	 9.97785516	 8.96067223	 -14.55749449
Au	 9.97785516	 8.96067223	 -17.46899339
Au	 9.97785516	 8.96067223	 -20.38049229
Au	 9.97785516	 8.96067223	 -23.29199119
Au	 9.97785516	 8.96067223	 -26.20349009
Au	 9.97785516	 8.96067223	 -29.11498899
Au	 10.70572989	 11.20084029	 27.65923954
Au	 10.70572989	 11.20084029	 24.74774064
Au	 10.70572989	 11.20084029	 21.83624174
Au	 10.70572989	 11.20084029	 18.92474284
Au	 10.70572989	 11.20084029	 16.01324394
Au	 10.70572989	 11.20084029	 13.10174505
Au	 10.70572989	 11.20084029	 10.19024615
Au	 10.70572989	 11.20084029	 7.27874725
Au	 10.70572989	 11.20084029	 4.36724835
Au	 10.70572989	 11.20084029	 1.45574945
Au	 10.70572989	 11.20084029	 -1.45574945
Au	 10.70572989	 11.20084029	 -4.36724835
Au	 10.70572989	 11.20084029	 -7.27874725
Au	 10.70572989	 11.20084029	 -10.19024615
Au	 10.70572989	 11.20084029	 -13.10174505
Au	 10.70572989	 11.20084029	 -16.01324394
Au	 10.70572989	 11.20084029	 -18.92474284
Au	 10.70572989	 11.20084029	 -21.83624174
Au	 10.70572989	 11.20084029	 -24.74774064
Au	 10.70572989	 11.20084029	 -27.65923954
Au	 11.43360461	 13.44100834	 26.20349009
Au	 11.43360461	 13.44100834	 23.29199119
Au	 11.43360461	 13.44100834	 20.38049229
Au	 11.43360461	 13.44100834	 17.46899339
Au	 11.43360461	 13.44100834	 14.55749449
Au	 11.43360461	 13.44100834	 11.64599560
Au	 11.43360461	 13.44100834	 8.73449670
Au	 11.43360461	 13.44100834	 5.82299780
Au	 11.43360461	 13.44100834	 2.91149890
Au	 11.43360461	 13.44100834	 0.00000000
Au	 11.43360461	 13.44100834	 -2.91149890
Au	 11.43360461	 13.44100834	 -5.82299780
Au	 11.43360461	 13.44100834	 -8.73449670
Au	 11.43360461	 13.44100834	 -11.64599560
Au	 11.43360461	 13.44100834	 -14.55749449
Au	 11.43360461	 13.44100834	 -17.46899339
Au	 11.43360461	 13.44100834	 -20.38049229
Au	 11.43360461	 13.44100834	 -23.29199119
Au	 11.43360461	 13.44100834	 -26.20349009
Au	 12.16147934	 15.68117640	 24.74774064
Au	 12.16147934	 15.68117640	 21.83624174
Au	 12.16147934	 15.68117640	 18.92474284
Au	 12.16147934	 15.68117640	 16.01324394
Au	 12.16147934	 15.68117640	 13.10174505
Au	 12.16147934	 15.68117640	 10.19024615
Au	 12.16147934	 15.68117640	 7.27874725
Au	 12.16147934	 15.68117640	 4.36724835
Au	 12.16147934	 15.68117640	 1.45574945
Au	 12.16147934	 15.68117640	 -1.45574945
Au	 12.16147934	 15.68117640	 -4.36724835
Au	 12.16147934	 15.68117640	 -7.27874725
Au	 12.16147934	 15.68117640	 -10.19024615
Au	 12.16147934	 15.68117640	 -13.10174505
Au	 12.16147934	 15.68117640	 -16.01324394
Au	 12.16147934	 15.68117640	 -18.92474284
Au	 12.16147934	 15.68117640	 -21.83624174
Au	 12.16147934	 15.68117640	 -24.74774064
Au	 12.88935406	 17.92134446	 23.29199119
Au	 12.88935406	 17.92134446	 20.38049229
Au	 12.88935406	 17.92134446	 17.46899339
Au	 12.88935406	 17.92134446	 14.55749449
Au	 12.88935406	 17.92134446	 11.64599560
Au	 12.88935406	 17.92134446	 8.73449670
Au	 12.88935406	 17.92134446	 5.82299780
Au	 12.88935406	 17.92134446	 2.91149890
Au	 12.88935406	 17.92134446	 -0.00000000
Au	 12.88935406	 17.92134446	 -2.91149890
Au	 12.88935406	 17.92134446	 -5.82299780
Au	 12.88935406	 17.92134446	 -8.73449670
Au	 12.88935406	 17.92134446	 -11.64599560
Au	 12.88935406	 17.92134446	 -14.55749449
Au	 12.88935406	 17.92134446	 -17.46899339
Au	 12.88935406	 17.92134446	 -20.38049229
Au	 12.88935406	 17.92134446	 -23.29199119
Au	 5.43877890	 2.24016806	 34.93798679
Au	 5.43877890	 2.24016806	 32.02648789
Au	 5.43877890	 2.24016806	 29.11498899
Au	 5.43877890	 2.24016806	 26.20349009
Au	 5.43877890	 2.24016806	 23.29199119
Au	 5.43877890	 2.24016806	 20.38049229
Au	 5.43877890	 2.24016806	 17.46899339
Au	 5.43877890	 2.24016806	 14.55749449
Au	 5.43877890	 2.24016806	 11.64599560
Au	 5.43877890	 2.24016806	 8.73449670
Au	 5.43877890	 2.24016806	 5.82299780
Au	 5.43877890	 2.24016806	 2.91149890
Au	 5.43877890	 2.24016806	 0.00000000
Au	 5.43877890	 2.24016806	 -2.91149890
Au	 5.43877890	 2.24016806	 -5.82299780
Au	 5.43877890	 2.24016806	 -8.73449670
Au	 5.43877890	 2.24016806	 -11.64599560
Au	 5.43877890	 2.24016806	 -14.55749449
Au	 5.43877890	 2.24016806	 -17.46899339
Au	 5.43877890	 2.24016806	 -20.38049229
Au	 5.43877890	 2.24016806	 -23.29199119
Au	 5.43877890	 2.24016806	 -26.20349009
Au	 5.43877890	 2.24016806	 -29.11498899
Au	 5.43877890	 2.24016806	 -32.02648789
Au	 5.43877890	 2.24016806	 -34.93798679
Au	 6.16665363	 4.48033611	 33.48223734
Au	 6.16665363	 4.48033611	 30.57073844
Au	 6.16665363	 4.48033611	 27.65923954
Au	 6.16665363	 4.48033611	 24.74774064
Au	 6.16665363	 4.48033611	 21.83624174
Au	 6.16665363	 4.48033611	 18.92474284
Au	 6.16665363	 4.48033611	 16.01324394
Au	 6.16665363	 4.48033611	 13.10174505
Au	 6.16665363	 4.48033611	 10.19024615
Au	 6.16665363	 4.48033611	 7.27874725
Au	 6.16665363	 4.48033611	 4.36724835
Au	 6.16665363	 4.48033611	 1.45574945
Au	 6.16665363	 4.48033611	 -1.45574945
Au	 6.16665363	 4.48033611	 -4.36724835
Au	 6.16665363	 4.48033611	 -7.27874725
Au	 6.16665363	 4.48033611	 -10.19024615
Au	 6.16665363	 4.48033611	 -13.10174505
Au	 6.16665363	 4.48033611	 -16.01324394
Au	 6.16665363	 4.48033611	 -18.92474284
Au	 6.16665363	 4.48033611	 -21.83624174
Au	 6.16665363	 4.48033611	 -24.74774064
Au	 6.16665363	 4.48033611	 -27.65923954
Au	 6.16665363	 4.48033611	 -30.57073844
Au	 6.16665363	 4.48033611	 -33.48223734
Au	 6.89452835	 6.72050417	 32.02648789
Au	 6.89452835	 6.72050417	 29.11498899
Au	 6.89452835	 6.72050417	 26.20349009
Au	 6.89452835	 6.72050417	 23.29199119
Au	 6.89452835	 6.72050417	 20.38049229
Au	 6.89452835	 6.72050417	 17.46899339
Au	 6.89452835	 6.72050417	 14.55749449
Au	 6.89452835	 6.72050417	 11.64599560
Au	 6.89452835	 6.72050417	 8.73449670
Au	 6.89452835	 6.72050417	 5.82299780
Au	 6.89452835	 6.72050417	 2.91149890
Au	 6.89452835	 6.72050417	 0.00000000
Au	 6.89452835	 6.72050417	 -2.91149890
Au	 6.89452835	 6.72050417	 -5.82299780
Au	 6.89452835	 6.72050417	 -8.73449670
Au	 6.89452835	 6.72050417	 -11.64599560
Au	 6.89452835	 6.72050417	 -14.55749449
Au	 6.89452835	 6.72050417	 -17.46899339
Au	 6.89452835	 6.72050417	 -20.38049229
Au	 6.89452835	 6.72050417	 -23.29199119
Au	 6.89452835	 6.72050417	 -26.20349009
Au	 6.89452835	 6.72050417	 -29.11498899
Au	 6.89452835	 6.72050417	 -32.02648789
Au	 7.62240308	 8.96067223	 30.57073844
Au	 7.62240308	 8.96067223	 27.65923954
Au	 7.62240308	 8.96067223	 24.74774064
Au	 7.62240308	 8.96067223	 21.83624174
Au	 7.62240308	 8.96067223	 18.92474284
Au	 7.62240308	 8.96067223	 16.01324394
Au	 7.62240308	 8.96067223	 13.10174505
Au	 7.62240308	 8.96067223	 10.19024615
Au	 7.62240308	 8.96067223	 7.27874725
Au	 7.62240308	 8.96067223	 4.36724835
Au	 7.62240308	 8.96067223	 1.45574945
Au	 7.62240308	 8.96067223	 -1.45574945
Au	 7.62240308	 8.96067223	 -4.36724835
Au	 7.62240308	 8.96067223	 -7.27874725
Au	 7.62240308	 8.96067223	 -10.19024615
Au	 7.62240308	 8.96067223	 -13.10174505
Au	 7.62240308	 8.96067223	 -16.01324394
Au	 7.62240308	 8.96067223	 -18.92474284
Au	 7.62240308	 8.96067223	 -21.83624174
Au	 7.62240308	 8.96067223	 -24.74774064
Au	 7.62240308	 8.96067223	 -27.65923954
Au	 7.62240308	 8.96067223	 -30.57073844
Au	 8.35027780	 11.20084029	 29.11498899
Au	 8.35027780	 11.20084029	 26.20349009
Au	 8.35027780	 11.20084029	 23.29199119
Au	 8.35027780	 11.20084029	 20.38049229
Au	 8.35027780	 11.20084029	 17.46899339
Au	 8.35027780	 11.20084029	 14.55749449
Au	 8.35027780	 11.20084029	 11.64599560
Au	 8.35027780	 11.20084029	 8.73449670
Au	 8.35027780	 11.20084029	 5.82299780
Au	 8.35027780	 11.20084029	 2.91149890
Au	 8.35027780	 11.20084029	 0.00000000
Au	 8.35027780	 11.20084029	 -2.91149890
Au	 8.35027780	 11.20084029	 -5.82299780
Au	 8.35027780	 11.20084029	 -8.73449670
Au	 8.35027780	 11.20084029	 -11.64599560
Au	 8.35027780	 11.20084029	 -14.55749449
Au	 8.35027780	 11.20084029	 -17.46899339
Au	 8.35027780	 11.20084029	 -20.38049229
Au	 8.35027780	 11.20084029	 -23.29199119
Au	 8.35027780	 11.20084029	 -26.20349009
Au	 8.35027780	 11.20084029	 -29.11498899
Au	 9.07815253	 13.44100834	 27.65923954
Au	 9.07815253	 13.44100834	 24.74774064
Au	 9.07815253	 13.44100834	 21.83624174
Au	 9.07815253	 13.44100834	 18.92474284
Au	 9.07815253	 13.44100834	 16.01324394
Au	 9.07815253	 13.44100834	 13.10174505
Au	 9.07815253	 13.44100834	 10.19024615
Au	 9.07815253	 13.44100834	 7.27874725
Au	 9.07815253	 13.44100834	 4.36724835
Au	 9.07815253	 13.44100834	 1.45574945
Au	 9.07815253	 13.44100834	 -1.45574945
Au	 9.07815253	 13.44100834	 -4.36724835
Au	 9.07815253	 13.44100834	 -7.27874725
Au	 9.07815253	 13.44100834	 -10.19024615
Au	 9.07815253	 13.44100834	 -13.10174505
Au	 9.07815253	 13.44100834	 -16.01324394
Au	 9.07815253	 13.44100834	 -18.92474284
Au	 9.07815253	 13.44100834	 -21.83624174
Au	 9.07815253	 13.44100834	 -24.74774064
Au	 9.07815253	 13.44100834	 -27.65923954
Au	 9.80602725	 15.68117640	 26.20349009
Au	 9.80602725	 15.68117640	 23.29199119
Au	 9.80602725	 15.68117640	 20.38049229
Au	 9.80602725	 15.68117640	 17.46899339
Au	 9.80602725	 15.68117640	 14.55749449
Au	 9.80602725	 15.68117640	 11.64599560
Au	 9.80602725	 15.68117640	 8.73449670
Au	 9.80602725	 15.68117640	 5.82299780
Au	 9.80602725	 15.68117640	 2.91149890
Au	 9.80602725	 15.68117640	 0.00000000
Au	 9.80602725	 15.68117640	 -2.91149890
Au	 9.80602725	 15.68117640	 -5.82299780
Au	 9.80602725	 15.68117640	 -8.73449670
Au	 9.80602725	 15.68117640	 -11.64599560
Au	 9.80602725	 15.68117640	 -14.55749449
Au	 9.80602725	 15.68117640	 -17.46899339
Au	 9.80602725	 15.68117640	 -20.38049229
Au	 9.80602725	 15.68117640	 -23.29199119
Au	 9.80602725	 15.68117640	 -26.20349009
Au	 10.53390197	 17.92134446	 24.74774064
Au	 10.53390197	 17.92134446	 21.83624174
Au	 10.53390197	 17.92134446	 18.92474284
Au	 10.53390197	 17.92134446	 16.01324394
Au	 10.53390197	 17.92134446	 13.10174505
Au	 10.53390197	 17.92134446	 10.19024615
Au	 10.53390197	 17.92134446	 7.27874725
Au	 10.53390197	 17.92134446	 4.36724835
Au	 10.53390197	 17.92134446	 1.45574945
Au	 10.53390197	 17.92134446	 -1.45574945
Au	 10.53390197	 17.92134446	 -4.36724835
Au	 10.53390197	 17.92134446	 -7.27874725
Au	 10.53390197	 17.92134446	 -10.19024615
Au	 10.53390197	 17.92134446	 -13.10174505
Au	 10.53390197	 17.92134446	 -16.01324394
Au	 10.53390197	 17.92134446	 -18.92474284
Au	 10.53390197	 17.92134446	 -21.83624174
Au	 10.53390197	 17.92134446	 -24.74774064
Au	 11.26177670	 20.16151252	 23.29199119
Au	 11.26177670	 20.16151252	 20.38049229
Au	 11.26177670	 20.16151252	 17.46899339
Au	 11.26177670	 20.16151252	 14.55749449
Au	 11.26177670	 20.16151252	 11.64599560
Au	 11.26177670	 20.16151252	 8.73449670
Au	 11.26177670	 20.16151252	 5.82299780
Au	 11.26177670	 20.16151252	 2.91149890
Au	 11.26177670	 20.16151252	 0.00000000
Au	 11.26177670	 20.16151252	 -2.91149890
Au	 11.26177670	 20.16151252	 -5.82299780
Au	 11.26177670	 20.16151252	 -8.73449670
Au	 11.26177670	 20.16151252	 -11.64599560
Au	 11.26177670	 20.16151252	 -14.55749449
Au	 11.26177670	 20.16151252	 -17.46899339
Au	 11.26177670	 20.16151252	 -20.38049229
Au	 11.26177670	 20.16151252	 -23.29199119
Au	 3.08332681	 2.24016806	 36.39373624
Au	 3.08332681	 2.24016806	 33.48223734
Au	 3.08332681	 2.24016806	 30.57073844
Au	 3.08332681	 2.24016806	 27.65923954
Au	 3.08332681	 2.24016806	 24.74774064
Au	 3.08332681	 2.24016806	 21.83624174
Au	 3.08332681	 2.24016806	 18.92474284
Au	 3.08332681	 2.24016806	 16.01324394
Au	 3.08332681	 2.24016806	 13.10174505
Au	 3.08332681	 2.24016806	 10.19024615
Au	 3.08332681	 2.24016806	 7.27874725
Au	 3.08332681	 2.24016806	 4.36724835
Au	 3.08332681	 2.24016806	 1.45574945
Au	 3.08332681	 2.24016806	 -1.45574945
Au	 3.08332681	 2.24016806	 -4.36724835
Au	 3.08332681	 2.24016806	 -7.27874725
Au	 3.08332681	 2.24016806	 -10.19024615
Au	 3.08332681	 2.24016806	 -13.10174505
Au	 3.08332681	 2.24016806	 -16.01324394
Au	 3.08332681	 2.24016806	 -18.92474284
Au	 3.08332681	 2.24016806	 -21.83624174
Au	 3.08332681	 2.24016806	 -24.74774064
Au	 3.08332681	 2.24016806	 -27.65923954
Au	 3.08332681	 2.24016806	 -30.57073844
Au	 3.08332681	 2.24016806	 -33.48223734
Au	 3.08332681	 2.24016806	 -36.39373624
Au	 3.81120154	 4.48033611	 34.93798679
Au	 3.81120154	 4.48033611	 32.02648789
Au	 3.81120154	 4.48033611	 29.11498899
Au	 3.81120154	 4.48033611	 26.20349009
Au	 3.81120154	 4.48033611	 23.29199119
Au	 3.81120154	 4.48033611	 20.38049229
Au	 3.81120154	 4.48033611	 17.46899339
Au	 3.81120154	 4.48033611	 14.55749449
Au	 3.81120154	 4.48033611	 11.64599560
Au	 3.81120154	 4.48033611	 8.73449670
Au	 3.81120154	 4.48033611	 5.82299780
Au	 3.81120154	 4.48033611	 2.91149890
Au	 3.81120154	 4.48033611	 0.00000000
Au	 3.81120154	 4.48033611	 -2.91149890
Au	 3.81120154	 4.48033611	 -5.82299780
Au	 3.81120154	 4.48033611	 -8.73449670
Au	 3.81120154	 4.48033611	 -11.64599560
Au	 3.81120154	 4.48033611	 -14.55749449
Au	 3.81120154	 4.48033611	 -17.46899339
Au	 3.81120154	 4.48033611	 -20.38049229
Au	 3.81120154	 4.48033611	 -23.29199119
Au	 3.81120154	 4.48033611	 -26.20349009
Au	 3.81120154	 4.48033611	 -29.11498899
Au	 3.81120154	 4.48033611	 -32.02648789
Au	 3.81120154	 4.48033611	 -34.93798679
Au	 4.53907626	 6.72050417	 33.48223734
Au	 4.53907626	 6.72050417	 30.57073844
Au	 4.53907626	 6.72050417	 27.65923954
Au	 4.53907626	 6.72050417	 24.74774064
Au	 4.53907626	 6.72050417	 21.83624174
Au	 4.53907626	 6.72050417	 18.92474284
Au	 4.53907626	 6.72050417	 16.01324394
Au	 4.53907626	 6.72050417	 13.10174505
Au	 4.53907626	 6.72050417	 10.19024615
Au	 4.53907626	 6.72050417	 7.27874725
Au	 4.53907626	 6.72050417	 4.36724835
Au	 4.53907626	 6.72050417	 1.45574945
Au	 4.53907626	 6.72050417	 -1.45574945
Au	 4.53907626	 6.72050417	 -4.36724835
Au	 4.53907626	 6.72050417	 -7.27874725
Au	 4.53907626	 6.72050417	 -10.19024615
Au	 4.53907626	 6.72050417	 -13.10174505
Au	 4.53907626	 6.72050417	 -16.01324394
Au	 4.53907626	 6.72050417	 -18.92474284
Au	 4.53907626	 6.72050417	 -21.83624174
Au	 4.53907626	 6.72050417	 -24.74774064
Au	 4.53907626	 6.72050417	 -27.65923954
Au	 4.53907626	 6.72050417	 -30.57073844
Au	 4.53907626	 6.72050417	 -33.48223734
Au	 5.26695099	 8.96067223	 32.02648789
Au	 5.26695099	 8.96067223	 29.11498899
Au	 5.26695099	 8.96067223	 26.20349009
Au	 5.26695099	 8.96067223	 23.29199119
Au	 5.26695099	 8.96067223	 20.38049229
Au	 5.26695099	 8.96067223	 17.46899339
Au	 5.26695099	 8.96067223	 14.55749449
Au	 5.26695099	 8.96067223	 11.64599560
Au	 5.26695099	 8.96067223	 8.73449670
Au	 5.26695099	 8.96067223	 5.82299780
Au	 5.26695099	 8.96067223	 2.91149890
Au	 5.26695099	 8.96067223	 0.00000000
Au	 5.26695099	 8.96067223	 -2.91149890
Au	 5.26695099	 8.96067223	 -5.82299780
Au	 5.26695099	 8.96067223	 -8.73449670
Au	 5.26695099	 8.96067223	 -11.64599560
Au	 5.26695099	 8.96067223	 -14.55749449
Au	 5.26695099	 8.96067223	 -17.46899339
Au	 5.26695099	 8.96067223	 -20.38049229
Au	 5.26695099	 8.96067223	 -23.29199119
Au	 5.26695099	 8.96067223	 -26.20349009
Au	 5.26695099	 8.96067223	 -29.11498899
Au	 5.26695099	 8.96067223	 -32.02648789
Au	 5.99482571	 11.20084029	 30.57073844
Au	 5.99482571	 11.20084029	 27.65923954
Au	 5.99482571	 11.20084029	 24.74774064
Au	 5.99482571	 11.20084029	 21.83624174
Au	 5.99482571	 11.20084029	 18.92474284
Au	 5.99482571	 11.20084029	 16.01324394
Au	 5.99482571	 11.20084029	 13.10174505
Au	 5.99482571	 11.20084029	 10.19024615
Au	 5.99482571	 11.20084029	 7.27874725
Au	 5.99482571	 11.20084029	 4.36724835
Au	 5.99482571	 11.20084029	 1.45574945
Au	 5.99482571	 11.20084029	 -1.45574945
Au	 5.99482571	 11.20084029	 -4.36724835
Au	 5.99482571	 11.20084029	 -7.27874725
Au	 5.99482571	 11.20084029	 -10.19024615
Au	 5.99482571	 11.20084029	 -13.10174505
Au	 5.99482571	 11.20084029	 -16.01324394
Au	 5.99482571	 11.20084029	 -18.92474284
Au	 5.99482571	 11.20084029	 -21.83624174
Au	 5.99482571	 11.20084029	 -24.74774064
Au	 5.99482571	 11.20084029	 -27.65923954
Au	 5.99482571	 11.20084029	 -30.57073844
Au	 6.72270044	 13.44100834	 29.11498899
Au	 6.72270044	 13.44100834	 26.20349009
Au	 6.72270044	 13.44100834	 23.29199119
Au	 6.72270044	 13.44100834	 20.38049229
Au	 6.72270044	 13.44100834	 17.46899339
Au	 6.72270044	 13.44100834	 14.55749449
Au	 6.72270044	 13.44100834	 11.64599560
Au	 6.72270044	 13.44100834	 8.73449670
Au	 6.72270044	 13.44100834	 5.82299780
Au	 6.72270044	 13.44100834	 2.91149890
Au	 6.72270044	 13.44100834	 0.00000000
Au	 6.72270044	 13.44100834	 -2.91149890
Au	 6.72270044	 13.44100834	 -5.82299780
Au	 6.72270044	 13.44100834	 -8.73449670
Au	 6.72270044	 13.44100834	 -11.64599560
Au	 6.72270044	 13.44100834	 -14.55749449
Au	 6.72270044	 13.44100834	 -17.46899339
Au	 6.72270044	 13.44100834	 -20.38049229
Au	 6.72270044	 13.44100834	 -23.29199119
Au	 6.72270044	 13.44100834	 -26.20349009
Au	 6.72270044	 13.44100834	 -29.11498899
Au	 7.45057516	 15.68117640	 27.65923954
Au	 7.45057516	 15.68117640	 24.74774064
Au	 7.45057516	 15.68117640	 21.83624174
Au	 7.45057516	 15.68117640	 18.92474284
Au	 7.45057516	 15.68117640	 16.01324394
Au	 7.45057516	 15.68117640	 13.10174505
Au	 7.45057516	 15.68117640	 10.19024615
Au	 7.45057516	 15.68117640	 7.27874725
Au	 7.45057516	 15.68117640	 4.36724835
Au	 7.45057516	 15.68117640	 1.45574945
Au	 7.45057516	 15.68117640	 -1.45574945
Au	 7.45057516	 15.68117640	 -4.36724835
Au	 7.45057516	 15.68117640	 -7.27874725
Au	 7.45057516	 15.68117640	 -10.19024615
Au	 7.45057516	 15.68117640	 -13.10174505
Au	 7.45057516	 15.68117640	 -16.01324394
Au	 7.45057516	 15.68117640	 -18.92474284
Au	 7.45057516	 15.68117640	 -21.83624174
Au	 7.45057516	 15.68117640	 -24.74774064
Au	 7.45057516	 15.68117640	 -27.65923954
Au	 8.17844989	 17.92134446	 26.20349009
Au	 8.17844989	 17.92134446	 23.29199119
Au	 8.17844989	 17.92134446	 20.38049229
Au	 8.17844989	 17.92134446	 17.46899339
Au	 8.17844989	 17.92134446	 14.55749449
Au	 8.17844989	 17.92134446	 11.64599560
Au	 8.17844989	 17.92134446	 8.73449670
Au	 8.17844989	 17.92134446	 5.82299780
Au	 8.17844989	 17.92134446	 2.91149890
Au	 8.17844989	 17.92134446	 -0.00000000
Au	 8.17844989	 17.92134446	 -2.91149890
Au	 8.17844989	 17.92134446	 -5.82299780
Au	 8.17844989	 17.92134446	 -8.73449670
Au	 8.17844989	 17.92134446	 -11.64599560
Au	 8.17844989	 17.92134446	 -14.55749449
Au	 8.17844989	 17.92134446	 -17.46899339
Au	 8.17844989	 17.92134446	 -20.38049229
Au	 8.17844989	 17.92134446	 -23.29199119
Au	 8.17844989	 17.92134446	 -26.20349009
Au	 8.90632461	 20.16151252	 24.74774064
Au	 8.90632461	 20.16151252	 21.83624174
Au	 8.90632461	 20.16151252	 18.92474284
Au	 8.90632461	 20.16151252	 16.01324394
Au	 8.90632461	 20.16151252	 13.10174505
Au	 8.90632461	 20.16151252	 10.19024615
Au	 8.90632461	 20.16151252	 7.27874725
Au	 8.90632461	 20.16151252	 4.36724835
Au	 8.90632461	 20.16151252	 1.45574945
Au	 8.90632461	 20.16151252	 -1.45574945
Au	 8.90632461	 20.16151252	 -4.36724835
Au	 8.90632461	 20.16151252	 -7.27874725
Au	 8.90632461	 20.16151252	 -10.19024615
Au	 8.90632461	 20.16151252	 -13.10174505
Au	 8.90632461	 20.16151252	 -16.01324394
Au	 8.90632461	 20.16151252	 -18.92474284
Au	 8.90632461	 20.16151252	 -21.83624174
Au	 8.90632461	 20.16151252	 -24.74774064
Au	 9.63419934	 22.40168057	 23.29199119
Au	 9.63419934	 22.40168057	 20.38049229
Au	 9.63419934	 22.40168057	 17.46899339
Au	 9.63419934	 22.40168057	 14.55749449
Au	 9.63419934	 22.40168057	 11.64599560
Au	 9.63419934	 22.40168057	 8.73449670
Au	 9.63419934	 22.40168057	 5.82299780
Au	 9.63419934	 22.40168057	 2.91149890
Au	 9.63419934	 22.40168057	 -0.00000000
Au	 9.63419934	 22.40168057	 -2.91149890
Au	 9.63419934	 22.40168057	 -5.82299780
Au	 9.63419934	 22.40168057	 -8.73449670
Au	 9.63419934	 22.40168057	 -11.64599560
Au	 9.63419934	 22.40168057	 -14.55749449
Au	 9.63419934	 22.40168057	 -17.46899339
Au	 9.63419934	 22.40168057	 -20.38049229
Au	 9.63419934	 22.40168057	 -23.29199119
Au	 5.37314648	 23.78618057	 23.29199119
Au	 5.37314648	 23.78618057	 20.38049229
Au	 5.37314648	 23.78618057	 17.46899339
Au	 5.37314648	 23.78618057	 14.55749449
Au	 5.37314648	 23.78618057	 11.64599560
Au	 5.37314648	 23.78618057	 8.73449670
Au	 5.37314648	 23.78618057	 5.82299780
Au	 5.37314648	 23.78618057	 2.91149890
Au	 5.37314648	 23.78618057	 -0.00000000
Au	 5.37314648	 23.78618057	 -2.91149890
Au	 5.37314648	 23.78618057	 -5.82299780
Au	 5.37314648	 23.78618057	 -8.73449670
Au	 5.37314648	 23.78618057	 -11.64599560
Au	 5.37314648	 23.78618057	 -14.55749449
Au	 5.37314648	 23.78618057	 -17.46899339
Au	 5.37314648	 23.78618057	 -20.38049229
Au	 5.37314648	 23.78618057	 -23.29199119
Au	 4.64527175	 21.54601252	 24.74774064
Au	 4.64527175	 21.54601252	 21.83624174
Au	 4.64527175	 21.54601252	 18.92474284
Au	 4.64527175	 21.54601252	 16.01324394
Au	 4.64527175	 21.54601252	 13.10174505
Au	 4.64527175	 21.54601252	 10.19024615
Au	 4.64527175	 21.54601252	 7.27874725
Au	 4.64527175	 21.54601252	 4.36724835
Au	 4.64527175	 21.54601252	 1.45574945
Au	 4.64527175	 21.54601252	 -1.45574945
Au	 4.64527175	 21.54601252	 -4.36724835
Au	 4.64527175	 21.54601252	 -7.27874725
Au	 4.64527175	 21.54601252	 -10.19024615
Au	 4.64527175	 21.54601252	 -13.10174505
Au	 4.64527175	 21.54601252	 -16.01324394
Au	 4.64527175	 21.54601252	 -18.92474284
Au	 4.64527175	 21.54601252	 -21.83624174
Au	 4.64527175	 21.54601252	 -24.74774064
Au	 2.73967098	 22.93051252	 23.29199119
Au	 2.73967098	 22.93051252	 20.38049229
Au	 2.73967098	 22.93051252	 17.46899339
Au	 2.73967098	 22.93051252	 14.55749449
Au	 2.73967098	 22.93051252	 11.64599560
Au	 2.73967098	 22.93051252	 8.73449670
Au	 2.73967098	 22.93051252	 5.82299780
Au	 2.73967098	 22.93051252	 2.91149890
Au	 2.73967098	 22.93051252	 -0.00000000
Au	 2.73967098	 22.93051252	 -2.91149890
Au	 2.73967098	 22.93051252	 -5.82299780
Au	 2.73967098	 22.93051252	 -8.73449670
Au	 2.73967098	 22.93051252	 -11.64599560
Au	 2.73967098	 22.93051252	 -14.55749449
Au	 2.73967098	 22.93051252	 -17.46899339
Au	 2.73967098	 22.93051252	 -20.38049229
Au	 2.73967098	 22.93051252	 -23.29199119
Au	 3.91739703	 19.30584446	 26.20349009
Au	 3.91739703	 19.30584446	 23.29199119
Au	 3.91739703	 19.30584446	 20.38049229
Au	 3.91739703	 19.30584446	 17.46899339
Au	 3.91739703	 19.30584446	 14.55749449
Au	 3.91739703	 19.30584446	 11.64599560
Au	 3.91739703	 19.30584446	 8.73449670
Au	 3.91739703	 19.30584446	 5.82299780
Au	 3.91739703	 19.30584446	 2.91149890
Au	 3.91739703	 19.30584446	 0.00000000
Au	 3.91739703	 19.30584446	 -2.91149890
Au	 3.91739703	 19.30584446	 -5.82299780
Au	 3.91739703	 19.30584446	 -8.73449670
Au	 3.91739703	 19.30584446	 -11.64599560
Au	 3.91739703	 19.30584446	 -14.55749449
Au	 3.91739703	 19.30584446	 -17.46899339
Au	 3.91739703	 19.30584446	 -20.38049229
Au	 3.91739703	 19.30584446	 -23.29199119
Au	 3.91739703	 19.30584446	 -26.20349009
Au	 2.01179626	 20.69034446	 24.74774064
Au	 2.01179626	 20.69034446	 21.83624174
Au	 2.01179626	 20.69034446	 18.92474284
Au	 2.01179626	 20.69034446	 16.01324394
Au	 2.01179626	 20.69034446	 13.10174505
Au	 2.01179626	 20.69034446	 10.19024615
Au	 2.01179626	 20.69034446	 7.27874725
Au	 2.01179626	 20.69034446	 4.36724835
Au	 2.01179626	 20.69034446	 1.45574945
Au	 2.01179626	 20.69034446	 -1.45574945
Au	 2.01179626	 20.69034446	 -4.36724835
Au	 2.01179626	 20.69034446	 -7.27874725
Au	 2.01179626	 20.69034446	 -10.19024615
Au	 2.01179626	 20.69034446	 -13.10174505
Au	 2.01179626	 20.69034446	 -16.01324394
Au	 2.01179626	 20.69034446	 -18.92474284
Au	 2.01179626	 20.69034446	 -21.83624174
Au	 2.01179626	 20.69034446	 -24.74774064
Au	 0.10619549	 22.07484446	 23.29199119
Au	 0.10619549	 22.07484446	 20.38049229
Au	 0.10619549	 22.07484446	 17.46899339
Au	 0.10619549	 22.07484446	 14.55749449
Au	 0.10619549	 22.07484446	 11.64599560
Au	 0.10619549	 22.07484446	 8.73449670
Au	 0.10619549	 22.07484446	 5.82299780
Au	 0.10619549	 22.07484446	 2.91149890
Au	 0.10619549	 22.07484446	 -0.00000000
Au	 0.10619549	 22.07484446	 -2.91149890
Au	 0.10619549	 22.07484446	 -5.82299780
Au	 0.10619549	 22.07484446	 -8.73449670
Au	 0.10619549	 22.07484446	 -11.64599560
Au	 0.10619549	 22.07484446	 -14.55749449
Au	 0.10619549	 22.07484446	 -17.46899339
Au	 0.10619549	 22.07484446	 -20.38049229
Au	 0.10619549	 22.07484446	 -23.29199119
Au	 3.18952230	 17.06567640	 27.65923954
Au	 3.18952230	 17.06567640	 24.74774064
Au	 3.18952230	 17.06567640	 21.83624174
Au	 3.18952230	 17.06567640	 18.92474284
Au	 3.18952230	 17.06567640	 16.01324394
Au	 3.18952230	 17.06567640	 13.10174505
Au	 3.18952230	 17.06567640	 10.19024615
Au	 3.18952230	 17.06567640	 7.27874725
Au	 3.18952230	 17.06567640	 4.36724835
Au	 3.18952230	 17.06567640	 1.45574945
Au	 3.18952230	 17.06567640	 -1.45574945
Au	 3.18952230	 17.06567640	 -4.36724835
Au	 3.18952230	 17.06567640	 -7.27874725
Au	 3.18952230	 17.06567640	 -10.19024615
Au	 3.18952230	 17.06567640	 -13.10174505
Au	 3.18952230	 17.06567640	 -16.01324394
Au	 3.18952230	 17.06567640	 -18.92474284
Au	 3.18952230	 17.06567640	 -21.83624174
Au	 3.18952230	 17.06567640	 -24.74774064
Au	 3.18952230	 17.06567640	 -27.65923954
Au	 1.28392154	 18.45017640	 26.20349009
Au	 1.28392154	 18.45017640	 23.29199119
Au	 1.28392154	 18.45017640	 20.38049229
Au	 1.28392154	 18.45017640	 17.46899339
Au	 1.28392154	 18.45017640	 14.55749449
Au	 1.28392154	 18.45017640	 11.64599560
Au	 1.28392154	 18.45017640	 8.73449670
Au	 1.28392154	 18.45017640	 5.82299780
Au	 1.28392154	 18.45017640	 2.91149890
Au	 1.28392154	 18.45017640	 -0.00000000
Au	 1.28392154	 18.45017640	 -2.91149890
Au	 1.28392154	 18.45017640	 -5.82299780
Au	 1.28392154	 18.45017640	 -8.73449670
Au	 1.28392154	 18.45017640	 -11.64599560
Au	 1.28392154	 18.45017640	 -14.55749449
Au	 1.28392154	 18.45017640	 -17.46899339
Au	 1.28392154	 18.45017640	 -20.38049229
Au	 1.28392154	 18.45017640	 -23.29199119
Au	 1.28392154	 18.45017640	 -26.20349009
Au	 -0.62167923	 19.83467640	 24.74774064
Au	 -0.62167923	 19.83467640	 21.83624174
Au	 -0.62167923	 19.83467640	 18.92474284
Au	 -0.62167923	 19.83467640	 16.01324394
Au	 -0.62167923	 19.83467640	 13.10174505
Au	 -0.62167923	 19.83467640	 10.19024615
Au	 -0.62167923	 19.83467640	 7.27874725
Au	 -0.62167923	 19.83467640	 4.36724835
Au	 -0.62167923	 19.83467640	 1.45574945
Au	 -0.62167923	 19.83467640	 -1.45574945
Au	 -0.62167923	 19.83467640	 -4.36724835
Au	 -0.62167923	 19.83467640	 -7.27874725
Au	 -0.62167923	 19.83467640	 -10.19024615
Au	 -0.62167923	 19.83467640	 -13.10174505
Au	 -0.62167923	 19.83467640	 -16.01324394
Au	 -0.62167923	 19.83467640	 -18.92474284
Au	 -0.62167923	 19.83467640	 -21.83624174
Au	 -0.62167923	 19.83467640	 -24.74774064
Au	 -2.52728000	 21.21917640	 23.29199119
Au	 -2.52728000	 21.21917640	 20.38049229
Au	 -2.52728000	 21.21917640	 17.46899339
Au	 -2.52728000	 21.21917640	 14.55749449
Au	 -2.52728000	 21.21917640	 11.64599560
Au	 -2.52728000	 21.21917640	 8.73449670
Au	 -2.52728000	 21.21917640	 5.82299780
Au	 -2.52728000	 21.21917640	 2.91149890
Au	 -2.52728000	 21.21917640	 -0.00000000
Au	 -2.52728000	 21.21917640	 -2.91149890
Au	 -2.52728000	 21.21917640	 -5.82299780
Au	 -2.52728000	 21.21917640	 -8.73449670
Au	 -2.52728000	 21.21917640	 -11.64599560
Au	 -2.52728000	 21.21917640	 -14.55749449
Au	 -2.52728000	 21.21917640	 -17.46899339
Au	 -2.52728000	 21.21917640	 -20.38049229
Au	 -2.52728000	 21.21917640	 -23.29199119
Au	 2.46164758	 14.82550834	 29.11498899
Au	 2.46164758	 14.82550834	 26.20349009
Au	 2.46164758	 14.82550834	 23.29199119
Au	 2.46164758	 14.82550834	 20.38049229
Au	 2.46164758	 14.82550834	 17.46899339
Au	 2.46164758	 14.82550834	 14.55749449
Au	 2.46164758	 14.82550834	 11.64599560
Au	 2.46164758	 14.82550834	 8.73449670
Au	 2.46164758	 14.82550834	 5.82299780
Au	 2.46164758	 14.82550834	 2.91149890
Au	 2.46164758	 14.82550834	 0.00000000
Au	 2.46164758	 14.82550834	 -2.91149890
Au	 2.46164758	 14.82550834	 -5.82299780
Au	 2.46164758	 14.82550834	 -8.73449670
Au	 2.46164758	 14.82550834	 -11.64599560
Au	 2.46164758	 14.82550834	 -14.55749449
Au	 2.46164758	 14.82550834	 -17.46899339
Au	 2.46164758	 14.82550834	 -20.38049229
Au	 2.46164758	 14.82550834	 -23.29199119
Au	 2.46164758	 14.82550834	 -26.20349009
Au	 2.46164758	 14.82550834	 -29.11498899
Au	 0.55604681	 16.21000834	 27.65923954
Au	 0.55604681	 16.21000834	 24.74774064
Au	 0.55604681	 16.21000834	 21.83624174
Au	 0.55604681	 16.21000834	 18.92474284
Au	 0.55604681	 16.21000834	 16.01324394
Au	 0.55604681	 16.21000834	 13.10174505
Au	 0.55604681	 16.21000834	 10.19024615
Au	 0.55604681	 16.21000834	 7.27874725
Au	 0.55604681	 16.21000834	 4.36724835
Au	 0.55604681	 16.21000834	 1.45574945
Au	 0.55604681	 16.21000834	 -1.45574945
Au	 0.55604681	 16.21000834	 -4.36724835
Au	 0.55604681	 16.21000834	 -7.27874725
Au	 0.55604681	 16.21000834	 -10.19024615
Au	 0.55604681	 16.21000834	 -13.10174505
Au	 0.55604681	 16.21000834	 -16.01324394
Au	 0.55604681	 16.21000834	 -18.92474284
Au	 0.55604681	 16.21000834	 -21.83624174
Au	 0.55604681	 16.21000834	 -24.74774064
Au	 0.55604681	 16.21000834	 -27.65923954
Au	 -1.34955396	 17.59450834	 26.20349009
Au	 -1.34955396	 17.59450834	 23.29199119
Au	 -1.34955396	 17.59450834	 20.38049229
Au	 -1.34955396	 17.59450834	 17.46899339
Au	 -1.34955396	 17.59450834	 14.55749449
Au	 -1.34955396	 17.59450834	 11.64599560
Au	 -1.34955396	 17.59450834	 8.73449670
Au	 -1.34955396	 17.59450834	 5.82299780
Au	 -1.34955396	 17.59450834	 2.91149890
Au	 -1.34955396	 17.59450834	 0.00000000
Au	 -1.34955396	 17.59450834	 -2.91149890
Au	 -1.34955396	 17.59450834	 -5.82299780
Au	 -1.34955396	 17.59450834	 -8.73449670
Au	 -1.34955396	 17.59450834	 -11.64599560
Au	 -1.34955396	 17.59450834	 -14.55749449
Au	 -1.34955396	 17.59450834	 -17.46899339
Au	 -1.34955396	 17.59450834	 -20.38049229
Au	 -1.34955396	 17.59450834	 -23.29199119
Au	 -1.34955396	 17.59450834	 -26.20349009
Au	 -3.25515473	 18.97900834	 24.74774064
Au	 -3.25515473	 18.97900834	 21.83624174
Au	 -3.25515473	 18.97900834	 18.92474284
Au	 -3.25515473	 18.97900834	 16.01324394
Au	 -3.25515473	 18.97900834	 13.10174505
Au	 -3.25515473	 18.97900834	 10.19024615
Au	 -3.25515473	 18.97900834	 7.27874725
Au	 -3.25515473	 18.97900834	 4.36724835
Au	 -3.25515473	 18.97900834	 1.45574945
Au	 -3.25515473	 18.97900834	 -1.45574945
Au	 -3.25515473	 18.97900834	 -4.36724835
Au	 -3.25515473	 18.97900834	 -7.27874725
Au	 -3.25515473	 18.97900834	 -10.19024615
Au	 -3.25515473	 18.97900834	 -13.10174505
Au	 -3.25515473	 18.97900834	 -16.01324394
Au	 -3.25515473	 18.97900834	 -18.92474284
Au	 -3.25515473	 18.97900834	 -21.83624174
Au	 -3.25515473	 18.97900834	 -24.74774064
Au	 -5.16075550	 20.36350834	 23.29199119
Au	 -5.16075550	 20.36350834	 20.38049229
Au	 -5.16075550	 20.36350834	 17.46899339
Au	 -5.16075550	 20.36350834	 14.55749449
Au	 -5.16075550	 20.36350834	 11.64599560
Au	 -5.16075550	 20.36350834	 8.73449670
Au	 -5.16075550	 20.36350834	 5.82299780
Au	 -5.16075550	 20.36350834	 2.91149890
Au	 -5.16075550	 20.36350834	 0.00000000
Au	 -5.16075550	 20.36350834	 -2.91149890
Au	 -5.16075550	 20.36350834	 -5.82299780
Au	 -5.16075550	 20.36350834	 -8.73449670
Au	 -5.16075550	 20.36350834	 -11.64599560
Au	 -5.16075550	 20.36350834	 -14.55749449
Au	 -5.16075550	 20.36350834	 -17.46899339
Au	 -5.16075550	 20.36350834	 -20.38049229
Au	 -5.16075550	 20.36350834	 -23.29199119
Au	 1.73377285	 12.58534029	 30.57073844
Au	 1.73377285	 12.58534029	 27.65923954
Au	 1.73377285	 12.58534029	 24.74774064
Au	 1.73377285	 12.58534029	 21.83624174
Au	 1.73377285	 12.58534029	 18.92474284
Au	 1.73377285	 12.58534029	 16.01324394
Au	 1.73377285	 12.58534029	 13.10174505
Au	 1.73377285	 12.58534029	 10.19024615
Au	 1.73377285	 12.58534029	 7.27874725
Au	 1.73377285	 12.58534029	 4.36724835
Au	 1.73377285	 12.58534029	 1.45574945
Au	 1.73377285	 12.58534029	 -1.45574945
Au	 1.73377285	 12.58534029	 -4.36724835
Au	 1.73377285	 12.58534029	 -7.27874725
Au	 1.73377285	 12.58534029	 -10.19024615
Au	 1.73377285	 12.58534029	 -13.10174505
Au	 1.73377285	 12.58534029	 -16.01324394
Au	 1.73377285	 12.58534029	 -18.92474284
Au	 1.73377285	 12.58534029	 -21.83624174
Au	 1.73377285	 12.58534029	 -24.74774064
Au	 1.73377285	 12.58534029	 -27.65923954
Au	 1.73377285	 12.58534029	 -30.57073844
Au	 -0.17182791	 13.96984029	 29.11498899
Au	 -0.17182791	 13.96984029	 26.20349009
Au	 -0.17182791	 13.96984029	 23.29199119
Au	 -0.17182791	 13.96984029	 20.38049229
Au	 -0.17182791	 13.96984029	 17.46899339
Au	 -0.17182791	 13.96984029	 14.55749449
Au	 -0.17182791	 13.96984029	 11.64599560
Au	 -0.17182791	 13.96984029	 8.73449670
Au	 -0.17182791	 13.96984029	 5.82299780
Au	 -0.17182791	 13.96984029	 2.91149890
Au	 -0.17182791	 13.96984029	 0.00000000
Au	 -0.17182791	 13.96984029	 -2.91149890
Au	 -0.17182791	 13.96984029	 -5.82299780
Au	 -0.17182791	 13.96984029	 -8.73449670
Au	 -0.17182791	 13.96984029	 -11.64599560
Au	 -0.17182791	 13.96984029	 -14.55749449
Au	 -0.17182791	 13.96984029	 -17.46899339
Au	 -0.17182791	 13.96984029	 -20.38049229
Au	 -0.17182791	 13.96984029	 -23.29199119
Au	 -0.17182791	 13.96984029	 -26.20349009
Au	 -0.17182791	 13.96984029	 -29.11498899
Au	 -2.07742868	 15.35434029	 27.65923954
Au	 -2.07742868	 15.35434029	 24.74774064
Au	 -2.07742868	 15.35434029	 21.83624174
Au	 -2.07742868	 15.35434029	 18.92474284
Au	 -2.07742868	 15.35434029	 16.01324394
Au	 -2.07742868	 15.35434029	 13.10174505
Au	 -2.07742868	 15.35434029	 10.19024615
Au	 -2.07742868	 15.35434029	 7.27874725
Au	 -2.07742868	 15.35434029	 4.36724835
Au	 -2.07742868	 15.35434029	 1.45574945
Au	 -2.07742868	 15.35434029	 -1.45574945
Au	 -2.07742868	 15.35434029	 -4.36724835
Au	 -2.07742868	 15.35434029	 -7.27874725
Au	 -2.07742868	 15.35434029	 -10.19024615
Au	 -2.07742868	 15.35434029	 -13.10174505
Au	 -2.07742868	 15.35434029	 -16.01324394
Au	 -2.07742868	 15.35434029	 -18.92474284
Au	 -2.07742868	 15.35434029	 -21.83624174
Au	 -2.07742868	 15.35434029	 -24.74774064
Au	 -2.07742868	 15.35434029	 -27.65923954
Au	 -3.98302945	 16.73884029	 26.20349009
Au	 -3.98302945	 16.73884029	 23.29199119
Au	 -3.98302945	 16.73884029	 20.38049229
Au	 -3.98302945	 16.73884029	 17.46899339
Au	 -3.98302945	 16.73884029	 14.55749449
Au	 -3.98302945	 16.73884029	 11.64599560
Au	 -3.98302945	 16.73884029	 8.73449670
Au	 -3.98302945	 16.73884029	 5.82299780
Au	 -3.98302945	 16.73884029	 2.91149890
Au	 -3.98302945	 16.73884029	 -0.00000000
Au	 -3.98302945	 16.73884029	 -2.91149890
Au	 -3.98302945	 16.73884029	 -5.82299780
Au	 -3.98302945	 16.73884029	 -8.73449670
Au	 -3.98302945	 16.73884029	 -11.64599560
Au	 -3.98302945	 16.73884029	 -14.55749449
Au	 -3.98302945	 16.73884029	 -17.46899339
Au	 -3.98302945	 16.73884029	 -20.38049229
Au	 -3.98302945	 16.73884029	 -23.29199119
Au	 -3.98302945	 16.73884029	 -26.20349009
Au	 -5.88863022	 18.12334029	 24.74774064
Au	 -5.88863022	 18.12334029	 21.83624174
Au	 -5.88863022	 18.12334029	 18.92474284
Au	 -5.88863022	 18.12334029	 16.01324394
Au	 -5.88863022	 18.12334029	 13.10174505
Au	 -5.88863022	 18.12334029	 10.19024615
Au	 -5.88863022	 18.12334029	 7.27874725
Au	 -5.88863022	 18.12334029	 4.36724835
Au	 -5.88863022	 18.12334029	 1.45574945
Au	 -5.88863022	 18.12334029	 -1.45574945
Au	 -5.88863022	 18.12334029	 -4.36724835
Au	 -5.88863022	 18.12334029	 -7.27874725
Au	 -5.88863022	 18.12334029	 -10.19024615
Au	 -5.88863022	 18.12334029	 -13.10174505
Au	 -5.88863022	 18.12334029	 -16.01324394
Au	 -5.88863022	 18.12334029	 -18.92474284
Au	 -5.88863022	 18.12334029	 -21.83624174
Au	 -5.88863022	 18.12334029	 -24.74774064
Au	 -7.79423099	 19.50784029	 23.29199119
Au	 -7.79423099	 19.50784029	 20.38049229
Au	 -7.79423099	 19.50784029	 17.46899339
Au	 -7.79423099	 19.50784029	 14.55749449
Au	 -7.79423099	 19.50784029	 11.64599560
Au	 -7.79423099	 19.50784029	 8.73449670
Au	 -7.79423099	 19.50784029	 5.82299780
Au	 -7.79423099	 19.50784029	 2.91149890
Au	 -7.79423099	 19.50784029	 -0.00000000
Au	 -7.79423099	 19.50784029	 -2.91149890
Au	 -7.79423099	 19.50784029	 -5.82299780
Au	 -7.79423099	 19.50784029	 -8.73449670
Au	 -7.79423099	 19.50784029	 -11.64599560
Au	 -7.79423099	 19.50784029	 -14.55749449
Au	 -7.79423099	 19.50784029	 -17.46899339
Au	 -7.79423099	 19.50784029	 -20.38049229
Au	 -7.79423099	 19.50784029	 -23.29199119
Au	 1.00589813	 10.34517223	 32.02648789
Au	 1.00589813	 10.34517223	 29.11498899
Au	 1.00589813	 10.34517223	 26.20349009
Au	 1.00589813	 10.34517223	 23.29199119
Au	 1.00589813	 10.34517223	 20.38049229
Au	 1.00589813	 10.34517223	 17.46899339
Au	 1.00589813	 10.34517223	 14.55749449
Au	 1.00589813	 10.34517223	 11.64599560
Au	 1.00589813	 10.34517223	 8.73449670
Au	 1.00589813	 10.34517223	 5.82299780
Au	 1.00589813	 10.34517223	 2.91149890
Au	 1.00589813	 10.34517223	 0.00000000
Au	 1.00589813	 10.34517223	 -2.91149890
Au	 1.00589813	 10.34517223	 -5.82299780
Au	 1.00589813	 10.34517223	 -8.73449670
Au	 1.00589813	 10.34517223	 -11.64599560
Au	 1.00589813	 10.34517223	 -14.55749449
Au	 1.00589813	 10.34517223	 -17.46899339
Au	 1.00589813	 10.34517223	 -20.38049229
Au	 1.00589813	 10.34517223	 -23.29199119
Au	 1.00589813	 10.34517223	 -26.20349009
Au	 1.00589813	 10.34517223	 -29.11498899
Au	 1.00589813	 10.34517223	 -32.02648789
Au	 -0.89970264	 11.72967223	 30.57073844
Au	 -0.89970264	 11.72967223	 27.65923954
Au	 -0.89970264	 11.72967223	 24.74774064
Au	 -0.89970264	 11.72967223	 21.83624174
Au	 -0.89970264	 11.72967223	 18.92474284
Au	 -0.89970264	 11.72967223	 16.01324394
Au	 -0.89970264	 11.72967223	 13.10174505
Au	 -0.89970264	 11.72967223	 10.19024615
Au	 -0.89970264	 11.72967223	 7.27874725
Au	 -0.89970264	 11.72967223	 4.36724835
Au	 -0.89970264	 11.72967223	 1.45574945
Au	 -0.89970264	 11.72967223	 -1.45574945
Au	 -0.89970264	 11.72967223	 -4.36724835
Au	 -0.89970264	 11.72967223	 -7.27874725
Au	 -0.89970264	 11.72967223	 -10.19024615
Au	 -0.89970264	 11.72967223	 -13.10174505
Au	 -0.89970264	 11.72967223	 -16.01324394
Au	 -0.89970264	 11.72967223	 -18.92474284
Au	 -0.89970264	 11.72967223	 -21.83624174
Au	 -0.89970264	 11.72967223	 -24.74774064
Au	 -0.89970264	 11.72967223	 -27.65923954
Au	 -0.89970264	 11.72967223	 -30.57073844
Au	 -2.80530341	 13.11417223	 29.11498899
Au	 -2.80530341	 13.11417223	 26.20349009
Au	 -2.80530341	 13.11417223	 23.29199119
Au	 -2.80530341	 13.11417223	 20.38049229
Au	 -2.80530341	 13.11417223	 17.46899339
Au	 -2.80530341	 13.11417223	 14.55749449
Au	 -2.80530341	 13.11417223	 11.64599560
Au	 -2.80530341	 13.11417223	 8.73449670
Au	 -2.80530341	 13.11417223	 5.82299780
Au	 -2.80530341	 13.11417223	 2.91149890
Au	 -2.80530341	 13.11417223	 0.00000000
Au	 -2.80530341	 13.11417223	 -2.91149890
Au	 -2.80530341	 13.11417223	 -5.82299780
Au	 -2.80530341	 13.11417223	 -8.73449670
Au	 -2.80530341	 13.11417223	 -11.64599560
Au	 -2.80530341	 13.11417223	 -14.55749449
Au	 -2.80530341	 13.11417223	 -17.46899339
Au	 -2.80530341	 13.11417223	 -20.38049229
Au	 -2.80530341	 13.11417223	 -23.29199119
Au	 -2.80530341	 13.11417223	 -26.20349009
Au	 -2.80530341	 13.11417223	 -29.11498899
Au	 -4.71090418	 14.49867223	 27.65923954
Au	 -4.71090418	 14.49867223	 24.74774064
Au	 -4.71090418	 14.49867223	 21.83624174
Au	 -4.71090418	 14.49867223	 18.92474284
Au	 -4.71090418	 14.49867223	 16.01324394
Au	 -4.71090418	 14.49867223	 13.10174505
Au	 -4.71090418	 14.49867223	 10.19024615
Au	 -4.71090418	 14.49867223	 7.27874725
Au	 -4.71090418	 14.49867223	 4.36724835
Au	 -4.71090418	 14.49867223	 1.45574945
Au	 -4.71090418	 14.49867223	 -1.45574945
Au	 -4.71090418	 14.49867223	 -4.36724835
Au	 -4.71090418	 14.49867223	 -7.27874725
Au	 -4.71090418	 14.49867223	 -10.19024615
Au	 -4.71090418	 14.49867223	 -13.10174505
Au	 -4.71090418	 14.49867223	 -16.01324394
Au	 -4.71090418	 14.49867223	 -18.92474284
Au	 -4.71090418	 14.49867223	 -21.83624174
Au	 -4.71090418	 14.49867223	 -24.74774064
Au	 -4.71090418	 14.49867223	 -27.65923954
Au	 -6.61650495	 15.88317223	 26.20349009
Au	 -6.61650495	 15.88317223	 23.29199119
Au	 -6.61650495	 15.88317223	 20.38049229
Au	 -6.61650495	 15.88317223	 17.46899339
Au	 -6.61650495	 15.88317223	 14.55749449
Au	 -6.61650495	 15.88317223	 11.64599560
Au	 -6.61650495	 15.88317223	 8.73449670
Au	 -6.61650495	 15.88317223	 5.82299780
Au	 -6.61650495	 15.88317223	 2.91149890
Au	 -6.61650495	 15.88317223	 -0.00000000
Au	 -6.61650495	 15.88317223	 -2.91149890
Au	 -6.61650495	 15.88317223	 -5.82299780
Au	 -6.61650495	 15.88317223	 -8.73449670
Au	 -6.61650495	 15.88317223	 -11.64599560
Au	 -6.61650495	 15.88317223	 -14.55749449
Au	 -6.61650495	 15.88317223	 -17.46899339
Au	 -6.61650495	 15.88317223	 -20.38049229
Au	 -6.61650495	 15.88317223	 -23.29199119
Au	 -6.61650495	 15.88317223	 -26.20349009
Au	 -8.52210571	 17.26767223	 24.74774064
Au	 -8.52210571	 17.26767223	 21.83624174
Au	 -8.52210571	 17.26767223	 18.92474284
Au	 -8.52210571	 17.26767223	 16.01324394
Au	 -8.52210571	 17.26767223	 13.10174505
Au	 -8.52210571	 17.26767223	 10.19024615
Au	 -8.52210571	 17.26767223	 7.27874725
Au	 -8.52210571	 17.26767223	 4.36724835
Au	 -8.52210571	 17.26767223	 1.45574945
Au	 -8.52210571	 17.26767223	 -1.45574945
Au	 -8.52210571	 17.26767223	 -4.36724835
Au	 -8.52210571	 17.26767223	 -7.27874725
Au	 -8.52210571	 17.26767223	 -10.19024615
Au	 -8.52210571	 17.26767223	 -13.10174505
Au	 -8.52210571	 17.26767223	 -16.01324394
Au	 -8.52210571	 17.26767223	 -18.92474284
Au	 -8.52210571	 17.26767223	 -21.83624174
Au	 -8.52210571	 17.26767223	 -24.74774064
Au	 -10.42770648	 18.65217223	 23.29199119
Au	 -10.42770648	 18.65217223	 20.38049229
Au	 -10.42770648	 18.65217223	 17.46899339
Au	 -10.42770648	 18.65217223	 14.55749449
Au	 -10.42770648	 18.65217223	 11.64599560
Au	 -10.42770648	 18.65217223	 8.73449670
Au	 -10.42770648	 18.65217223	 5.82299780
Au	 -10.42770648	 18.65217223	 2.91149890
Au	 -10.42770648	 18.65217223	 -0.00000000
Au	 -10.42770648	 18.65217223	 -2.91149890
Au	 -10.42770648	 18.65217223	 -5.82299780
Au	 -10.42770648	 18.65217223	 -8.73449670
Au	 -10.42770648	 18.65217223	 -11.64599560
Au	 -10.42770648	 18.65217223	 -14.55749449
Au	 -10.42770648	 18.65217223	 -17.46899339
Au	 -10.42770648	 18.65217223	 -20.38049229
Au	 -10.42770648	 18.65217223	 -23.29199119
Au	 0.27802341	 8.10500417	 33.48223734
Au	 0.27802341	 8.10500417	 30.57073844
Au	 0.27802341	 8.10500417	 27.65923954
Au	 0.27802341	 8.10500417	 24.74774064
Au	 0.27802341	 8.10500417	 21.83624174
Au	 0.27802341	 8.10500417	 18.92474284
Au	 0.27802341	 8.10500417	 16.01324394
Au	 0.27802341	 8.10500417	 13.10174505
Au	 0.27802341	 8.10500417	 10.19024615
Au	 0.27802341	 8.10500417	 7.27874725
Au	 0.27802341	 8.10500417	 4.36724835
Au	 0.27802341	 8.10500417	 1.45574945
Au	 0.27802341	 8.10500417	 -1.45574945
Au	 0.27802341	 8.10500417	 -4.36724835
Au	 0.27802341	 8.10500417	 -7.27874725
Au	 0.27802341	 8.10500417	 -10.19024615
Au	 0.27802341	 8.10500417	 -13.10174505
Au	 0.27802341	 8.10500417	 -16.01324394
Au	 0.27802341	 8.10500417	 -18.92474284
Au	 0.27802341	 8.10500417	 -21.83624174
Au	 0.27802341	 8.10500417	 -24.74774064
Au	 0.27802341	 8.10500417	 -27.65923954
Au	 0.27802341	 8.10500417	 -30.57073844
Au	 0.27802341	 8.10500417	 -33.48223734
Au	 -1.62757736	 9.48950417	 32.02648789
Au	 -1.62757736	 9.48950417	 29.11498899
Au	 -1.62757736	 9.48950417	 26.20349009
Au	 -1.62757736	 9.48950417	 23.29199119
Au	 -1.62757736	 9.48950417	 20.38049229
Au	 -1.62757736	 9.48950417	 17.46899339
Au	 -1.62757736	 9.48950417	 14.55749449
Au	 -1.62757736	 9.48950417	 11.64599560
Au	 -1.62757736	 9.48950417	 8.73449670
Au	 -1.62757736	 9.48950417	 5.82299780
Au	 -1.62757736	 9.48950417	 2.91149890
Au	 -1.62757736	 9.48950417	 0.00000000
Au	 -1.62757736	 9.48950417	 -2.91149890
Au	 -1.62757736	 9.48950417	 -5.82299780
Au	 -1.62757736	 9.48950417	 -8.73449670
Au	 -1.62757736	 9.48950417	 -11.64599560
Au	 -1.62757736	 9.48950417	 -14.55749449
Au	 -1.62757736	 9.48950417	 -17.46899339
Au	 -1.62757736	 9.48950417	 -20.38049229
Au	 -1.62757736	 9.48950417	 -23.29199119
Au	 -1.62757736	 9.48950417	 -26.20349009
Au	 -1.62757736	 9.48950417	 -29.11498899
Au	 -1.62757736	 9.48950417	 -32.02648789
Au	 -3.53317813	 10.87400417	 30.57073844
Au	 -3.53317813	 10.87400417	 27.65923954
Au	 -3.53317813	 10.87400417	 24.74774064
Au	 -3.53317813	 10.87400417	 21.83624174
Au	 -3.53317813	 10.87400417	 18.92474284
Au	 -3.53317813	 10.87400417	 16.01324394
Au	 -3.53317813	 10.87400417	 13.10174505
Au	 -3.53317813	 10.87400417	 10.19024615
Au	 -3.53317813	 10.87400417	 7.27874725
Au	 -3.53317813	 10.87400417	 4.36724835
Au	 -3.53317813	 10.87400417	 1.45574945
Au	 -3.53317813	 10.87400417	 -1.45574945
Au	 -3.53317813	 10.87400417	 -4.36724835
Au	 -3.53317813	 10.87400417	 -7.27874725
Au	 -3.53317813	 10.87400417	 -10.19024615
Au	 -3.53317813	 10.87400417	 -13.10174505
Au	 -3.53317813	 10.87400417	 -16.01324394
Au	 -3.53317813	 10.87400417	 -18.92474284
Au	 -3.53317813	 10.87400417	 -21.83624174
Au	 -3.53317813	 10.87400417	 -24.74774064
Au	 -3.53317813	 10.87400417	 -27.65923954
Au	 -3.53317813	 10.87400417	 -30.57073844
Au	 -5.43877890	 12.25850417	 29.11498899
Au	 -5.43877890	 12.25850417	 26.20349009
Au	 -5.43877890	 12.25850417	 23.29199119
Au	 -5.43877890	 12.25850417	 20.38049229
Au	 -5.43877890	 12.25850417	 17.46899339
Au	 -5.43877890	 12.25850417	 14.55749449
Au	 -5.43877890	 12.25850417	 11.64599560
Au	 -5.43877890	 12.25850417	 8.73449670
Au	 -5.43877890	 12.25850417	 5.82299780
Au	 -5.43877890	 12.25850417	 2.91149890
Au	 -5.43877890	 12.25850417	 0.00000000
Au	 -5.43877890	 12.25850417	 -2.91149890
Au	 -5.43877890	 12.25850417	 -5.82299780
Au	 -5.43877890	 12.25850417	 -8.73449670
Au	 -5.43877890	 12.25850417	 -11.64599560
Au	 -5.43877890	 12.25850417	 -14.55749449
Au	 -5.43877890	 12.25850417	 -17.46899339
Au	 -5.43877890	 12.25850417	 -20.38049229
Au	 -5.43877890	 12.25850417	 -23.29199119
Au	 -5.43877890	 12.25850417	 -26.20349009
Au	 -5.43877890	 12.25850417	 -29.11498899
Au	 -7.34437967	 13.64300417	 27.65923954
Au	 -7.34437967	 13.64300417	 24.74774064
Au	 -7.34437967	 13.64300417	 21.83624174
Au	 -7.34437967	 13.64300417	 18.92474284
Au	 -7.34437967	 13.64300417	 16.01324394
Au	 -7.34437967	 13.64300417	 13.10174505
Au	 -7.34437967	 13.64300417	 10.19024615
Au	 -7.34437967	 13.64300417	 7.27874725
Au	 -7.34437967	 13.64300417	 4.36724835
Au	 -7.34437967	 13.64300417	 1.45574945
Au	 -7.34437967	 13.64300417	 -1.45574945
Au	 -7.34437967	 13.64300417	 -4.36724835
Au	 -7.34437967	 13.64300417	 -7.27874725
Au	 -7.34437967	 13.64300417	 -10.19024615
Au	 -7.34437967	 13.64300417	 -13.10174505
Au	 -7.34437967	 13.64300417	 -16.01324394
Au	 -7.34437967	 13.64300417	 -18.92474284
Au	 -7.34437967	 13.64300417	 -21.83624174
Au	 -7.34437967	 13.64300417	 -24.74774064
Au	 -7.34437967	 13.64300417	 -27.65923954
Au	 -9.24998044	 15.02750417	 26.20349009
Au	 -9.24998044	 15.02750417	 23.29199119
Au	 -9.24998044	 15.02750417	 20.38049229
Au	 -9.24998044	 15.02750417	 17.46899339
Au	 -9.24998044	 15.02750417	 14.55749449
Au	 -9.24998044	 15.02750417	 11.64599560
Au	 -9.24998044	 15.02750417	 8.73449670
Au	 -9.24998044	 15.02750417	 5.82299780
Au	 -9.24998044	 15.02750417	 2.91149890
Au	 -9.24998044	 15.02750417	 0.00000000
Au	 -9.24998044	 15.02750417	 -2.91149890
Au	 -9.24998044	 15.02750417	 -5.82299780
Au	 -9.24998044	 15.02750417	 -8.73449670
Au	 -9.24998044	 15.02750417	 -11.64599560
Au	 -9.24998044	 15.02750417	 -14.55749449
Au	 -9.24998044	 15.02750417	 -17.46899339
Au	 -9.24998044	 15.02750417	 -20.38049229
Au	 -9.24998044	 15.02750417	 -23.29199119
Au	 -9.24998044	 15.02750417	 -26.20349009
Au	 -11.15558121	 16.41200417	 24.74774064
Au	 -11.15558121	 16.41200417	 21.83624174
Au	 -11.15558121	 16.41200417	 18.92474284
Au	 -11.15558121	 16.41200417	 16.01324394
Au	 -11.15558121	 16.41200417	 13.10174505
Au	 -11.15558121	 16.41200417	 10.19024615
Au	 -11.15558121	 16.41200417	 7.27874725
Au	 -11.15558121	 16.41200417	 4.36724835
Au	 -11.15558121	 16.41200417	 1.45574945
Au	 -11.15558121	 16.41200417	 -1.45574945
Au	 -11.15558121	 16.41200417	 -4.36724835
Au	 -11.15558121	 16.41200417	 -7.27874725
Au	 -11.15558121	 16.41200417	 -10.19024615
Au	 -11.15558121	 16.41200417	 -13.10174505
Au	 -11.15558121	 16.41200417	 -16.01324394
Au	 -11.15558121	 16.41200417	 -18.92474284
Au	 -11.15558121	 16.41200417	 -21.83624174
Au	 -11.15558121	 16.41200417	 -24.74774064
Au	 -13.06118198	 17.79650417	 23.29199119
Au	 -13.06118198	 17.79650417	 20.38049229
Au	 -13.06118198	 17.79650417	 17.46899339
Au	 -13.06118198	 17.79650417	 14.55749449
Au	 -13.06118198	 17.79650417	 11.64599560
Au	 -13.06118198	 17.79650417	 8.73449670
Au	 -13.06118198	 17.79650417	 5.82299780
Au	 -13.06118198	 17.79650417	 2.91149890
Au	 -13.06118198	 17.79650417	 -0.00000000
Au	 -13.06118198	 17.79650417	 -2.91149890
Au	 -13.06118198	 17.79650417	 -5.82299780
Au	 -13.06118198	 17.79650417	 -8.73449670
Au	 -13.06118198	 17.79650417	 -11.64599560
Au	 -13.06118198	 17.79650417	 -14.55749449
Au	 -13.06118198	 17.79650417	 -17.46899339
Au	 -13.06118198	 17.79650417	 -20.38049229
Au	 -13.06118198	 17.79650417	 -23.29199119
Au	 -0.44985132	 5.86483611	 34.93798679
Au	 -0.44985132	 5.86483611	 32.02648789
Au	 -0.44985132	 5.86483611	 29.11498899
Au	 -0.44985132	 5.86483611	 26.20349009
Au	 -0.44985132	 5.86483611	 23.29199119
Au	 -0.44985132	 5.86483611	 20.38049229
Au	 -0.44985132	 5.86483611	 17.46899339
Au	 -0.44985132	 5.86483611	 14.55749449
Au	 -0.44985132	 5.86483611	 11.64599560
Au	 -0.44985132	 5.86483611	 8.73449670
Au	 -0.44985132	 5.86483611	 5.82299780
Au	 -0.44985132	 5.86483611	 2.91149890
Au	 -0.44985132	 5.86483611	 0.00000000
Au	 -0.44985132	 5.86483611	 -2.91149890
Au	 -0.44985132	 5.86483611	 -5.82299780
Au	 -0.44985132	 5.86483611	 -8.73449670
Au	 -0.44985132	 5.86483611	 -11.64599560
Au	 -0.44985132	 5.86483611	 -14.55749449
Au	 -0.44985132	 5.86483611	 -17.46899339
Au	 -0.44985132	 5.86483611	 -20.38049229
Au	 -0.44985132	 5.86483611	 -23.29199119
Au	 -0.44985132	 5.86483611	 -26.20349009
Au	 -0.44985132	 5.86483611	 -29.11498899
Au	 -0.44985132	 5.86483611	 -32.02648789
Au	 -0.44985132	 5.86483611	 -34.93798679
Au	 -2.35545209	 7.24933611	 33.48223734
Au	 -2.35545209	 7.24933611	 30.57073844
Au	 -2.35545209	 7.24933611	 27.65923954
Au	 -2.35545209	 7.24933611	 24.74774064
Au	 -2.35545209	 7.24933611	 21.83624174
Au	 -2.35545209	 7.24933611	 18.92474284
Au	 -2.35545209	 7.24933611	 16.01324394
Au	 -2.35545209	 7.24933611	 13.10174505
Au	 -2.35545209	 7.24933611	 10.19024615
Au	 -2.35545209	 7.24933611	 7.27874725
Au	 -2.35545209	 7.24933611	 4.36724835
Au	 -2.35545209	 7.24933611	 1.45574945
Au	 -2.35545209	 7.24933611	 -1.45574945
Au	 -2.35545209	 7.24933611	 -4.36724835
Au	 -2.35545209	 7.24933611	 -7.27874725
Au	 -2.35545209	 7.24933611	 -10.19024615
Au	 -2.35545209	 7.24933611	 -13.10174505
Au	 -2.35545209	 7.24933611	 -16.01324394
Au	 -2.35545209	 7.24933611	 -18.92474284
Au	 -2.35545209	 7.24933611	 -21.83624174
Au	 -2.35545209	 7.24933611	 -24.74774064
Au	 -2.35545209	 7.24933611	 -27.65923954
Au	 -2.35545209	 7.24933611	 -30.57073844
Au	 -2.35545209	 7.24933611	 -33.48223734
Au	 -4.26105286	 8.63383611	 32.02648789
Au	 -4.26105286	 8.63383611	 29.11498899
Au	 -4.26105286	 8.63383611	 26.20349009
Au	 -4.26105286	 8.63383611	 23.29199119
Au	 -4.26105286	 8.63383611	 20.38049229
Au	 -4.26105286	 8.63383611	 17.46899339
Au	 -4.26105286	 8.63383611	 14.55749449
Au	 -4.26105286	 8.63383611	 11.64599560
Au	 -4.26105286	 8.63383611	 8.73449670
Au	 -4.26105286	 8.63383611	 5.82299780
Au	 -4.26105286	 8.63383611	 2.91149890
Au	 -4.26105286	 8.63383611	 0.00000000
Au	 -4.26105286	 8.63383611	 -2.91149890
Au	 -4.26105286	 8.63383611	 -5.82299780
Au	 -4.26105286	 8.63383611	 -8.73449670
Au	 -4.26105286	 8.63383611	 -11.64599560
Au	 -4.26105286	 8.63383611	 -14.55749449
Au	 -4.26105286	 8.63383611	 -17.46899339
Au	 -4.26105286	 8.63383611	 -20.38049229
Au	 -4.26105286	 8.63383611	 -23.29199119
Au	 -4.26105286	 8.63383611	 -26.20349009
Au	 -4.26105286	 8.63383611	 -29.11498899
Au	 -4.26105286	 8.63383611	 -32.02648789
Au	 -6.16665363	 10.01833611	 30.57073844
Au	 -6.16665363	 10.01833611	 27.65923954
Au	 -6.16665363	 10.01833611	 24.74774064
Au	 -6.16665363	 10.01833611	 21.83624174
Au	 -6.16665363	 10.01833611	 18.92474284
Au	 -6.16665363	 10.01833611	 16.01324394
Au	 -6.16665363	 10.01833611	 13.10174505
Au	 -6.16665363	 10.01833611	 10.19024615
Au	 -6.16665363	 10.01833611	 7.27874725
Au	 -6.16665363	 10.01833611	 4.36724835
Au	 -6.16665363	 10.01833611	 1.45574945
Au	 -6.16665363	 10.01833611	 -1.45574945
Au	 -6.16665363	 10.01833611	 -4.36724835
Au	 -6.16665363	 10.01833611	 -7.27874725
Au	 -6.16665363	 10.01833611	 -10.19024615
Au	 -6.16665363	 10.01833611	 -13.10174505
Au	 -6.16665363	 10.01833611	 -16.01324394
Au	 -6.16665363	 10.01833611	 -18.92474284
Au	 -6.16665363	 10.01833611	 -21.83624174
Au	 -6.16665363	 10.01833611	 -24.74774064
Au	 -6.16665363	 10.01833611	 -27.65923954
Au	 -6.16665363	 10.01833611	 -30.57073844
Au	 -8.07225440	 11.40283611	 29.11498899
Au	 -8.07225440	 11.40283611	 26.20349009
Au	 -8.07225440	 11.40283611	 23.29199119
Au	 -8.07225440	 11.40283611	 20.38049229
Au	 -8.07225440	 11.40283611	 17.46899339
Au	 -8.07225440	 11.40283611	 14.55749449
Au	 -8.07225440	 11.40283611	 11.64599560
Au	 -8.07225440	 11.40283611	 8.73449670
Au	 -8.07225440	 11.40283611	 5.82299780
Au	 -8.07225440	 11.40283611	 2.91149890
Au	 -8.07225440	 11.40283611	 0.00000000
Au	 -8.07225440	 11.40283611	 -2.91149890
Au	 -8.07225440	 11.40283611	 -5.82299780
Au	 -8.07225440	 11.40283611	 -8.73449670
Au	 -8.07225440	 11.40283611	 -11.64599560
Au	 -8.07225440	 11.40283611	 -14.55749449
Au	 -8.07225440	 11.40283611	 -17.46899339
Au	 -8.07225440	 11.40283611	 -20.38049229
Au	 -8.07225440	 11.40283611	 -23.29199119
Au	 -8.07225440	 11.40283611	 -26.20349009
Au	 -8.07225440	 11.40283611	 -29.11498899
Au	 -9.97785516	 12.78733611	 27.65923954
Au	 -9.97785516	 12.78733611	 24.74774064
Au	 -9.97785516	 12.78733611	 21.83624174
Au	 -9.97785516	 12.78733611	 18.92474284
Au	 -9.97785516	 12.78733611	 16.01324394
Au	 -9.97785516	 12.78733611	 13.10174505
Au	 -9.97785516	 12.78733611	 10.19024615
Au	 -9.97785516	 12.78733611	 7.27874725
Au	 -9.97785516	 12.78733611	 4.36724835
Au	 -9.97785516	 12.78733611	 1.45574945
Au	 -9.97785516	 12.78733611	 -1.45574945
Au	 -9.97785516	 12.78733611	 -4.36724835
Au	 -9.97785516	 12.78733611	 -7.27874725
Au	 -9.97785516	 12.78733611	 -10.19024615
Au	 -9.97785516	 12.78733611	 -13.10174505
Au	 -9.97785516	 12.78733611	 -16.01324394
Au	 -9.97785516	 12.78733611	 -18.92474284
Au	 -9.97785516	 12.78733611	 -21.83624174
Au	 -9.97785516	 12.78733611	 -24.74774064
Au	 -9.97785516	 12.78733611	 -27.65923954
Au	 -11.88345593	 14.17183611	 26.20349009
Au	 -11.88345593	 14.17183611	 23.29199119
Au	 -11.88345593	 14.17183611	 20.38049229
Au	 -11.88345593	 14.17183611	 17.46899339
Au	 -11.88345593	 14.17183611	 14.55749449
Au	 -11.88345593	 14.17183611	 11.64599560
Au	 -11.88345593	 14.17183611	 8.73449670
Au	 -11.88345593	 14.17183611	 5.82299780
Au	 -11.88345593	 14.17183611	 2.91149890
Au	 -11.88345593	 14.17183611	 0.00000000
Au	 -11.88345593	 14.17183611	 -2.91149890
Au	 -11.88345593	 14.17183611	 -5.82299780
Au	 -11.88345593	 14.17183611	 -8.73449670
Au	 -11.88345593	 14.17183611	 -11.64599560
Au	 -11.88345593	 14.17183611	 -14.55749449
Au	 -11.88345593	 14.17183611	 -17.46899339
Au	 -11.88345593	 14.17183611	 -20.38049229
Au	 -11.88345593	 14.17183611	 -23.29199119
Au	 -11.88345593	 14.17183611	 -26.20349009
Au	 -13.78905670	 15.55633611	 24.74774064
Au	 -13.78905670	 15.55633611	 21.83624174
Au	 -13.78905670	 15.55633611	 18.92474284
Au	 -13.78905670	 15.55633611	 16.01324394
Au	 -13.78905670	 15.55633611	 13.10174505
Au	 -13.78905670	 15.55633611	 10.19024615
Au	 -13.78905670	 15.55633611	 7.27874725
Au	 -13.78905670	 15.55633611	 4.36724835
Au	 -13.78905670	 15.55633611	 1.45574945
Au	 -13.78905670	 15.55633611	 -1.45574945
Au	 -13.78905670	 15.55633611	 -4.36724835
Au	 -13.78905670	 15.55633611	 -7.27874725
Au	 -13.78905670	 15.55633611	 -10.19024615
Au	 -13.78905670	 15.55633611	 -13.10174505
Au	 -13.78905670	 15.55633611	 -16.01324394
Au	 -13.78905670	 15.55633611	 -18.92474284
Au	 -13.78905670	 15.55633611	 -21.83624174
Au	 -13.78905670	 15.55633611	 -24.74774064
Au	 -15.69465747	 16.94083611	 23.29199119
Au	 -15.69465747	 16.94083611	 20.38049229
Au	 -15.69465747	 16.94083611	 17.46899339
Au	 -15.69465747	 16.94083611	 14.55749449
Au	 -15.69465747	 16.94083611	 11.64599560
Au	 -15.69465747	 16.94083611	 8.73449670
Au	 -15.69465747	 16.94083611	 5.82299780
Au	 -15.69465747	 16.94083611	 2.91149890
Au	 -15.69465747	 16.94083611	 0.00000000
Au	 -15.69465747	 16.94083611	 -2.91149890
Au	 -15.69465747	 16.94083611	 -5.82299780
Au	 -15.69465747	 16.94083611	 -8.73449670
Au	 -15.69465747	 16.94083611	 -11.64599560
Au	 -15.69465747	 16.94083611	 -14.55749449
Au	 -15.69465747	 16.94083611	 -17.46899339
Au	 -15.69465747	 16.94083611	 -20.38049229
Au	 -15.69465747	 16.94083611	 -23.29199119
Au	 -1.17772604	 3.62466806	 36.39373624
Au	 -1.17772604	 3.62466806	 33.48223734
Au	 -1.17772604	 3.62466806	 30.57073844
Au	 -1.17772604	 3.62466806	 27.65923954
Au	 -1.17772604	 3.62466806	 24.74774064
Au	 -1.17772604	 3.62466806	 21.83624174
Au	 -1.17772604	 3.62466806	 18.92474284
Au	 -1.17772604	 3.62466806	 16.01324394
Au	 -1.17772604	 3.62466806	 13.10174505
Au	 -1.17772604	 3.62466806	 10.19024615
Au	 -1.17772604	 3.62466806	 7.27874725
Au	 -1.17772604	 3.62466806	 4.36724835
Au	 -1.17772604	 3.62466806	 1.45574945
Au	 -1.17772604	 3.62466806	 -1.45574945
Au	 -1.17772604	 3.62466806	 -4.36724835
Au	 -1.17772604	 3.62466806	 -7.27874725
Au	 -1.17772604	 3.62466806	 -10.19024615
Au	 -1.17772604	 3.62466806	 -13.10174505
Au	 -1.17772604	 3.62466806	 -16.01324394
Au	 -1.17772604	 3.62466806	 -18.92474284
Au	 -1.17772604	 3.62466806	 -21.83624174
Au	 -1.17772604	 3.62466806	 -24.74774064
Au	 -1.17772604	 3.62466806	 -27.65923954
Au	 -1.17772604	 3.62466806	 -30.57073844
Au	 -1.17772604	 3.62466806	 -33.48223734
Au	 -1.17772604	 3.62466806	 -36.39373624
Au	 -3.08332681	 5.00916806	 34.93798679
Au	 -3.08332681	 5.00916806	 32.02648789
Au	 -3.08332681	 5.00916806	 29.11498899
Au	 -3.08332681	 5.00916806	 26.20349009
Au	 -3.08332681	 5.00916806	 23.29199119
Au	 -3.08332681	 5.00916806	 20.38049229
Au	 -3.08332681	 5.00916806	 17.46899339
Au	 -3.08332681	 5.00916806	 14.55749449
Au	 -3.08332681	 5.00916806	 11.64599560
Au	 -3.08332681	 5.00916806	 8.73449670
Au	 -3.08332681	 5.00916806	 5.82299780
Au	 -3.08332681	 5.00916806	 2.91149890
Au	 -3.08332681	 5.00916806	 0.00000000
Au	 -3.08332681	 5.00916806	 -2.91149890
Au	 -3.08332681	 5.00916806	 -5.82299780
Au	 -3.08332681	 5.00916806	 -8.73449670
Au	 -3.08332681	 5.00916806	 -11.64599560
Au	 -3.08332681	 5.00916806	 -14.55749449
Au	 -3.08332681	 5.00916806	 -17.46899339
Au	 -3.08332681	 5.00916806	 -20.38049229
Au	 -3.08332681	 5.00916806	 -23.29199119
Au	 -3.08332681	 5.00916806	 -26.20349009
Au	 -3.08332681	 5.00916806	 -29.11498899
Au	 -3.08332681	 5.00916806	 -32.02648789
Au	 -3.08332681	 5.00916806	 -34.93798679
Au	 -4.98892758	 6.39366806	 33.48223734
Au	 -4.98892758	 6.39366806	 30.57073844
Au	 -4.98892758	 6.39366806	 27.65923954
Au	 -4.98892758	 6.39366806	 24.74774064
Au	 -4.98892758	 6.39366806	 21.83624174
Au	 -4.98892758	 6.39366806	 18.92474284
Au	 -4.98892758	 6.39366806	 16.01324394
Au	 -4.98892758	 6.39366806	 13.10174505
Au	 -4.98892758	 6.39366806	 10.19024615
Au	 -4.98892758	 6.39366806	 7.27874725
Au	 -4.98892758	 6.39366806	 4.36724835
Au	 -4.98892758	 6.39366806	 1.45574945
Au	 -4.98892758	 6.39366806	 -1.45574945
Au	 -4.98892758	 6.39366806	 -4.36724835
Au	 -4.98892758	 6.39366806	 -7.27874725
Au	 -4.98892758	 6.39366806	 -10.19024615
Au	 -4.98892758	 6.39366806	 -13.10174505
Au	 -4.98892758	 6.39366806	 -16.01324394
Au	 -4.98892758	 6.39366806	 -18.92474284
Au	 -4.98892758	 6.39366806	 -21.83624174
Au	 -4.98892758	 6.39366806	 -24.74774064
Au	 -4.98892758	 6.39366806	 -27.65923954
Au	 -4.98892758	 6.39366806	 -30.57073844
Au	 -4.98892758	 6.39366806	 -33.48223734
Au	 -6.89452835	 7.77816806	 32.02648789
Au	 -6.89452835	 7.77816806	 29.11498899
Au	 -6.89452835	 7.77816806	 26.20349009
Au	 -6.89452835	 7.77816806	 23.29199119
Au	 -6.89452835	 7.77816806	 20.38049229
Au	 -6.89452835	 7.77816806	 17.46899339
Au	 -6.89452835	 7.77816806	 14.55749449
Au	 -6.89452835	 7.77816806	 11.64599560
Au	 -6.89452835	 7.77816806	 8.73449670
Au	 -6.89452835	 7.77816806	 5.82299780
Au	 -6.89452835	 7.77816806	 2.91149890
Au	 -6.89452835	 7.77816806	 0.00000000
Au	 -6.89452835	 7.77816806	 -2.91149890
Au	 -6.89452835	 7.77816806	 -5.82299780
Au	 -6.89452835	 7.77816806	 -8.73449670
Au	 -6.89452835	 7.77816806	 -11.64599560
Au	 -6.89452835	 7.77816806	 -14.55749449
Au	 -6.89452835	 7.77816806	 -17.46899339
Au	 -6.89452835	 7.77816806	 -20.38049229
Au	 -6.89452835	 7.77816806	 -23.29199119
Au	 -6.89452835	 7.77816806	 -26.20349009
Au	 -6.89452835	 7.77816806	 -29.11498899
Au	 -6.89452835	 7.77816806	 -32.02648789
Au	 -8.80012912	 9.16266806	 30.57073844
Au	 -8.80012912	 9.16266806	 27.65923954
Au	 -8.80012912	 9.16266806	 24.74774064
Au	 -8.80012912	 9.16266806	 21.83624174
Au	 -8.80012912	 9.16266806	 18.92474284
Au	 -8.80012912	 9.16266806	 16.01324394
Au	 -8.80012912	 9.16266806	 13.10174505
Au	 -8.80012912	 9.16266806	 10.19024615
Au	 -8.80012912	 9.16266806	 7.27874725
Au	 -8.80012912	 9.16266806	 4.36724835
Au	 -8.80012912	 9.16266806	 1.45574945
Au	 -8.80012912	 9.16266806	 -1.45574945
Au	 -8.80012912	 9.16266806	 -4.36724835
Au	 -8.80012912	 9.16266806	 -7.27874725
Au	 -8.80012912	 9.16266806	 -10.19024615
Au	 -8.80012912	 9.16266806	 -13.10174505
Au	 -8.80012912	 9.16266806	 -16.01324394
Au	 -8.80012912	 9.16266806	 -18.92474284
Au	 -8.80012912	 9.16266806	 -21.83624174
Au	 -8.80012912	 9.16266806	 -24.74774064
Au	 -8.80012912	 9.16266806	 -27.65923954
Au	 -8.80012912	 9.16266806	 -30.57073844
Au	 -10.70572989	 10.54716806	 29.11498899
Au	 -10.70572989	 10.54716806	 26.20349009
Au	 -10.70572989	 10.54716806	 23.29199119
Au	 -10.70572989	 10.54716806	 20.38049229
Au	 -10.70572989	 10.54716806	 17.46899339
Au	 -10.70572989	 10.54716806	 14.55749449
Au	 -10.70572989	 10.54716806	 11.64599560
Au	 -10.70572989	 10.54716806	 8.73449670
Au	 -10.70572989	 10.54716806	 5.82299780
Au	 -10.70572989	 10.54716806	 2.91149890
Au	 -10.70572989	 10.54716806	 0.00000000
Au	 -10.70572989	 10.54716806	 -2.91149890
Au	 -10.70572989	 10.54716806	 -5.82299780
Au	 -10.70572989	 10.54716806	 -8.73449670
Au	 -10.70572989	 10.54716806	 -11.64599560
Au	 -10.70572989	 10.54716806	 -14.55749449
Au	 -10.70572989	 10.54716806	 -17.46899339
Au	 -10.70572989	 10.54716806	 -20.38049229
Au	 -10.70572989	 10.54716806	 -23.29199119
Au	 -10.70572989	 10.54716806	 -26.20349009
Au	 -10.70572989	 10.54716806	 -29.11498899
Au	 -12.61133066	 11.93166806	 27.65923954
Au	 -12.61133066	 11.93166806	 24.74774064
Au	 -12.61133066	 11.93166806	 21.83624174
Au	 -12.61133066	 11.93166806	 18.92474284
Au	 -12.61133066	 11.93166806	 16.01324394
Au	 -12.61133066	 11.93166806	 13.10174505
Au	 -12.61133066	 11.93166806	 10.19024615
Au	 -12.61133066	 11.93166806	 7.27874725
Au	 -12.61133066	 11.93166806	 4.36724835
Au	 -12.61133066	 11.93166806	 1.45574945
Au	 -12.61133066	 11.93166806	 -1.45574945
Au	 -12.61133066	 11.93166806	 -4.36724835
Au	 -12.61133066	 11.93166806	 -7.27874725
Au	 -12.61133066	 11.93166806	 -10.19024615
Au	 -12.61133066	 11.93166806	 -13.10174505
Au	 -12.61133066	 11.93166806	 -16.01324394
Au	 -12.61133066	 11.93166806	 -18.92474284
Au	 -12.61133066	 11.93166806	 -21.83624174
Au	 -12.61133066	 11.93166806	 -24.74774064
Au	 -12.61133066	 11.93166806	 -27.65923954
Au	 -14.51693143	 13.31616806	 26.20349009
Au	 -14.51693143	 13.31616806	 23.29199119
Au	 -14.51693143	 13.31616806	 20.38049229
Au	 -14.51693143	 13.31616806	 17.46899339
Au	 -14.51693143	 13.31616806	 14.55749449
Au	 -14.51693143	 13.31616806	 11.64599560
Au	 -14.51693143	 13.31616806	 8.73449670
Au	 -14.51693143	 13.31616806	 5.82299780
Au	 -14.51693143	 13.31616806	 2.91149890
Au	 -14.51693143	 13.31616806	 -0.00000000
Au	 -14.51693143	 13.31616806	 -2.91149890
Au	 -14.51693143	 13.31616806	 -5.82299780
Au	 -14.51693143	 13.31616806	 -8.73449670
Au	 -14.51693143	 13.31616806	 -11.64599560
Au	 -14.51693143	 13.31616806	 -14.55749449
Au	 -14.51693143	 13.31616806	 -17.46899339
Au	 -14.51693143	 13.31616806	 -20.38049229
Au	 -14.51693143	 13.31616806	 -23.29199119
Au	 -14.51693143	 13.31616806	 -26.20349009
Au	 -16.42253220	 14.70066806	 24.74774064
Au	 -16.42253220	 14.70066806	 21.83624174
Au	 -16.42253220	 14.70066806	 18.92474284
Au	 -16.42253220	 14.70066806	 16.01324394
Au	 -16.42253220	 14.70066806	 13.10174505
Au	 -16.42253220	 14.70066806	 10.19024615
Au	 -16.42253220	 14.70066806	 7.27874725
Au	 -16.42253220	 14.70066806	 4.36724835
Au	 -16.42253220	 14.70066806	 1.45574945
Au	 -16.42253220	 14.70066806	 -1.45574945
Au	 -16.42253220	 14.70066806	 -4.36724835
Au	 -16.42253220	 14.70066806	 -7.27874725
Au	 -16.42253220	 14.70066806	 -10.19024615
Au	 -16.42253220	 14.70066806	 -13.10174505
Au	 -16.42253220	 14.70066806	 -16.01324394
Au	 -16.42253220	 14.70066806	 -18.92474284
Au	 -16.42253220	 14.70066806	 -21.83624174
Au	 -16.42253220	 14.70066806	 -24.74774064
Au	 -18.32813296	 16.08516806	 23.29199119
Au	 -18.32813296	 16.08516806	 20.38049229
Au	 -18.32813296	 16.08516806	 17.46899339
Au	 -18.32813296	 16.08516806	 14.55749449
Au	 -18.32813296	 16.08516806	 11.64599560
Au	 -18.32813296	 16.08516806	 8.73449670
Au	 -18.32813296	 16.08516806	 5.82299780
Au	 -18.32813296	 16.08516806	 2.91149890
Au	 -18.32813296	 16.08516806	 -0.00000000
Au	 -18.32813296	 16.08516806	 -2.91149890
Au	 -18.32813296	 16.08516806	 -5.82299780
Au	 -18.32813296	 16.08516806	 -8.73449670
Au	 -18.32813296	 16.08516806	 -11.64599560
Au	 -18.32813296	 16.08516806	 -14.55749449
Au	 -18.32813296	 16.08516806	 -17.46899339
Au	 -18.32813296	 16.08516806	 -20.38049229
Au	 -18.32813296	 16.08516806	 -23.29199119
Au	 -20.96160846	 12.46050000	 23.29199119
Au	 -20.96160846	 12.46050000	 20.38049229
Au	 -20.96160846	 12.46050000	 17.46899339
Au	 -20.96160846	 12.46050000	 14.55749449
Au	 -20.96160846	 12.46050000	 11.64599560
Au	 -20.96160846	 12.46050000	 8.73449670
Au	 -20.96160846	 12.46050000	 5.82299780
Au	 -20.96160846	 12.46050000	 2.91149890
Au	 -20.96160846	 12.46050000	 -0.00000000
Au	 -20.96160846	 12.46050000	 -2.91149890
Au	 -20.96160846	 12.46050000	 -5.82299780
Au	 -20.96160846	 12.46050000	 -8.73449670
Au	 -20.96160846	 12.46050000	 -11.64599560
Au	 -20.96160846	 12.46050000	 -14.55749449
Au	 -20.96160846	 12.46050000	 -17.46899339
Au	 -20.96160846	 12.46050000	 -20.38049229
Au	 -20.96160846	 12.46050000	 -23.29199119
Au	 -19.05600769	 11.07600000	 24.74774064
Au	 -19.05600769	 11.07600000	 21.83624174
Au	 -19.05600769	 11.07600000	 18.92474284
Au	 -19.05600769	 11.07600000	 16.01324394
Au	 -19.05600769	 11.07600000	 13.10174505
Au	 -19.05600769	 11.07600000	 10.19024615
Au	 -19.05600769	 11.07600000	 7.27874725
Au	 -19.05600769	 11.07600000	 4.36724835
Au	 -19.05600769	 11.07600000	 1.45574945
Au	 -19.05600769	 11.07600000	 -1.45574945
Au	 -19.05600769	 11.07600000	 -4.36724835
Au	 -19.05600769	 11.07600000	 -7.27874725
Au	 -19.05600769	 11.07600000	 -10.19024615
Au	 -19.05600769	 11.07600000	 -13.10174505
Au	 -19.05600769	 11.07600000	 -16.01324394
Au	 -19.05600769	 11.07600000	 -18.92474284
Au	 -19.05600769	 11.07600000	 -21.83624174
Au	 -19.05600769	 11.07600000	 -24.74774064
Au	 -20.96160846	 9.69150000	 23.29199119
Au	 -20.96160846	 9.69150000	 20.38049229
Au	 -20.96160846	 9.69150000	 17.46899339
Au	 -20.96160846	 9.69150000	 14.55749449
Au	 -20.96160846	 9.69150000	 11.64599560
Au	 -20.96160846	 9.69150000	 8.73449670
Au	 -20.96160846	 9.69150000	 5.82299780
Au	 -20.96160846	 9.69150000	 2.91149890
Au	 -20.96160846	 9.69150000	 -0.00000000
Au	 -20.96160846	 9.69150000	 -2.91149890
Au	 -20.96160846	 9.69150000	 -5.82299780
Au	 -20.96160846	 9.69150000	 -8.73449670
Au	 -20.96160846	 9.69150000	 -11.64599560
Au	 -20.96160846	 9.69150000	 -14.55749449
Au	 -20.96160846	 9.69150000	 -17.46899339
Au	 -20.96160846	 9.69150000	 -20.38049229
Au	 -20.96160846	 9.69150000	 -23.29199119
Au	 -17.15040692	 9.69150000	 26.20349009
Au	 -17.15040692	 9.69150000	 23.29199119
Au	 -17.15040692	 9.69150000	 20.38049229
Au	 -17.15040692	 9.69150000	 17.46899339
Au	 -17.15040692	 9.69150000	 14.55749449
Au	 -17.15040692	 9.69150000	 11.64599560
Au	 -17.15040692	 9.69150000	 8.73449670
Au	 -17.15040692	 9.69150000	 5.82299780
Au	 -17.15040692	 9.69150000	 2.91149890
Au	 -17.15040692	 9.69150000	 0.00000000
Au	 -17.15040692	 9.69150000	 -2.91149890
Au	 -17.15040692	 9.69150000	 -5.82299780
Au	 -17.15040692	 9.69150000	 -8.73449670
Au	 -17.15040692	 9.69150000	 -11.64599560
Au	 -17.15040692	 9.69150000	 -14.55749449
Au	 -17.15040692	 9.69150000	 -17.46899339
Au	 -17.15040692	 9.69150000	 -20.38049229
Au	 -17.15040692	 9.69150000	 -23.29199119
Au	 -17.15040692	 9.69150000	 -26.20349009
Au	 -19.05600769	 8.30700000	 24.74774064
Au	 -19.05600769	 8.30700000	 21.83624174
Au	 -19.05600769	 8.30700000	 18.92474284
Au	 -19.05600769	 8.30700000	 16.01324394
Au	 -19.05600769	 8.30700000	 13.10174505
Au	 -19.05600769	 8.30700000	 10.19024615
Au	 -19.05600769	 8.30700000	 7.27874725
Au	 -19.05600769	 8.30700000	 4.36724835
Au	 -19.05600769	 8.30700000	 1.45574945
Au	 -19.05600769	 8.30700000	 -1.45574945
Au	 -19.05600769	 8.30700000	 -4.36724835
Au	 -19.05600769	 8.30700000	 -7.27874725
Au	 -19.05600769	 8.30700000	 -10.19024615
Au	 -19.05600769	 8.30700000	 -13.10174505
Au	 -19.05600769	 8.30700000	 -16.01324394
Au	 -19.05600769	 8.30700000	 -18.92474284
Au	 -19.05600769	 8.30700000	 -21.83624174
Au	 -19.05600769	 8.30700000	 -24.74774064
Au	 -20.96160846	 6.92250000	 23.29199119
Au	 -20.96160846	 6.92250000	 20.38049229
Au	 -20.96160846	 6.92250000	 17.46899339
Au	 -20.96160846	 6.92250000	 14.55749449
Au	 -20.96160846	 6.92250000	 11.64599560
Au	 -20.96160846	 6.92250000	 8.73449670
Au	 -20.96160846	 6.92250000	 5.82299780
Au	 -20.96160846	 6.92250000	 2.91149890
Au	 -20.96160846	 6.92250000	 -0.00000000
Au	 -20.96160846	 6.92250000	 -2.91149890
Au	 -20.96160846	 6.92250000	 -5.82299780
Au	 -20.96160846	 6.92250000	 -8.73449670
Au	 -20.96160846	 6.92250000	 -11.64599560
Au	 -20.96160846	 6.92250000	 -14.55749449
Au	 -20.96160846	 6.92250000	 -17.46899339
Au	 -20.96160846	 6.92250000	 -20.38049229
Au	 -20.96160846	 6.92250000	 -23.29199119
Au	 -15.24480615	 8.30700000	 27.65923954
Au	 -15.24480615	 8.30700000	 24.74774064
Au	 -15.24480615	 8.30700000	 21.83624174
Au	 -15.24480615	 8.30700000	 18.92474284
Au	 -15.24480615	 8.30700000	 16.01324394
Au	 -15.24480615	 8.30700000	 13.10174505
Au	 -15.24480615	 8.30700000	 10.19024615
Au	 -15.24480615	 8.30700000	 7.27874725
Au	 -15.24480615	 8.30700000	 4.36724835
Au	 -15.24480615	 8.30700000	 1.45574945
Au	 -15.24480615	 8.30700000	 -1.45574945
Au	 -15.24480615	 8.30700000	 -4.36724835
Au	 -15.24480615	 8.30700000	 -7.27874725
Au	 -15.24480615	 8.30700000	 -10.19024615
Au	 -15.24480615	 8.30700000	 -13.10174505
Au	 -15.24480615	 8.30700000	 -16.01324394
Au	 -15.24480615	 8.30700000	 -18.92474284
Au	 -15.24480615	 8.30700000	 -21.83624174
Au	 -15.24480615	 8.30700000	 -24.74774064
Au	 -15.24480615	 8.30700000	 -27.65923954
Au	 -17.15040692	 6.92250000	 26.20349009
Au	 -17.15040692	 6.92250000	 23.29199119
Au	 -17.15040692	 6.92250000	 20.38049229
Au	 -17.15040692	 6.92250000	 17.46899339
Au	 -17.15040692	 6.92250000	 14.55749449
Au	 -17.15040692	 6.92250000	 11.64599560
Au	 -17.15040692	 6.92250000	 8.73449670
Au	 -17.15040692	 6.92250000	 5.82299780
Au	 -17.15040692	 6.92250000	 2.91149890
Au	 -17.15040692	 6.92250000	 -0.00000000
Au	 -17.15040692	 6.92250000	 -2.91149890
Au	 -17.15040692	 6.92250000	 -5.82299780
Au	 -17.15040692	 6.92250000	 -8.73449670
Au	 -17.15040692	 6.92250000	 -11.64599560
Au	 -17.15040692	 6.92250000	 -14.55749449
Au	 -17.15040692	 6.92250000	 -17.46899339
Au	 -17.15040692	 6.92250000	 -20.38049229
Au	 -17.15040692	 6.92250000	 -23.29199119
Au	 -17.15040692	 6.92250000	 -26.20349009
Au	 -19.05600769	 5.53800000	 24.74774064
Au	 -19.05600769	 5.53800000	 21.83624174
Au	 -19.05600769	 5.53800000	 18.92474284
Au	 -19.05600769	 5.53800000	 16.01324394
Au	 -19.05600769	 5.53800000	 13.10174505
Au	 -19.05600769	 5.53800000	 10.19024615
Au	 -19.05600769	 5.53800000	 7.27874725
Au	 -19.05600769	 5.53800000	 4.36724835
Au	 -19.05600769	 5.53800000	 1.45574945
Au	 -19.05600769	 5.53800000	 -1.45574945
Au	 -19.05600769	 5.53800000	 -4.36724835
Au	 -19.05600769	 5.53800000	 -7.27874725
Au	 -19.05600769	 5.53800000	 -10.19024615
Au	 -19.05600769	 5.53800000	 -13.10174505
Au	 -19.05600769	 5.53800000	 -16.01324394
Au	 -19.05600769	 5.53800000	 -18.92474284
Au	 -19.05600769	 5.53800000	 -21.83624174
Au	 -19.05600769	 5.53800000	 -24.74774064
Au	 -20.96160846	 4.15350000	 23.29199119
Au	 -20.96160846	 4.15350000	 20.38049229
Au	 -20.96160846	 4.15350000	 17.46899339
Au	 -20.96160846	 4.15350000	 14.55749449
Au	 -20.96160846	 4.15350000	 11.64599560
Au	 -20.96160846	 4.15350000	 8.73449670
Au	 -20.96160846	 4.15350000	 5.82299780
Au	 -20.96160846	 4.15350000	 2.91149890
Au	 -20.96160846	 4.15350000	 -0.00000000
Au	 -20.96160846	 4.15350000	 -2.91149890
Au	 -20.96160846	 4.15350000	 -5.82299780
Au	 -20.96160846	 4.15350000	 -8.73449670
Au	 -20.96160846	 4.15350000	 -11.64599560
Au	 -20.96160846	 4.15350000	 -14.55749449
Au	 -20.96160846	 4.15350000	 -17.46899339
Au	 -20.96160846	 4.15350000	 -20.38049229
Au	 -20.96160846	 4.15350000	 -23.29199119
Au	 -13.33920538	 6.92250000	 29.11498899
Au	 -13.33920538	 6.92250000	 26.20349009
Au	 -13.33920538	 6.92250000	 23.29199119
Au	 -13.33920538	 6.92250000	 20.38049229
Au	 -13.33920538	 6.92250000	 17.46899339
Au	 -13.33920538	 6.92250000	 14.55749449
Au	 -13.33920538	 6.92250000	 11.64599560
Au	 -13.33920538	 6.92250000	 8.73449670
Au	 -13.33920538	 6.92250000	 5.82299780
Au	 -13.33920538	 6.92250000	 2.91149890
Au	 -13.33920538	 6.92250000	 0.00000000
Au	 -13.33920538	 6.92250000	 -2.91149890
Au	 -13.33920538	 6.92250000	 -5.82299780
Au	 -13.33920538	 6.92250000	 -8.73449670
Au	 -13.33920538	 6.92250000	 -11.64599560
Au	 -13.33920538	 6.92250000	 -14.55749449
Au	 -13.33920538	 6.92250000	 -17.46899339
Au	 -13.33920538	 6.92250000	 -20.38049229
Au	 -13.33920538	 6.92250000	 -23.29199119
Au	 -13.33920538	 6.92250000	 -26.20349009
Au	 -13.33920538	 6.92250000	 -29.11498899
Au	 -15.24480615	 5.53800000	 27.65923954
Au	 -15.24480615	 5.53800000	 24.74774064
Au	 -15.24480615	 5.53800000	 21.83624174
Au	 -15.24480615	 5.53800000	 18.92474284
Au	 -15.24480615	 5.53800000	 16.01324394
Au	 -15.24480615	 5.53800000	 13.10174505
Au	 -15.24480615	 5.53800000	 10.19024615
Au	 -15.24480615	 5.53800000	 7.27874725
Au	 -15.24480615	 5.53800000	 4.36724835
Au	 -15.24480615	 5.53800000	 1.45574945
Au	 -15.24480615	 5.53800000	 -1.45574945
Au	 -15.24480615	 5.53800000	 -4.36724835
Au	 -15.24480615	 5.53800000	 -7.27874725
Au	 -15.24480615	 5.53800000	 -10.19024615
Au	 -15.24480615	 5.53800000	 -13.10174505
Au	 -15.24480615	 5.53800000	 -16.01324394
Au	 -15.24480615	 5.53800000	 -18.92474284
Au	 -15.24480615	 5.53800000	 -21.83624174
Au	 -15.24480615	 5.53800000	 -24.74774064
Au	 -15.24480615	 5.53800000	 -27.65923954
Au	 -17.15040692	 4.15350000	 26.20349009
Au	 -17.15040692	 4.15350000	 23.29199119
Au	 -17.15040692	 4.15350000	 20.38049229
Au	 -17.15040692	 4.15350000	 17.46899339
Au	 -17.15040692	 4.15350000	 14.55749449
Au	 -17.15040692	 4.15350000	 11.64599560
Au	 -17.15040692	 4.15350000	 8.73449670
Au	 -17.15040692	 4.15350000	 5.82299780
Au	 -17.15040692	 4.15350000	 2.91149890
Au	 -17.15040692	 4.15350000	 0.00000000
Au	 -17.15040692	 4.15350000	 -2.91149890
Au	 -17.15040692	 4.15350000	 -5.82299780
Au	 -17.15040692	 4.15350000	 -8.73449670
Au	 -17.15040692	 4.15350000	 -11.64599560
Au	 -17.15040692	 4.15350000	 -14.55749449
Au	 -17.15040692	 4.15350000	 -17.46899339
Au	 -17.15040692	 4.15350000	 -20.38049229
Au	 -17.15040692	 4.15350000	 -23.29199119
Au	 -17.15040692	 4.15350000	 -26.20349009
Au	 -19.05600769	 2.76900000	 24.74774064
Au	 -19.05600769	 2.76900000	 21.83624174
Au	 -19.05600769	 2.76900000	 18.92474284
Au	 -19.05600769	 2.76900000	 16.01324394
Au	 -19.05600769	 2.76900000	 13.10174505
Au	 -19.05600769	 2.76900000	 10.19024615
Au	 -19.05600769	 2.76900000	 7.27874725
Au	 -19.05600769	 2.76900000	 4.36724835
Au	 -19.05600769	 2.76900000	 1.45574945
Au	 -19.05600769	 2.76900000	 -1.45574945
Au	 -19.05600769	 2.76900000	 -4.36724835
Au	 -19.05600769	 2.76900000	 -7.27874725
Au	 -19.05600769	 2.76900000	 -10.19024615
Au	 -19.05600769	 2.76900000	 -13.10174505
Au	 -19.05600769	 2.76900000	 -16.01324394
Au	 -19.05600769	 2.76900000	 -18.92474284
Au	 -19.05600769	 2.76900000	 -21.83624174
Au	 -19.05600769	 2.76900000	 -24.74774064
Au	 -20.96160846	 1.38450000	 23.29199119
Au	 -20.96160846	 1.38450000	 20.38049229
Au	 -20.96160846	 1.38450000	 17.46899339
Au	 -20.96160846	 1.38450000	 14.55749449
Au	 -20.96160846	 1.38450000	 11.64599560
Au	 -20.96160846	 1.38450000	 8.73449670
Au	 -20.96160846	 1.38450000	 5.82299780
Au	 -20.96160846	 1.38450000	 2.91149890
Au	 -20.96160846	 1.38450000	 0.00000000
Au	 -20.96160846	 1.38450000	 -2.91149890
Au	 -20.96160846	 1.38450000	 -5.82299780
Au	 -20.96160846	 1.38450000	 -8.73449670
Au	 -20.96160846	 1.38450000	 -11.64599560
Au	 -20.96160846	 1.38450000	 -14.55749449
Au	 -20.96160846	 1.38450000	 -17.46899339
Au	 -20.96160846	 1.38450000	 -20.38049229
Au	 -20.96160846	 1.38450000	 -23.29199119
Au	 -11.43360461	 5.53800000	 30.57073844
Au	 -11.43360461	 5.53800000	 27.65923954
Au	 -11.43360461	 5.53800000	 24.74774064
Au	 -11.43360461	 5.53800000	 21.83624174
Au	 -11.43360461	 5.53800000	 18.92474284
Au	 -11.43360461	 5.53800000	 16.01324394
Au	 -11.43360461	 5.53800000	 13.10174505
Au	 -11.43360461	 5.53800000	 10.19024615
Au	 -11.43360461	 5.53800000	 7.27874725
Au	 -11.43360461	 5.53800000	 4.36724835
Au	 -11.43360461	 5.53800000	 1.45574945
Au	 -11.43360461	 5.53800000	 -1.45574945
Au	 -11.43360461	 5.53800000	 -4.36724835
Au	 -11.43360461	 5.53800000	 -7.27874725
Au	 -11.43360461	 5.53800000	 -10.19024615
Au	 -11.43360461	 5.53800000	 -13.10174505
Au	 -11.43360461	 5.53800000	 -16.01324394
Au	 -11.43360461	 5.53800000	 -18.92474284
Au	 -11.43360461	 5.53800000	 -21.83624174
Au	 -11.43360461	 5.53800000	 -24.74774064
Au	 -11.43360461	 5.53800000	 -27.65923954
Au	 -11.43360461	 5.53800000	 -30.57073844
Au	 -13.33920538	 4.15350000	 29.11498899
Au	 -13.33920538	 4.15350000	 26.20349009
Au	 -13.33920538	 4.15350000	 23.29199119
Au	 -13.33920538	 4.15350000	 20.38049229
Au	 -13.33920538	 4.15350000	 17.46899339
Au	 -13.33920538	 4.15350000	 14.55749449
Au	 -13.33920538	 4.15350000	 11.64599560
Au	 -13.33920538	 4.15350000	 8.73449670
Au	 -13.33920538	 4.15350000	 5.82299780
Au	 -13.33920538	 4.15350000	 2.91149890
Au	 -13.33920538	 4.15350000	 0.00000000
Au	 -13.33920538	 4.15350000	 -2.91149890
Au	 -13.33920538	 4.15350000	 -5.82299780
Au	 -13.33920538	 4.15350000	 -8.73449670
Au	 -13.33920538	 4.15350000	 -11.64599560
Au	 -13.33920538	 4.15350000	 -14.55749449
Au	 -13.33920538	 4.15350000	 -17.46899339
Au	 -13.33920538	 4.15350000	 -20.38049229
Au	 -13.33920538	 4.15350000	 -23.29199119
Au	 -13.33920538	 4.15350000	 -26.20349009
Au	 -13.33920538	 4.15350000	 -29.11498899
Au	 -15.24480615	 2.76900000	 27.65923954
Au	 -15.24480615	 2.76900000	 24.74774064
Au	 -15.24480615	 2.76900000	 21.83624174
Au	 -15.24480615	 2.76900000	 18.92474284
Au	 -15.24480615	 2.76900000	 16.01324394
Au	 -15.24480615	 2.76900000	 13.10174505
Au	 -15.24480615	 2.76900000	 10.19024615
Au	 -15.24480615	 2.76900000	 7.27874725
Au	 -15.24480615	 2.76900000	 4.36724835
Au	 -15.24480615	 2.76900000	 1.45574945
Au	 -15.24480615	 2.76900000	 -1.45574945
Au	 -15.24480615	 2.76900000	 -4.36724835
Au	 -15.24480615	 2.76900000	 -7.27874725
Au	 -15.24480615	 2.76900000	 -10.19024615
Au	 -15.24480615	 2.76900000	 -13.10174505
Au	 -15.24480615	 2.76900000	 -16.01324394
Au	 -15.24480615	 2.76900000	 -18.92474284
Au	 -15.24480615	 2.76900000	 -21.83624174
Au	 -15.24480615	 2.76900000	 -24.74774064
Au	 -15.24480615	 2.76900000	 -27.65923954
Au	 -17.15040692	 1.38450000	 26.20349009
Au	 -17.15040692	 1.38450000	 23.29199119
Au	 -17.15040692	 1.38450000	 20.38049229
Au	 -17.15040692	 1.38450000	 17.46899339
Au	 -17.15040692	 1.38450000	 14.55749449
Au	 -17.15040692	 1.38450000	 11.64599560
Au	 -17.15040692	 1.38450000	 8.73449670
Au	 -17.15040692	 1.38450000	 5.82299780
Au	 -17.15040692	 1.38450000	 2.91149890
Au	 -17.15040692	 1.38450000	 -0.00000000
Au	 -17.15040692	 1.38450000	 -2.91149890
Au	 -17.15040692	 1.38450000	 -5.82299780
Au	 -17.15040692	 1.38450000	 -8.73449670
Au	 -17.15040692	 1.38450000	 -11.64599560
Au	 -17.15040692	 1.38450000	 -14.55749449
Au	 -17.15040692	 1.38450000	 -17.46899339
Au	 -17.15040692	 1.38450000	 -20.38049229
Au	 -17.15040692	 1.38450000	 -23.29199119
Au	 -17.15040692	 1.38450000	 -26.20349009
Au	 -19.05600769	 0.00000000	 24.74774064
Au	 -19.05600769	 0.00000000	 21.83624174
Au	 -19.05600769	 0.00000000	 18.92474284
Au	 -19.05600769	 0.00000000	 16.01324394
Au	 -19.05600769	 0.00000000	 13.10174505
Au	 -19.05600769	 0.00000000	 10.19024615
Au	 -19.05600769	 0.00000000	 7.27874725
Au	 -19.05600769	 0.00000000	 4.36724835
Au	 -19.05600769	 0.00000000	 1.45574945
Au	 -19.05600769	 0.00000000	 -1.45574945
Au	 -19.05600769	 0.00000000	 -4.36724835
Au	 -19.05600769	 0.00000000	 -7.27874725
Au	 -19.05600769	 0.00000000	 -10.19024615
Au	 -19.05600769	 0.00000000	 -13.10174505
Au	 -19.05600769	 0.00000000	 -16.01324394
Au	 -19.05600769	 0.00000000	 -18.92474284
Au	 -19.05600769	 0.00000000	 -21.83624174
Au	 -19.05600769	 0.00000000	 -24.74774064
Au	 -20.96160846	 -1.38450000	 23.29199119
Au	 -20.96160846	 -1.38450000	 20.38049229
Au	 -20.96160846	 -1.38450000	 17.46899339
Au	 -20.96160846	 -1.38450000	 14.55749449
Au	 -20.96160846	 -1.38450000	 11.64599560
Au	 -20.96160846	 -1.38450000	 8.73449670
Au	 -20.96160846	 -1.38450000	 5.82299780
Au	 -20.96160846	 -1.38450000	 2.91149890
Au	 -20.96160846	 -1.38450000	 -0.00000000
Au	 -20.96160846	 -1.38450000	 -2.91149890
Au	 -20.96160846	 -1.38450000	 -5.82299780
Au	 -20.96160846	 -1.38450000	 -8.73449670
Au	 -20.96160846	 -1.38450000	 -11.64599560
Au	 -20.96160846	 -1.38450000	 -14.55749449
Au	 -20.96160846	 -1.38450000	 -17.46899339
Au	 -20.96160846	 -1.38450000	 -20.38049229
Au	 -20.96160846	 -1.38450000	 -23.29199119
Au	 -9.52800384	 4.15350000	 32.02648789
Au	 -9.52800384	 4.15350000	 29.11498899
Au	 -9.52800384	 4.15350000	 26.20349009
Au	 -9.52800384	 4.15350000	 23.29199119
Au	 -9.52800384	 4.15350000	 20.38049229
Au	 -9.52800384	 4.15350000	 17.46899339
Au	 -9.52800384	 4.15350000	 14.55749449
Au	 -9.52800384	 4.15350000	 11.64599560
Au	 -9.52800384	 4.15350000	 8.73449670
Au	 -9.52800384	 4.15350000	 5.82299780
Au	 -9.52800384	 4.15350000	 2.91149890
Au	 -9.52800384	 4.15350000	 0.00000000
Au	 -9.52800384	 4.15350000	 -2.91149890
Au	 -9.52800384	 4.15350000	 -5.82299780
Au	 -9.52800384	 4.15350000	 -8.73449670
Au	 -9.52800384	 4.15350000	 -11.64599560
Au	 -9.52800384	 4.15350000	 -14.55749449
Au	 -9.52800384	 4.15350000	 -17.46899339
Au	 -9.52800384	 4.15350000	 -20.38049229
Au	 -9.52800384	 4.15350000	 -23.29199119
Au	 -9.52800384	 4.15350000	 -26.20349009
Au	 -9.52800384	 4.15350000	 -29.11498899
Au	 -9.52800384	 4.15350000	 -32.02648789
Au	 -11.43360461	 2.76900000	 30.57073844
Au	 -11.43360461	 2.76900000	 27.65923954
Au	 -11.43360461	 2.76900000	 24.74774064
Au	 -11.43360461	 2.76900000	 21.83624174
Au	 -11.43360461	 2.76900000	 18.92474284
Au	 -11.43360461	 2.76900000	 16.01324394
Au	 -11.43360461	 2.76900000	 13.10174505
Au	 -11.43360461	 2.76900000	 10.19024615
Au	 -11.43360461	 2.76900000	 7.27874725
Au	 -11.43360461	 2.76900000	 4.36724835
Au	 -11.43360461	 2.76900000	 1.45574945
Au	 -11.43360461	 2.76900000	 -1.45574945
Au	 -11.43360461	 2.76900000	 -4.36724835
Au	 -11.43360461	 2.76900000	 -7.27874725
Au	 -11.43360461	 2.76900000	 -10.19024615
Au	 -11.43360461	 2.76900000	 -13.10174505
Au	 -11.43360461	 2.76900000	 -16.01324394
Au	 -11.43360461	 2.76900000	 -18.92474284
Au	 -11.43360461	 2.76900000	 -21.83624174
Au	 -11.43360461	 2.76900000	 -24.74774064
Au	 -11.43360461	 2.76900000	 -27.65923954
Au	 -11.43360461	 2.76900000	 -30.57073844
Au	 -13.33920538	 1.38450000	 29.11498899
Au	 -13.33920538	 1.38450000	 26.20349009
Au	 -13.33920538	 1.38450000	 23.29199119
Au	 -13.33920538	 1.38450000	 20.38049229
Au	 -13.33920538	 1.38450000	 17.46899339
Au	 -13.33920538	 1.38450000	 14.55749449
Au	 -13.33920538	 1.38450000	 11.64599560
Au	 -13.33920538	 1.38450000	 8.73449670
Au	 -13.33920538	 1.38450000	 5.82299780
Au	 -13.33920538	 1.38450000	 2.91149890
Au	 -13.33920538	 1.38450000	 0.00000000
Au	 -13.33920538	 1.38450000	 -2.91149890
Au	 -13.33920538	 1.38450000	 -5.82299780
Au	 -13.33920538	 1.38450000	 -8.73449670
Au	 -13.33920538	 1.38450000	 -11.64599560
Au	 -13.33920538	 1.38450000	 -14.55749449
Au	 -13.33920538	 1.38450000	 -17.46899339
Au	 -13.33920538	 1.38450000	 -20.38049229
Au	 -13.33920538	 1.38450000	 -23.29199119
Au	 -13.33920538	 1.38450000	 -26.20349009
Au	 -13.33920538	 1.38450000	 -29.11498899
Au	 -15.24480615	 0.00000000	 27.65923954
Au	 -15.24480615	 0.00000000	 24.74774064
Au	 -15.24480615	 0.00000000	 21.83624174
Au	 -15.24480615	 0.00000000	 18.92474284
Au	 -15.24480615	 0.00000000	 16.01324394
Au	 -15.24480615	 0.00000000	 13.10174505
Au	 -15.24480615	 0.00000000	 10.19024615
Au	 -15.24480615	 0.00000000	 7.27874725
Au	 -15.24480615	 0.00000000	 4.36724835
Au	 -15.24480615	 0.00000000	 1.45574945
Au	 -15.24480615	 0.00000000	 -1.45574945
Au	 -15.24480615	 0.00000000	 -4.36724835
Au	 -15.24480615	 0.00000000	 -7.27874725
Au	 -15.24480615	 0.00000000	 -10.19024615
Au	 -15.24480615	 0.00000000	 -13.10174505
Au	 -15.24480615	 0.00000000	 -16.01324394
Au	 -15.24480615	 0.00000000	 -18.92474284
Au	 -15.24480615	 0.00000000	 -21.83624174
Au	 -15.24480615	 0.00000000	 -24.74774064
Au	 -15.24480615	 0.00000000	 -27.65923954
Au	 -17.15040692	 -1.38450000	 26.20349009
Au	 -17.15040692	 -1.38450000	 23.29199119
Au	 -17.15040692	 -1.38450000	 20.38049229
Au	 -17.15040692	 -1.38450000	 17.46899339
Au	 -17.15040692	 -1.38450000	 14.55749449
Au	 -17.15040692	 -1.38450000	 11.64599560
Au	 -17.15040692	 -1.38450000	 8.73449670
Au	 -17.15040692	 -1.38450000	 5.82299780
Au	 -17.15040692	 -1.38450000	 2.91149890
Au	 -17.15040692	 -1.38450000	 -0.00000000
Au	 -17.15040692	 -1.38450000	 -2.91149890
Au	 -17.15040692	 -1.38450000	 -5.82299780
Au	 -17.15040692	 -1.38450000	 -8.73449670
Au	 -17.15040692	 -1.38450000	 -11.64599560
Au	 -17.15040692	 -1.38450000	 -14.55749449
Au	 -17.15040692	 -1.38450000	 -17.46899339
Au	 -17.15040692	 -1.38450000	 -20.38049229
Au	 -17.15040692	 -1.38450000	 -23.29199119
Au	 -17.15040692	 -1.38450000	 -26.20349009
Au	 -19.05600769	 -2.76900000	 24.74774064
Au	 -19.05600769	 -2.76900000	 21.83624174
Au	 -19.05600769	 -2.76900000	 18.92474284
Au	 -19.05600769	 -2.76900000	 16.01324394
Au	 -19.05600769	 -2.76900000	 13.10174505
Au	 -19.05600769	 -2.76900000	 10.19024615
Au	 -19.05600769	 -2.76900000	 7.27874725
Au	 -19.05600769	 -2.76900000	 4.36724835
Au	 -19.05600769	 -2.76900000	 1.45574945
Au	 -19.05600769	 -2.76900000	 -1.45574945
Au	 -19.05600769	 -2.76900000	 -4.36724835
Au	 -19.05600769	 -2.76900000	 -7.27874725
Au	 -19.05600769	 -2.76900000	 -10.19024615
Au	 -19.05600769	 -2.76900000	 -13.10174505
Au	 -19.05600769	 -2.76900000	 -16.01324394
Au	 -19.05600769	 -2.76900000	 -18.92474284
Au	 -19.05600769	 -2.76900000	 -21.83624174
Au	 -19.05600769	 -2.76900000	 -24.74774064
Au	 -20.96160846	 -4.15350000	 23.29199119
Au	 -20.96160846	 -4.15350000	 20.38049229
Au	 -20.96160846	 -4.15350000	 17.46899339
Au	 -20.96160846	 -4.15350000	 14.55749449
Au	 -20.96160846	 -4.15350000	 11.64599560
Au	 -20.96160846	 -4.15350000	 8.73449670
Au	 -20.96160846	 -4.15350000	 5.82299780
Au	 -20.96160846	 -4.15350000	 2.91149890
Au	 -20.96160846	 -4.15350000	 -0.00000000
Au	 -20.96160846	 -4.15350000	 -2.91149890
Au	 -20.96160846	 -4.15350000	 -5.82299780
Au	 -20.96160846	 -4.15350000	 -8.73449670
Au	 -20.96160846	 -4.15350000	 -11.64599560
Au	 -20.96160846	 -4.15350000	 -14.55749449
Au	 -20.96160846	 -4.15350000	 -17.46899339
Au	 -20.96160846	 -4.15350000	 -20.38049229
Au	 -20.96160846	 -4.15350000	 -23.29199119
Au	 -7.62240308	 2.76900000	 33.48223734
Au	 -7.62240308	 2.76900000	 30.57073844
Au	 -7.62240308	 2.76900000	 27.65923954
Au	 -7.62240308	 2.76900000	 24.74774064
Au	 -7.62240308	 2.76900000	 21.83624174
Au	 -7.62240308	 2.76900000	 18.92474284
Au	 -7.62240308	 2.76900000	 16.01324394
Au	 -7.62240308	 2.76900000	 13.10174505
Au	 -7.62240308	 2.76900000	 10.19024615
Au	 -7.62240308	 2.76900000	 7.27874725
Au	 -7.62240308	 2.76900000	 4.36724835
Au	 -7.62240308	 2.76900000	 1.45574945
Au	 -7.62240308	 2.76900000	 -1.45574945
Au	 -7.62240308	 2.76900000	 -4.36724835
Au	 -7.62240308	 2.76900000	 -7.27874725
Au	 -7.62240308	 2.76900000	 -10.19024615
Au	 -7.62240308	 2.76900000	 -13.10174505
Au	 -7.62240308	 2.76900000	 -16.01324394
Au	 -7.62240308	 2.76900000	 -18.92474284
Au	 -7.62240308	 2.76900000	 -21.83624174
Au	 -7.62240308	 2.76900000	 -24.74774064
Au	 -7.62240308	 2.76900000	 -27.65923954
Au	 -7.62240308	 2.76900000	 -30.57073844
Au	 -7.62240308	 2.76900000	 -33.48223734
Au	 -9.52800384	 1.38450000	 32.02648789
Au	 -9.52800384	 1.38450000	 29.11498899
Au	 -9.52800384	 1.38450000	 26.20349009
Au	 -9.52800384	 1.38450000	 23.29199119
Au	 -9.52800384	 1.38450000	 20.38049229
Au	 -9.52800384	 1.38450000	 17.46899339
Au	 -9.52800384	 1.38450000	 14.55749449
Au	 -9.52800384	 1.38450000	 11.64599560
Au	 -9.52800384	 1.38450000	 8.73449670
Au	 -9.52800384	 1.38450000	 5.82299780
Au	 -9.52800384	 1.38450000	 2.91149890
Au	 -9.52800384	 1.38450000	 0.00000000
Au	 -9.52800384	 1.38450000	 -2.91149890
Au	 -9.52800384	 1.38450000	 -5.82299780
Au	 -9.52800384	 1.38450000	 -8.73449670
Au	 -9.52800384	 1.38450000	 -11.64599560
Au	 -9.52800384	 1.38450000	 -14.55749449
Au	 -9.52800384	 1.38450000	 -17.46899339
Au	 -9.52800384	 1.38450000	 -20.38049229
Au	 -9.52800384	 1.38450000	 -23.29199119
Au	 -9.52800384	 1.38450000	 -26.20349009
Au	 -9.52800384	 1.38450000	 -29.11498899
Au	 -9.52800384	 1.38450000	 -32.02648789
Au	 -11.43360461	 -0.00000000	 30.57073844
Au	 -11.43360461	 -0.00000000	 27.65923954
Au	 -11.43360461	 -0.00000000	 24.74774064
Au	 -11.43360461	 -0.00000000	 21.83624174
Au	 -11.43360461	 -0.00000000	 18.92474284
Au	 -11.43360461	 -0.00000000	 16.01324394
Au	 -11.43360461	 -0.00000000	 13.10174505
Au	 -11.43360461	 -0.00000000	 10.19024615
Au	 -11.43360461	 -0.00000000	 7.27874725
Au	 -11.43360461	 -0.00000000	 4.36724835
Au	 -11.43360461	 -0.00000000	 1.45574945
Au	 -11.43360461	 -0.00000000	 -1.45574945
Au	 -11.43360461	 -0.00000000	 -4.36724835
Au	 -11.43360461	 -0.00000000	 -7.27874725
Au	 -11.43360461	 -0.00000000	 -10.19024615
Au	 -11.43360461	 -0.00000000	 -13.10174505
Au	 -11.43360461	 -0.00000000	 -16.01324394
Au	 -11.43360461	 -0.00000000	 -18.92474284
Au	 -11.43360461	 -0.00000000	 -21.83624174
Au	 -11.43360461	 -0.00000000	 -24.74774064
Au	 -11.43360461	 -0.00000000	 -27.65923954
Au	 -11.43360461	 -0.00000000	 -30.57073844
Au	 -13.33920538	 -1.38450000	 29.11498899
Au	 -13.33920538	 -1.38450000	 26.20349009
Au	 -13.33920538	 -1.38450000	 23.29199119
Au	 -13.33920538	 -1.38450000	 20.38049229
Au	 -13.33920538	 -1.38450000	 17.46899339
Au	 -13.33920538	 -1.38450000	 14.55749449
Au	 -13.33920538	 -1.38450000	 11.64599560
Au	 -13.33920538	 -1.38450000	 8.73449670
Au	 -13.33920538	 -1.38450000	 5.82299780
Au	 -13.33920538	 -1.38450000	 2.91149890
Au	 -13.33920538	 -1.38450000	 0.00000000
Au	 -13.33920538	 -1.38450000	 -2.91149890
Au	 -13.33920538	 -1.38450000	 -5.82299780
Au	 -13.33920538	 -1.38450000	 -8.73449670
Au	 -13.33920538	 -1.38450000	 -11.64599560
Au	 -13.33920538	 -1.38450000	 -14.55749449
Au	 -13.33920538	 -1.38450000	 -17.46899339
Au	 -13.33920538	 -1.38450000	 -20.38049229
Au	 -13.33920538	 -1.38450000	 -23.29199119
Au	 -13.33920538	 -1.38450000	 -26.20349009
Au	 -13.33920538	 -1.38450000	 -29.11498899
Au	 -15.24480615	 -2.76900000	 27.65923954
Au	 -15.24480615	 -2.76900000	 24.74774064
Au	 -15.24480615	 -2.76900000	 21.83624174
Au	 -15.24480615	 -2.76900000	 18.92474284
Au	 -15.24480615	 -2.76900000	 16.01324394
Au	 -15.24480615	 -2.76900000	 13.10174505
Au	 -15.24480615	 -2.76900000	 10.19024615
Au	 -15.24480615	 -2.76900000	 7.27874725
Au	 -15.24480615	 -2.76900000	 4.36724835
Au	 -15.24480615	 -2.76900000	 1.45574945
Au	 -15.24480615	 -2.76900000	 -1.45574945
Au	 -15.24480615	 -2.76900000	 -4.36724835
Au	 -15.24480615	 -2.76900000	 -7.27874725
Au	 -15.24480615	 -2.76900000	 -10.19024615
Au	 -15.24480615	 -2.76900000	 -13.10174505
Au	 -15.24480615	 -2.76900000	 -16.01324394
Au	 -15.24480615	 -2.76900000	 -18.92474284
Au	 -15.24480615	 -2.76900000	 -21.83624174
Au	 -15.24480615	 -2.76900000	 -24.74774064
Au	 -15.24480615	 -2.76900000	 -27.65923954
Au	 -17.15040692	 -4.15350000	 26.20349009
Au	 -17.15040692	 -4.15350000	 23.29199119
Au	 -17.15040692	 -4.15350000	 20.38049229
Au	 -17.15040692	 -4.15350000	 17.46899339
Au	 -17.15040692	 -4.15350000	 14.55749449
Au	 -17.15040692	 -4.15350000	 11.64599560
Au	 -17.15040692	 -4.15350000	 8.73449670
Au	 -17.15040692	 -4.15350000	 5.82299780
Au	 -17.15040692	 -4.15350000	 2.91149890
Au	 -17.15040692	 -4.15350000	 0.00000000
Au	 -17.15040692	 -4.15350000	 -2.91149890
Au	 -17.15040692	 -4.15350000	 -5.82299780
Au	 -17.15040692	 -4.15350000	 -8.73449670
Au	 -17.15040692	 -4.15350000	 -11.64599560
Au	 -17.15040692	 -4.15350000	 -14.55749449
Au	 -17.15040692	 -4.15350000	 -17.46899339
Au	 -17.15040692	 -4.15350000	 -20.38049229
Au	 -17.15040692	 -4.15350000	 -23.29199119
Au	 -17.15040692	 -4.15350000	 -26.20349009
Au	 -19.05600769	 -5.53800000	 24.74774064
Au	 -19.05600769	 -5.53800000	 21.83624174
Au	 -19.05600769	 -5.53800000	 18.92474284
Au	 -19.05600769	 -5.53800000	 16.01324394
Au	 -19.05600769	 -5.53800000	 13.10174505
Au	 -19.05600769	 -5.53800000	 10.19024615
Au	 -19.05600769	 -5.53800000	 7.27874725
Au	 -19.05600769	 -5.53800000	 4.36724835
Au	 -19.05600769	 -5.53800000	 1.45574945
Au	 -19.05600769	 -5.53800000	 -1.45574945
Au	 -19.05600769	 -5.53800000	 -4.36724835
Au	 -19.05600769	 -5.53800000	 -7.27874725
Au	 -19.05600769	 -5.53800000	 -10.19024615
Au	 -19.05600769	 -5.53800000	 -13.10174505
Au	 -19.05600769	 -5.53800000	 -16.01324394
Au	 -19.05600769	 -5.53800000	 -18.92474284
Au	 -19.05600769	 -5.53800000	 -21.83624174
Au	 -19.05600769	 -5.53800000	 -24.74774064
Au	 -20.96160846	 -6.92250000	 23.29199119
Au	 -20.96160846	 -6.92250000	 20.38049229
Au	 -20.96160846	 -6.92250000	 17.46899339
Au	 -20.96160846	 -6.92250000	 14.55749449
Au	 -20.96160846	 -6.92250000	 11.64599560
Au	 -20.96160846	 -6.92250000	 8.73449670
Au	 -20.96160846	 -6.92250000	 5.82299780
Au	 -20.96160846	 -6.92250000	 2.91149890
Au	 -20.96160846	 -6.92250000	 -0.00000000
Au	 -20.96160846	 -6.92250000	 -2.91149890
Au	 -20.96160846	 -6.92250000	 -5.82299780
Au	 -20.96160846	 -6.92250000	 -8.73449670
Au	 -20.96160846	 -6.92250000	 -11.64599560
Au	 -20.96160846	 -6.92250000	 -14.55749449
Au	 -20.96160846	 -6.92250000	 -17.46899339
Au	 -20.96160846	 -6.92250000	 -20.38049229
Au	 -20.96160846	 -6.92250000	 -23.29199119
Au	 -5.71680231	 1.38450000	 34.93798679
Au	 -5.71680231	 1.38450000	 32.02648789
Au	 -5.71680231	 1.38450000	 29.11498899
Au	 -5.71680231	 1.38450000	 26.20349009
Au	 -5.71680231	 1.38450000	 23.29199119
Au	 -5.71680231	 1.38450000	 20.38049229
Au	 -5.71680231	 1.38450000	 17.46899339
Au	 -5.71680231	 1.38450000	 14.55749449
Au	 -5.71680231	 1.38450000	 11.64599560
Au	 -5.71680231	 1.38450000	 8.73449670
Au	 -5.71680231	 1.38450000	 5.82299780
Au	 -5.71680231	 1.38450000	 2.91149890
Au	 -5.71680231	 1.38450000	 0.00000000
Au	 -5.71680231	 1.38450000	 -2.91149890
Au	 -5.71680231	 1.38450000	 -5.82299780
Au	 -5.71680231	 1.38450000	 -8.73449670
Au	 -5.71680231	 1.38450000	 -11.64599560
Au	 -5.71680231	 1.38450000	 -14.55749449
Au	 -5.71680231	 1.38450000	 -17.46899339
Au	 -5.71680231	 1.38450000	 -20.38049229
Au	 -5.71680231	 1.38450000	 -23.29199119
Au	 -5.71680231	 1.38450000	 -26.20349009
Au	 -5.71680231	 1.38450000	 -29.11498899
Au	 -5.71680231	 1.38450000	 -32.02648789
Au	 -5.71680231	 1.38450000	 -34.93798679
Au	 -7.62240308	 0.00000000	 33.48223734
Au	 -7.62240308	 0.00000000	 30.57073844
Au	 -7.62240308	 0.00000000	 27.65923954
Au	 -7.62240308	 0.00000000	 24.74774064
Au	 -7.62240308	 0.00000000	 21.83624174
Au	 -7.62240308	 0.00000000	 18.92474284
Au	 -7.62240308	 0.00000000	 16.01324394
Au	 -7.62240308	 0.00000000	 13.10174505
Au	 -7.62240308	 0.00000000	 10.19024615
Au	 -7.62240308	 0.00000000	 7.27874725
Au	 -7.62240308	 0.00000000	 4.36724835
Au	 -7.62240308	 0.00000000	 1.45574945
Au	 -7.62240308	 0.00000000	 -1.45574945
Au	 -7.62240308	 0.00000000	 -4.36724835
Au	 -7.62240308	 0.00000000	 -7.27874725
Au	 -7.62240308	 0.00000000	 -10.19024615
Au	 -7.62240308	 0.00000000	 -13.10174505
Au	 -7.62240308	 0.00000000	 -16.01324394
Au	 -7.62240308	 0.00000000	 -18.92474284
Au	 -7.62240308	 0.00000000	 -21.83624174
Au	 -7.62240308	 0.00000000	 -24.74774064
Au	 -7.62240308	 0.00000000	 -27.65923954
Au	 -7.62240308	 0.00000000	 -30.57073844
Au	 -7.62240308	 0.00000000	 -33.48223734
Au	 -9.52800384	 -1.38450000	 32.02648789
Au	 -9.52800384	 -1.38450000	 29.11498899
Au	 -9.52800384	 -1.38450000	 26.20349009
Au	 -9.52800384	 -1.38450000	 23.29199119
Au	 -9.52800384	 -1.38450000	 20.38049229
Au	 -9.52800384	 -1.38450000	 17.46899339
Au	 -9.52800384	 -1.38450000	 14.55749449
Au	 -9.52800384	 -1.38450000	 11.64599560
Au	 -9.52800384	 -1.38450000	 8.73449670
Au	 -9.52800384	 -1.38450000	 5.82299780
Au	 -9.52800384	 -1.38450000	 2.91149890
Au	 -9.52800384	 -1.38450000	 0.00000000
Au	 -9.52800384	 -1.38450000	 -2.91149890
Au	 -9.52800384	 -1.38450000	 -5.82299780
Au	 -9.52800384	 -1.38450000	 -8.73449670
Au	 -9.52800384	 -1.38450000	 -11.64599560
Au	 -9.52800384	 -1.38450000	 -14.55749449
Au	 -9.52800384	 -1.38450000	 -17.46899339
Au	 -9.52800384	 -1.38450000	 -20.38049229
Au	 -9.52800384	 -1.38450000	 -23.29199119
Au	 -9.52800384	 -1.38450000	 -26.20349009
Au	 -9.52800384	 -1.38450000	 -29.11498899
Au	 -9.52800384	 -1.38450000	 -32.02648789
Au	 -11.43360461	 -2.76900000	 30.57073844
Au	 -11.43360461	 -2.76900000	 27.65923954
Au	 -11.43360461	 -2.76900000	 24.74774064
Au	 -11.43360461	 -2.76900000	 21.83624174
Au	 -11.43360461	 -2.76900000	 18.92474284
Au	 -11.43360461	 -2.76900000	 16.01324394
Au	 -11.43360461	 -2.76900000	 13.10174505
Au	 -11.43360461	 -2.76900000	 10.19024615
Au	 -11.43360461	 -2.76900000	 7.27874725
Au	 -11.43360461	 -2.76900000	 4.36724835
Au	 -11.43360461	 -2.76900000	 1.45574945
Au	 -11.43360461	 -2.76900000	 -1.45574945
Au	 -11.43360461	 -2.76900000	 -4.36724835
Au	 -11.43360461	 -2.76900000	 -7.27874725
Au	 -11.43360461	 -2.76900000	 -10.19024615
Au	 -11.43360461	 -2.76900000	 -13.10174505
Au	 -11.43360461	 -2.76900000	 -16.01324394
Au	 -11.43360461	 -2.76900000	 -18.92474284
Au	 -11.43360461	 -2.76900000	 -21.83624174
Au	 -11.43360461	 -2.76900000	 -24.74774064
Au	 -11.43360461	 -2.76900000	 -27.65923954
Au	 -11.43360461	 -2.76900000	 -30.57073844
Au	 -13.33920538	 -4.15350000	 29.11498899
Au	 -13.33920538	 -4.15350000	 26.20349009
Au	 -13.33920538	 -4.15350000	 23.29199119
Au	 -13.33920538	 -4.15350000	 20.38049229
Au	 -13.33920538	 -4.15350000	 17.46899339
Au	 -13.33920538	 -4.15350000	 14.55749449
Au	 -13.33920538	 -4.15350000	 11.64599560
Au	 -13.33920538	 -4.15350000	 8.73449670
Au	 -13.33920538	 -4.15350000	 5.82299780
Au	 -13.33920538	 -4.15350000	 2.91149890
Au	 -13.33920538	 -4.15350000	 0.00000000
Au	 -13.33920538	 -4.15350000	 -2.91149890
Au	 -13.33920538	 -4.15350000	 -5.82299780
Au	 -13.33920538	 -4.15350000	 -8.73449670
Au	 -13.33920538	 -4.15350000	 -11.64599560
Au	 -13.33920538	 -4.15350000	 -14.55749449
Au	 -13.33920538	 -4.15350000	 -17.46899339
Au	 -13.33920538	 -4.15350000	 -20.38049229
Au	 -13.33920538	 -4.15350000	 -23.29199119
Au	 -13.33920538	 -4.15350000	 -26.20349009
Au	 -13.33920538	 -4.15350000	 -29.11498899
Au	 -15.24480615	 -5.53800000	 27.65923954
Au	 -15.24480615	 -5.53800000	 24.74774064
Au	 -15.24480615	 -5.53800000	 21.83624174
Au	 -15.24480615	 -5.53800000	 18.92474284
Au	 -15.24480615	 -5.53800000	 16.01324394
Au	 -15.24480615	 -5.53800000	 13.10174505
Au	 -15.24480615	 -5.53800000	 10.19024615
Au	 -15.24480615	 -5.53800000	 7.27874725
Au	 -15.24480615	 -5.53800000	 4.36724835
Au	 -15.24480615	 -5.53800000	 1.45574945
Au	 -15.24480615	 -5.53800000	 -1.45574945
Au	 -15.24480615	 -5.53800000	 -4.36724835
Au	 -15.24480615	 -5.53800000	 -7.27874725
Au	 -15.24480615	 -5.53800000	 -10.19024615
Au	 -15.24480615	 -5.53800000	 -13.10174505
Au	 -15.24480615	 -5.53800000	 -16.01324394
Au	 -15.24480615	 -5.53800000	 -18.92474284
Au	 -15.24480615	 -5.53800000	 -21.83624174
Au	 -15.24480615	 -5.53800000	 -24.74774064
Au	 -15.24480615	 -5.53800000	 -27.65923954
Au	 -17.15040692	 -6.92250000	 26.20349009
Au	 -17.15040692	 -6.92250000	 23.29199119
Au	 -17.15040692	 -6.92250000	 20.38049229
Au	 -17.15040692	 -6.92250000	 17.46899339
Au	 -17.15040692	 -6.92250000	 14.55749449
Au	 -17.15040692	 -6.92250000	 11.64599560
Au	 -17.15040692	 -6.92250000	 8.73449670
Au	 -17.15040692	 -6.92250000	 5.82299780
Au	 -17.15040692	 -6.92250000	 2.91149890
Au	 -17.15040692	 -6.92250000	 0.00000000
Au	 -17.15040692	 -6.92250000	 -2.91149890
Au	 -17.15040692	 -6.92250000	 -5.82299780
Au	 -17.15040692	 -6.92250000	 -8.73449670
Au	 -17.15040692	 -6.92250000	 -11.64599560
Au	 -17.15040692	 -6.92250000	 -14.55749449
Au	 -17.15040692	 -6.92250000	 -17.46899339
Au	 -17.15040692	 -6.92250000	 -20.38049229
Au	 -17.15040692	 -6.92250000	 -23.29199119
Au	 -17.15040692	 -6.92250000	 -26.20349009
Au	 -19.05600769	 -8.30700000	 24.74774064
Au	 -19.05600769	 -8.30700000	 21.83624174
Au	 -19.05600769	 -8.30700000	 18.92474284
Au	 -19.05600769	 -8.30700000	 16.01324394
Au	 -19.05600769	 -8.30700000	 13.10174505
Au	 -19.05600769	 -8.30700000	 10.19024615
Au	 -19.05600769	 -8.30700000	 7.27874725
Au	 -19.05600769	 -8.30700000	 4.36724835
Au	 -19.05600769	 -8.30700000	 1.45574945
Au	 -19.05600769	 -8.30700000	 -1.45574945
Au	 -19.05600769	 -8.30700000	 -4.36724835
Au	 -19.05600769	 -8.30700000	 -7.27874725
Au	 -19.05600769	 -8.30700000	 -10.19024615
Au	 -19.05600769	 -8.30700000	 -13.10174505
Au	 -19.05600769	 -8.30700000	 -16.01324394
Au	 -19.05600769	 -8.30700000	 -18.92474284
Au	 -19.05600769	 -8.30700000	 -21.83624174
Au	 -19.05600769	 -8.30700000	 -24.74774064
Au	 -20.96160846	 -9.69150000	 23.29199119
Au	 -20.96160846	 -9.69150000	 20.38049229
Au	 -20.96160846	 -9.69150000	 17.46899339
Au	 -20.96160846	 -9.69150000	 14.55749449
Au	 -20.96160846	 -9.69150000	 11.64599560
Au	 -20.96160846	 -9.69150000	 8.73449670
Au	 -20.96160846	 -9.69150000	 5.82299780
Au	 -20.96160846	 -9.69150000	 2.91149890
Au	 -20.96160846	 -9.69150000	 0.00000000
Au	 -20.96160846	 -9.69150000	 -2.91149890
Au	 -20.96160846	 -9.69150000	 -5.82299780
Au	 -20.96160846	 -9.69150000	 -8.73449670
Au	 -20.96160846	 -9.69150000	 -11.64599560
Au	 -20.96160846	 -9.69150000	 -14.55749449
Au	 -20.96160846	 -9.69150000	 -17.46899339
Au	 -20.96160846	 -9.69150000	 -20.38049229
Au	 -20.96160846	 -9.69150000	 -23.29199119
Au	 -3.81120154	 -0.00000000	 36.39373624
Au	 -3.81120154	 -0.00000000	 33.48223734
Au	 -3.81120154	 -0.00000000	 30.57073844
Au	 -3.81120154	 -0.00000000	 27.65923954
Au	 -3.81120154	 -0.00000000	 24.74774064
Au	 -3.81120154	 -0.00000000	 21.83624174
Au	 -3.81120154	 -0.00000000	 18.92474284
Au	 -3.81120154	 -0.00000000	 16.01324394
Au	 -3.81120154	 -0.00000000	 13.10174505
Au	 -3.81120154	 -0.00000000	 10.19024615
Au	 -3.81120154	 -0.00000000	 7.27874725
Au	 -3.81120154	 -0.00000000	 4.36724835
Au	 -3.81120154	 -0.00000000	 1.45574945
Au	 -3.81120154	 -0.00000000	 -1.45574945
Au	 -3.81120154	 -0.00000000	 -4.36724835
Au	 -3.81120154	 -0.00000000	 -7.27874725
Au	 -3.81120154	 -0.00000000	 -10.19024615
Au	 -3.81120154	 -0.00000000	 -13.10174505
Au	 -3.81120154	 -0.00000000	 -16.01324394
Au	 -3.81120154	 -0.00000000	 -18.92474284
Au	 -3.81120154	 -0.00000000	 -21.83624174
Au	 -3.81120154	 -0.00000000	 -24.74774064
Au	 -3.81120154	 -0.00000000	 -27.65923954
Au	 -3.81120154	 -0.00000000	 -30.57073844
Au	 -3.81120154	 -0.00000000	 -33.48223734
Au	 -3.81120154	 -0.00000000	 -36.39373624
Au	 -5.71680231	 -1.38450000	 34.93798679
Au	 -5.71680231	 -1.38450000	 32.02648789
Au	 -5.71680231	 -1.38450000	 29.11498899
Au	 -5.71680231	 -1.38450000	 26.20349009
Au	 -5.71680231	 -1.38450000	 23.29199119
Au	 -5.71680231	 -1.38450000	 20.38049229
Au	 -5.71680231	 -1.38450000	 17.46899339
Au	 -5.71680231	 -1.38450000	 14.55749449
Au	 -5.71680231	 -1.38450000	 11.64599560
Au	 -5.71680231	 -1.38450000	 8.73449670
Au	 -5.71680231	 -1.38450000	 5.82299780
Au	 -5.71680231	 -1.38450000	 2.91149890
Au	 -5.71680231	 -1.38450000	 0.00000000
Au	 -5.71680231	 -1.38450000	 -2.91149890
Au	 -5.71680231	 -1.38450000	 -5.82299780
Au	 -5.71680231	 -1.38450000	 -8.73449670
Au	 -5.71680231	 -1.38450000	 -11.64599560
Au	 -5.71680231	 -1.38450000	 -14.55749449
Au	 -5.71680231	 -1.38450000	 -17.46899339
Au	 -5.71680231	 -1.38450000	 -20.38049229
Au	 -5.71680231	 -1.38450000	 -23.29199119
Au	 -5.71680231	 -1.38450000	 -26.20349009
Au	 -5.71680231	 -1.38450000	 -29.11498899
Au	 -5.71680231	 -1.38450000	 -32.02648789
Au	 -5.71680231	 -1.38450000	 -34.93798679
Au	 -7.62240308	 -2.76900000	 33.48223734
Au	 -7.62240308	 -2.76900000	 30.57073844
Au	 -7.62240308	 -2.76900000	 27.65923954
Au	 -7.62240308	 -2.76900000	 24.74774064
Au	 -7.62240308	 -2.76900000	 21.83624174
Au	 -7.62240308	 -2.76900000	 18.92474284
Au	 -7.62240308	 -2.76900000	 16.01324394
Au	 -7.62240308	 -2.76900000	 13.10174505
Au	 -7.62240308	 -2.76900000	 10.19024615
Au	 -7.62240308	 -2.76900000	 7.27874725
Au	 -7.62240308	 -2.76900000	 4.36724835
Au	 -7.62240308	 -2.76900000	 1.45574945
Au	 -7.62240308	 -2.76900000	 -1.45574945
Au	 -7.62240308	 -2.76900000	 -4.36724835
Au	 -7.62240308	 -2.76900000	 -7.27874725
Au	 -7.62240308	 -2.76900000	 -10.19024615
Au	 -7.62240308	 -2.76900000	 -13.10174505
Au	 -7.62240308	 -2.76900000	 -16.01324394
Au	 -7.62240308	 -2.76900000	 -18.92474284
Au	 -7.62240308	 -2.76900000	 -21.83624174
Au	 -7.62240308	 -2.76900000	 -24.74774064
Au	 -7.62240308	 -2.76900000	 -27.65923954
Au	 -7.62240308	 -2.76900000	 -30.57073844
Au	 -7.62240308	 -2.76900000	 -33.48223734
Au	 -9.52800384	 -4.15350000	 32.02648789
Au	 -9.52800384	 -4.15350000	 29.11498899
Au	 -9.52800384	 -4.15350000	 26.20349009
Au	 -9.52800384	 -4.15350000	 23.29199119
Au	 -9.52800384	 -4.15350000	 20.38049229
Au	 -9.52800384	 -4.15350000	 17.46899339
Au	 -9.52800384	 -4.15350000	 14.55749449
Au	 -9.52800384	 -4.15350000	 11.64599560
Au	 -9.52800384	 -4.15350000	 8.73449670
Au	 -9.52800384	 -4.15350000	 5.82299780
Au	 -9.52800384	 -4.15350000	 2.91149890
Au	 -9.52800384	 -4.15350000	 0.00000000
Au	 -9.52800384	 -4.15350000	 -2.91149890
Au	 -9.52800384	 -4.15350000	 -5.82299780
Au	 -9.52800384	 -4.15350000	 -8.73449670
Au	 -9.52800384	 -4.15350000	 -11.64599560
Au	 -9.52800384	 -4.15350000	 -14.55749449
Au	 -9.52800384	 -4.15350000	 -17.46899339
Au	 -9.52800384	 -4.15350000	 -20.38049229
Au	 -9.52800384	 -4.15350000	 -23.29199119
Au	 -9.52800384	 -4.15350000	 -26.20349009
Au	 -9.52800384	 -4.15350000	 -29.11498899
Au	 -9.52800384	 -4.15350000	 -32.02648789
Au	 -11.43360461	 -5.53800000	 30.57073844
Au	 -11.43360461	 -5.53800000	 27.65923954
Au	 -11.43360461	 -5.53800000	 24.74774064
Au	 -11.43360461	 -5.53800000	 21.83624174
Au	 -11.43360461	 -5.53800000	 18.92474284
Au	 -11.43360461	 -5.53800000	 16.01324394
Au	 -11.43360461	 -5.53800000	 13.10174505
Au	 -11.43360461	 -5.53800000	 10.19024615
Au	 -11.43360461	 -5.53800000	 7.27874725
Au	 -11.43360461	 -5.53800000	 4.36724835
Au	 -11.43360461	 -5.53800000	 1.45574945
Au	 -11.43360461	 -5.53800000	 -1.45574945
Au	 -11.43360461	 -5.53800000	 -4.36724835
Au	 -11.43360461	 -5.53800000	 -7.27874725
Au	 -11.43360461	 -5.53800000	 -10.19024615
Au	 -11.43360461	 -5.53800000	 -13.10174505
Au	 -11.43360461	 -5.53800000	 -16.01324394
Au	 -11.43360461	 -5.53800000	 -18.92474284
Au	 -11.43360461	 -5.53800000	 -21.83624174
Au	 -11.43360461	 -5.53800000	 -24.74774064
Au	 -11.43360461	 -5.53800000	 -27.65923954
Au	 -11.43360461	 -5.53800000	 -30.57073844
Au	 -13.33920538	 -6.92250000	 29.11498899
Au	 -13.33920538	 -6.92250000	 26.20349009
Au	 -13.33920538	 -6.92250000	 23.29199119
Au	 -13.33920538	 -6.92250000	 20.38049229
Au	 -13.33920538	 -6.92250000	 17.46899339
Au	 -13.33920538	 -6.92250000	 14.55749449
Au	 -13.33920538	 -6.92250000	 11.64599560
Au	 -13.33920538	 -6.92250000	 8.73449670
Au	 -13.33920538	 -6.92250000	 5.82299780
Au	 -13.33920538	 -6.92250000	 2.91149890
Au	 -13.33920538	 -6.92250000	 0.00000000
Au	 -13.33920538	 -6.92250000	 -2.91149890
Au	 -13.33920538	 -6.92250000	 -5.82299780
Au	 -13.33920538	 -6.92250000	 -8.73449670
Au	 -13.33920538	 -6.92250000	 -11.64599560
Au	 -13.33920538	 -6.92250000	 -14.55749449
Au	 -13.33920538	 -6.92250000	 -17.46899339
Au	 -13.33920538	 -6.92250000	 -20.38049229
Au	 -13.33920538	 -6.92250000	 -23.29199119
Au	 -13.33920538	 -6.92250000	 -26.20349009
Au	 -13.33920538	 -6.92250000	 -29.11498899
Au	 -15.24480615	 -8.30700000	 27.65923954
Au	 -15.24480615	 -8.30700000	 24.74774064
Au	 -15.24480615	 -8.30700000	 21.83624174
Au	 -15.24480615	 -8.30700000	 18.92474284
Au	 -15.24480615	 -8.30700000	 16.01324394
Au	 -15.24480615	 -8.30700000	 13.10174505
Au	 -15.24480615	 -8.30700000	 10.19024615
Au	 -15.24480615	 -8.30700000	 7.27874725
Au	 -15.24480615	 -8.30700000	 4.36724835
Au	 -15.24480615	 -8.30700000	 1.45574945
Au	 -15.24480615	 -8.30700000	 -1.45574945
Au	 -15.24480615	 -8.30700000	 -4.36724835
Au	 -15.24480615	 -8.30700000	 -7.27874725
Au	 -15.24480615	 -8.30700000	 -10.19024615
Au	 -15.24480615	 -8.30700000	 -13.10174505
Au	 -15.24480615	 -8.30700000	 -16.01324394
Au	 -15.24480615	 -8.30700000	 -18.92474284
Au	 -15.24480615	 -8.30700000	 -21.83624174
Au	 -15.24480615	 -8.30700000	 -24.74774064
Au	 -15.24480615	 -8.30700000	 -27.65923954
Au	 -17.15040692	 -9.69150000	 26.20349009
Au	 -17.15040692	 -9.69150000	 23.29199119
Au	 -17.15040692	 -9.69150000	 20.38049229
Au	 -17.15040692	 -9.69150000	 17.46899339
Au	 -17.15040692	 -9.69150000	 14.55749449
Au	 -17.15040692	 -9.69150000	 11.64599560
Au	 -17.15040692	 -9.69150000	 8.73449670
Au	 -17.15040692	 -9.69150000	 5.82299780
Au	 -17.15040692	 -9.69150000	 2.91149890
Au	 -17.15040692	 -9.69150000	 -0.00000000
Au	 -17.15040692	 -9.69150000	 -2.91149890
Au	 -17.15040692	 -9.69150000	 -5.82299780
Au	 -17.15040692	 -9.69150000	 -8.73449670
Au	 -17.15040692	 -9.69150000	 -11.64599560
Au	 -17.15040692	 -9.69150000	 -14.55749449
Au	 -17.15040692	 -9.69150000	 -17.46899339
Au	 -17.15040692	 -9.69150000	 -20.38049229
Au	 -17.15040692	 -9.69150000	 -23.29199119
Au	 -17.15040692	 -9.69150000	 -26.20349009
Au	 -19.05600769	 -11.07600000	 24.74774064
Au	 -19.05600769	 -11.07600000	 21.83624174
Au	 -19.05600769	 -11.07600000	 18.92474284
Au	 -19.05600769	 -11.07600000	 16.01324394
Au	 -19.05600769	 -11.07600000	 13.10174505
Au	 -19.05600769	 -11.07600000	 10.19024615
Au	 -19.05600769	 -11.07600000	 7.27874725
Au	 -19.05600769	 -11.07600000	 4.36724835
Au	 -19.05600769	 -11.07600000	 1.45574945
Au	 -19.05600769	 -11.07600000	 -1.45574945
Au	 -19.05600769	 -11.07600000	 -4.36724835
Au	 -19.05600769	 -11.07600000	 -7.27874725
Au	 -19.05600769	 -11.07600000	 -10.19024615
Au	 -19.05600769	 -11.07600000	 -13.10174505
Au	 -19.05600769	 -11.07600000	 -16.01324394
Au	 -19.05600769	 -11.07600000	 -18.92474284
Au	 -19.05600769	 -11.07600000	 -21.83624174
Au	 -19.05600769	 -11.07600000	 -24.74774064
Au	 -20.96160846	 -12.46050000	 23.29199119
Au	 -20.96160846	 -12.46050000	 20.38049229
Au	 -20.96160846	 -12.46050000	 17.46899339
Au	 -20.96160846	 -12.46050000	 14.55749449
Au	 -20.96160846	 -12.46050000	 11.64599560
Au	 -20.96160846	 -12.46050000	 8.73449670
Au	 -20.96160846	 -12.46050000	 5.82299780
Au	 -20.96160846	 -12.46050000	 2.91149890
Au	 -20.96160846	 -12.46050000	 -0.00000000
Au	 -20.96160846	 -12.46050000	 -2.91149890
Au	 -20.96160846	 -12.46050000	 -5.82299780
Au	 -20.96160846	 -12.46050000	 -8.73449670
Au	 -20.96160846	 -12.46050000	 -11.64599560
Au	 -20.96160846	 -12.46050000	 -14.55749449
Au	 -20.96160846	 -12.46050000	 -17.46899339
Au	 -20.96160846	 -12.46050000	 -20.38049229
Au	 -20.96160846	 -12.46050000	 -23.29199119
Au	 -18.32813296	 -16.08516806	 23.29199119
Au	 -18.32813296	 -16.08516806	 20.38049229
Au	 -18.32813296	 -16.08516806	 17.46899339
Au	 -18.32813296	 -16.08516806	 14.55749449
Au	 -18.32813296	 -16.08516806	 11.64599560
Au	 -18.32813296	 -16.08516806	 8.73449670
Au	 -18.32813296	 -16.08516806	 5.82299780
Au	 -18.32813296	 -16.08516806	 2.91149890
Au	 -18.32813296	 -16.08516806	 -0.00000000
Au	 -18.32813296	 -16.08516806	 -2.91149890
Au	 -18.32813296	 -16.08516806	 -5.82299780
Au	 -18.32813296	 -16.08516806	 -8.73449670
Au	 -18.32813296	 -16.08516806	 -11.64599560
Au	 -18.32813296	 -16.08516806	 -14.55749449
Au	 -18.32813296	 -16.08516806	 -17.46899339
Au	 -18.32813296	 -16.08516806	 -20.38049229
Au	 -18.32813296	 -16.08516806	 -23.29199119
Au	 -16.42253220	 -14.70066806	 24.74774064
Au	 -16.42253220	 -14.70066806	 21.83624174
Au	 -16.42253220	 -14.70066806	 18.92474284
Au	 -16.42253220	 -14.70066806	 16.01324394
Au	 -16.42253220	 -14.70066806	 13.10174505
Au	 -16.42253220	 -14.70066806	 10.19024615
Au	 -16.42253220	 -14.70066806	 7.27874725
Au	 -16.42253220	 -14.70066806	 4.36724835
Au	 -16.42253220	 -14.70066806	 1.45574945
Au	 -16.42253220	 -14.70066806	 -1.45574945
Au	 -16.42253220	 -14.70066806	 -4.36724835
Au	 -16.42253220	 -14.70066806	 -7.27874725
Au	 -16.42253220	 -14.70066806	 -10.19024615
Au	 -16.42253220	 -14.70066806	 -13.10174505
Au	 -16.42253220	 -14.70066806	 -16.01324394
Au	 -16.42253220	 -14.70066806	 -18.92474284
Au	 -16.42253220	 -14.70066806	 -21.83624174
Au	 -16.42253220	 -14.70066806	 -24.74774064
Au	 -15.69465747	 -16.94083611	 23.29199119
Au	 -15.69465747	 -16.94083611	 20.38049229
Au	 -15.69465747	 -16.94083611	 17.46899339
Au	 -15.69465747	 -16.94083611	 14.55749449
Au	 -15.69465747	 -16.94083611	 11.64599560
Au	 -15.69465747	 -16.94083611	 8.73449670
Au	 -15.69465747	 -16.94083611	 5.82299780
Au	 -15.69465747	 -16.94083611	 2.91149890
Au	 -15.69465747	 -16.94083611	 -0.00000000
Au	 -15.69465747	 -16.94083611	 -2.91149890
Au	 -15.69465747	 -16.94083611	 -5.82299780
Au	 -15.69465747	 -16.94083611	 -8.73449670
Au	 -15.69465747	 -16.94083611	 -11.64599560
Au	 -15.69465747	 -16.94083611	 -14.55749449
Au	 -15.69465747	 -16.94083611	 -17.46899339
Au	 -15.69465747	 -16.94083611	 -20.38049229
Au	 -15.69465747	 -16.94083611	 -23.29199119
Au	 -14.51693143	 -13.31616806	 26.20349009
Au	 -14.51693143	 -13.31616806	 23.29199119
Au	 -14.51693143	 -13.31616806	 20.38049229
Au	 -14.51693143	 -13.31616806	 17.46899339
Au	 -14.51693143	 -13.31616806	 14.55749449
Au	 -14.51693143	 -13.31616806	 11.64599560
Au	 -14.51693143	 -13.31616806	 8.73449670
Au	 -14.51693143	 -13.31616806	 5.82299780
Au	 -14.51693143	 -13.31616806	 2.91149890
Au	 -14.51693143	 -13.31616806	 0.00000000
Au	 -14.51693143	 -13.31616806	 -2.91149890
Au	 -14.51693143	 -13.31616806	 -5.82299780
Au	 -14.51693143	 -13.31616806	 -8.73449670
Au	 -14.51693143	 -13.31616806	 -11.64599560
Au	 -14.51693143	 -13.31616806	 -14.55749449
Au	 -14.51693143	 -13.31616806	 -17.46899339
Au	 -14.51693143	 -13.31616806	 -20.38049229
Au	 -14.51693143	 -13.31616806	 -23.29199119
Au	 -14.51693143	 -13.31616806	 -26.20349009
Au	 -13.78905670	 -15.55633611	 24.74774064
Au	 -13.78905670	 -15.55633611	 21.83624174
Au	 -13.78905670	 -15.55633611	 18.92474284
Au	 -13.78905670	 -15.55633611	 16.01324394
Au	 -13.78905670	 -15.55633611	 13.10174505
Au	 -13.78905670	 -15.55633611	 10.19024615
Au	 -13.78905670	 -15.55633611	 7.27874725
Au	 -13.78905670	 -15.55633611	 4.36724835
Au	 -13.78905670	 -15.55633611	 1.45574945
Au	 -13.78905670	 -15.55633611	 -1.45574945
Au	 -13.78905670	 -15.55633611	 -4.36724835
Au	 -13.78905670	 -15.55633611	 -7.27874725
Au	 -13.78905670	 -15.55633611	 -10.19024615
Au	 -13.78905670	 -15.55633611	 -13.10174505
Au	 -13.78905670	 -15.55633611	 -16.01324394
Au	 -13.78905670	 -15.55633611	 -18.92474284
Au	 -13.78905670	 -15.55633611	 -21.83624174
Au	 -13.78905670	 -15.55633611	 -24.74774064
Au	 -13.06118198	 -17.79650417	 23.29199119
Au	 -13.06118198	 -17.79650417	 20.38049229
Au	 -13.06118198	 -17.79650417	 17.46899339
Au	 -13.06118198	 -17.79650417	 14.55749449
Au	 -13.06118198	 -17.79650417	 11.64599560
Au	 -13.06118198	 -17.79650417	 8.73449670
Au	 -13.06118198	 -17.79650417	 5.82299780
Au	 -13.06118198	 -17.79650417	 2.91149890
Au	 -13.06118198	 -17.79650417	 -0.00000000
Au	 -13.06118198	 -17.79650417	 -2.91149890
Au	 -13.06118198	 -17.79650417	 -5.82299780
Au	 -13.06118198	 -17.79650417	 -8.73449670
Au	 -13.06118198	 -17.79650417	 -11.64599560
Au	 -13.06118198	 -17.79650417	 -14.55749449
Au	 -13.06118198	 -17.79650417	 -17.46899339
Au	 -13.06118198	 -17.79650417	 -20.38049229
Au	 -13.06118198	 -17.79650417	 -23.29199119
Au	 -12.61133066	 -11.93166806	 27.65923954
Au	 -12.61133066	 -11.93166806	 24.74774064
Au	 -12.61133066	 -11.93166806	 21.83624174
Au	 -12.61133066	 -11.93166806	 18.92474284
Au	 -12.61133066	 -11.93166806	 16.01324394
Au	 -12.61133066	 -11.93166806	 13.10174505
Au	 -12.61133066	 -11.93166806	 10.19024615
Au	 -12.61133066	 -11.93166806	 7.27874725
Au	 -12.61133066	 -11.93166806	 4.36724835
Au	 -12.61133066	 -11.93166806	 1.45574945
Au	 -12.61133066	 -11.93166806	 -1.45574945
Au	 -12.61133066	 -11.93166806	 -4.36724835
Au	 -12.61133066	 -11.93166806	 -7.27874725
Au	 -12.61133066	 -11.93166806	 -10.19024615
Au	 -12.61133066	 -11.93166806	 -13.10174505
Au	 -12.61133066	 -11.93166806	 -16.01324394
Au	 -12.61133066	 -11.93166806	 -18.92474284
Au	 -12.61133066	 -11.93166806	 -21.83624174
Au	 -12.61133066	 -11.93166806	 -24.74774064
Au	 -12.61133066	 -11.93166806	 -27.65923954
Au	 -11.88345593	 -14.17183611	 26.20349009
Au	 -11.88345593	 -14.17183611	 23.29199119
Au	 -11.88345593	 -14.17183611	 20.38049229
Au	 -11.88345593	 -14.17183611	 17.46899339
Au	 -11.88345593	 -14.17183611	 14.55749449
Au	 -11.88345593	 -14.17183611	 11.64599560
Au	 -11.88345593	 -14.17183611	 8.73449670
Au	 -11.88345593	 -14.17183611	 5.82299780
Au	 -11.88345593	 -14.17183611	 2.91149890
Au	 -11.88345593	 -14.17183611	 -0.00000000
Au	 -11.88345593	 -14.17183611	 -2.91149890
Au	 -11.88345593	 -14.17183611	 -5.82299780
Au	 -11.88345593	 -14.17183611	 -8.73449670
Au	 -11.88345593	 -14.17183611	 -11.64599560
Au	 -11.88345593	 -14.17183611	 -14.55749449
Au	 -11.88345593	 -14.17183611	 -17.46899339
Au	 -11.88345593	 -14.17183611	 -20.38049229
Au	 -11.88345593	 -14.17183611	 -23.29199119
Au	 -11.88345593	 -14.17183611	 -26.20349009
Au	 -11.15558121	 -16.41200417	 24.74774064
Au	 -11.15558121	 -16.41200417	 21.83624174
Au	 -11.15558121	 -16.41200417	 18.92474284
Au	 -11.15558121	 -16.41200417	 16.01324394
Au	 -11.15558121	 -16.41200417	 13.10174505
Au	 -11.15558121	 -16.41200417	 10.19024615
Au	 -11.15558121	 -16.41200417	 7.27874725
Au	 -11.15558121	 -16.41200417	 4.36724835
Au	 -11.15558121	 -16.41200417	 1.45574945
Au	 -11.15558121	 -16.41200417	 -1.45574945
Au	 -11.15558121	 -16.41200417	 -4.36724835
Au	 -11.15558121	 -16.41200417	 -7.27874725
Au	 -11.15558121	 -16.41200417	 -10.19024615
Au	 -11.15558121	 -16.41200417	 -13.10174505
Au	 -11.15558121	 -16.41200417	 -16.01324394
Au	 -11.15558121	 -16.41200417	 -18.92474284
Au	 -11.15558121	 -16.41200417	 -21.83624174
Au	 -11.15558121	 -16.41200417	 -24.74774064
Au	 -10.42770648	 -18.65217223	 23.29199119
Au	 -10.42770648	 -18.65217223	 20.38049229
Au	 -10.42770648	 -18.65217223	 17.46899339
Au	 -10.42770648	 -18.65217223	 14.55749449
Au	 -10.42770648	 -18.65217223	 11.64599560
Au	 -10.42770648	 -18.65217223	 8.73449670
Au	 -10.42770648	 -18.65217223	 5.82299780
Au	 -10.42770648	 -18.65217223	 2.91149890
Au	 -10.42770648	 -18.65217223	 -0.00000000
Au	 -10.42770648	 -18.65217223	 -2.91149890
Au	 -10.42770648	 -18.65217223	 -5.82299780
Au	 -10.42770648	 -18.65217223	 -8.73449670
Au	 -10.42770648	 -18.65217223	 -11.64599560
Au	 -10.42770648	 -18.65217223	 -14.55749449
Au	 -10.42770648	 -18.65217223	 -17.46899339
Au	 -10.42770648	 -18.65217223	 -20.38049229
Au	 -10.42770648	 -18.65217223	 -23.29199119
Au	 -10.70572989	 -10.54716806	 29.11498899
Au	 -10.70572989	 -10.54716806	 26.20349009
Au	 -10.70572989	 -10.54716806	 23.29199119
Au	 -10.70572989	 -10.54716806	 20.38049229
Au	 -10.70572989	 -10.54716806	 17.46899339
Au	 -10.70572989	 -10.54716806	 14.55749449
Au	 -10.70572989	 -10.54716806	 11.64599560
Au	 -10.70572989	 -10.54716806	 8.73449670
Au	 -10.70572989	 -10.54716806	 5.82299780
Au	 -10.70572989	 -10.54716806	 2.91149890
Au	 -10.70572989	 -10.54716806	 0.00000000
Au	 -10.70572989	 -10.54716806	 -2.91149890
Au	 -10.70572989	 -10.54716806	 -5.82299780
Au	 -10.70572989	 -10.54716806	 -8.73449670
Au	 -10.70572989	 -10.54716806	 -11.64599560
Au	 -10.70572989	 -10.54716806	 -14.55749449
Au	 -10.70572989	 -10.54716806	 -17.46899339
Au	 -10.70572989	 -10.54716806	 -20.38049229
Au	 -10.70572989	 -10.54716806	 -23.29199119
Au	 -10.70572989	 -10.54716806	 -26.20349009
Au	 -10.70572989	 -10.54716806	 -29.11498899
Au	 -9.97785516	 -12.78733611	 27.65923954
Au	 -9.97785516	 -12.78733611	 24.74774064
Au	 -9.97785516	 -12.78733611	 21.83624174
Au	 -9.97785516	 -12.78733611	 18.92474284
Au	 -9.97785516	 -12.78733611	 16.01324394
Au	 -9.97785516	 -12.78733611	 13.10174505
Au	 -9.97785516	 -12.78733611	 10.19024615
Au	 -9.97785516	 -12.78733611	 7.27874725
Au	 -9.97785516	 -12.78733611	 4.36724835
Au	 -9.97785516	 -12.78733611	 1.45574945
Au	 -9.97785516	 -12.78733611	 -1.45574945
Au	 -9.97785516	 -12.78733611	 -4.36724835
Au	 -9.97785516	 -12.78733611	 -7.27874725
Au	 -9.97785516	 -12.78733611	 -10.19024615
Au	 -9.97785516	 -12.78733611	 -13.10174505
Au	 -9.97785516	 -12.78733611	 -16.01324394
Au	 -9.97785516	 -12.78733611	 -18.92474284
Au	 -9.97785516	 -12.78733611	 -21.83624174
Au	 -9.97785516	 -12.78733611	 -24.74774064
Au	 -9.97785516	 -12.78733611	 -27.65923954
Au	 -9.24998044	 -15.02750417	 26.20349009
Au	 -9.24998044	 -15.02750417	 23.29199119
Au	 -9.24998044	 -15.02750417	 20.38049229
Au	 -9.24998044	 -15.02750417	 17.46899339
Au	 -9.24998044	 -15.02750417	 14.55749449
Au	 -9.24998044	 -15.02750417	 11.64599560
Au	 -9.24998044	 -15.02750417	 8.73449670
Au	 -9.24998044	 -15.02750417	 5.82299780
Au	 -9.24998044	 -15.02750417	 2.91149890
Au	 -9.24998044	 -15.02750417	 0.00000000
Au	 -9.24998044	 -15.02750417	 -2.91149890
Au	 -9.24998044	 -15.02750417	 -5.82299780
Au	 -9.24998044	 -15.02750417	 -8.73449670
Au	 -9.24998044	 -15.02750417	 -11.64599560
Au	 -9.24998044	 -15.02750417	 -14.55749449
Au	 -9.24998044	 -15.02750417	 -17.46899339
Au	 -9.24998044	 -15.02750417	 -20.38049229
Au	 -9.24998044	 -15.02750417	 -23.29199119
Au	 -9.24998044	 -15.02750417	 -26.20349009
Au	 -8.52210571	 -17.26767223	 24.74774064
Au	 -8.52210571	 -17.26767223	 21.83624174
Au	 -8.52210571	 -17.26767223	 18.92474284
Au	 -8.52210571	 -17.26767223	 16.01324394
Au	 -8.52210571	 -17.26767223	 13.10174505
Au	 -8.52210571	 -17.26767223	 10.19024615
Au	 -8.52210571	 -17.26767223	 7.27874725
Au	 -8.52210571	 -17.26767223	 4.36724835
Au	 -8.52210571	 -17.26767223	 1.45574945
Au	 -8.52210571	 -17.26767223	 -1.45574945
Au	 -8.52210571	 -17.26767223	 -4.36724835
Au	 -8.52210571	 -17.26767223	 -7.27874725
Au	 -8.52210571	 -17.26767223	 -10.19024615
Au	 -8.52210571	 -17.26767223	 -13.10174505
Au	 -8.52210571	 -17.26767223	 -16.01324394
Au	 -8.52210571	 -17.26767223	 -18.92474284
Au	 -8.52210571	 -17.26767223	 -21.83624174
Au	 -8.52210571	 -17.26767223	 -24.74774064
Au	 -7.79423099	 -19.50784029	 23.29199119
Au	 -7.79423099	 -19.50784029	 20.38049229
Au	 -7.79423099	 -19.50784029	 17.46899339
Au	 -7.79423099	 -19.50784029	 14.55749449
Au	 -7.79423099	 -19.50784029	 11.64599560
Au	 -7.79423099	 -19.50784029	 8.73449670
Au	 -7.79423099	 -19.50784029	 5.82299780
Au	 -7.79423099	 -19.50784029	 2.91149890
Au	 -7.79423099	 -19.50784029	 0.00000000
Au	 -7.79423099	 -19.50784029	 -2.91149890
Au	 -7.79423099	 -19.50784029	 -5.82299780
Au	 -7.79423099	 -19.50784029	 -8.73449670
Au	 -7.79423099	 -19.50784029	 -11.64599560
Au	 -7.79423099	 -19.50784029	 -14.55749449
Au	 -7.79423099	 -19.50784029	 -17.46899339
Au	 -7.79423099	 -19.50784029	 -20.38049229
Au	 -7.79423099	 -19.50784029	 -23.29199119
Au	 -8.80012912	 -9.16266806	 30.57073844
Au	 -8.80012912	 -9.16266806	 27.65923954
Au	 -8.80012912	 -9.16266806	 24.74774064
Au	 -8.80012912	 -9.16266806	 21.83624174
Au	 -8.80012912	 -9.16266806	 18.92474284
Au	 -8.80012912	 -9.16266806	 16.01324394
Au	 -8.80012912	 -9.16266806	 13.10174505
Au	 -8.80012912	 -9.16266806	 10.19024615
Au	 -8.80012912	 -9.16266806	 7.27874725
Au	 -8.80012912	 -9.16266806	 4.36724835
Au	 -8.80012912	 -9.16266806	 1.45574945
Au	 -8.80012912	 -9.16266806	 -1.45574945
Au	 -8.80012912	 -9.16266806	 -4.36724835
Au	 -8.80012912	 -9.16266806	 -7.27874725
Au	 -8.80012912	 -9.16266806	 -10.19024615
Au	 -8.80012912	 -9.16266806	 -13.10174505
Au	 -8.80012912	 -9.16266806	 -16.01324394
Au	 -8.80012912	 -9.16266806	 -18.92474284
Au	 -8.80012912	 -9.16266806	 -21.83624174
Au	 -8.80012912	 -9.16266806	 -24.74774064
Au	 -8.80012912	 -9.16266806	 -27.65923954
Au	 -8.80012912	 -9.16266806	 -30.57073844
Au	 -8.07225440	 -11.40283611	 29.11498899
Au	 -8.07225440	 -11.40283611	 26.20349009
Au	 -8.07225440	 -11.40283611	 23.29199119
Au	 -8.07225440	 -11.40283611	 20.38049229
Au	 -8.07225440	 -11.40283611	 17.46899339
Au	 -8.07225440	 -11.40283611	 14.55749449
Au	 -8.07225440	 -11.40283611	 11.64599560
Au	 -8.07225440	 -11.40283611	 8.73449670
Au	 -8.07225440	 -11.40283611	 5.82299780
Au	 -8.07225440	 -11.40283611	 2.91149890
Au	 -8.07225440	 -11.40283611	 0.00000000
Au	 -8.07225440	 -11.40283611	 -2.91149890
Au	 -8.07225440	 -11.40283611	 -5.82299780
Au	 -8.07225440	 -11.40283611	 -8.73449670
Au	 -8.07225440	 -11.40283611	 -11.64599560
Au	 -8.07225440	 -11.40283611	 -14.55749449
Au	 -8.07225440	 -11.40283611	 -17.46899339
Au	 -8.07225440	 -11.40283611	 -20.38049229
Au	 -8.07225440	 -11.40283611	 -23.29199119
Au	 -8.07225440	 -11.40283611	 -26.20349009
Au	 -8.07225440	 -11.40283611	 -29.11498899
Au	 -7.34437967	 -13.64300417	 27.65923954
Au	 -7.34437967	 -13.64300417	 24.74774064
Au	 -7.34437967	 -13.64300417	 21.83624174
Au	 -7.34437967	 -13.64300417	 18.92474284
Au	 -7.34437967	 -13.64300417	 16.01324394
Au	 -7.34437967	 -13.64300417	 13.10174505
Au	 -7.34437967	 -13.64300417	 10.19024615
Au	 -7.34437967	 -13.64300417	 7.27874725
Au	 -7.34437967	 -13.64300417	 4.36724835
Au	 -7.34437967	 -13.64300417	 1.45574945
Au	 -7.34437967	 -13.64300417	 -1.45574945
Au	 -7.34437967	 -13.64300417	 -4.36724835
Au	 -7.34437967	 -13.64300417	 -7.27874725
Au	 -7.34437967	 -13.64300417	 -10.19024615
Au	 -7.34437967	 -13.64300417	 -13.10174505
Au	 -7.34437967	 -13.64300417	 -16.01324394
Au	 -7.34437967	 -13.64300417	 -18.92474284
Au	 -7.34437967	 -13.64300417	 -21.83624174
Au	 -7.34437967	 -13.64300417	 -24.74774064
Au	 -7.34437967	 -13.64300417	 -27.65923954
Au	 -6.61650495	 -15.88317223	 26.20349009
Au	 -6.61650495	 -15.88317223	 23.29199119
Au	 -6.61650495	 -15.88317223	 20.38049229
Au	 -6.61650495	 -15.88317223	 17.46899339
Au	 -6.61650495	 -15.88317223	 14.55749449
Au	 -6.61650495	 -15.88317223	 11.64599560
Au	 -6.61650495	 -15.88317223	 8.73449670
Au	 -6.61650495	 -15.88317223	 5.82299780
Au	 -6.61650495	 -15.88317223	 2.91149890
Au	 -6.61650495	 -15.88317223	 -0.00000000
Au	 -6.61650495	 -15.88317223	 -2.91149890
Au	 -6.61650495	 -15.88317223	 -5.82299780
Au	 -6.61650495	 -15.88317223	 -8.73449670
Au	 -6.61650495	 -15.88317223	 -11.64599560
Au	 -6.61650495	 -15.88317223	 -14.55749449
Au	 -6.61650495	 -15.88317223	 -17.46899339
Au	 -6.61650495	 -15.88317223	 -20.38049229
Au	 -6.61650495	 -15.88317223	 -23.29199119
Au	 -6.61650495	 -15.88317223	 -26.20349009
Au	 -5.88863022	 -18.12334029	 24.74774064
Au	 -5.88863022	 -18.12334029	 21.83624174
Au	 -5.88863022	 -18.12334029	 18.92474284
Au	 -5.88863022	 -18.12334029	 16.01324394
Au	 -5.88863022	 -18.12334029	 13.10174505
Au	 -5.88863022	 -18.12334029	 10.19024615
Au	 -5.88863022	 -18.12334029	 7.27874725
Au	 -5.88863022	 -18.12334029	 4.36724835
Au	 -5.88863022	 -18.12334029	 1.45574945
Au	 -5.88863022	 -18.12334029	 -1.45574945
Au	 -5.88863022	 -18.12334029	 -4.36724835
Au	 -5.88863022	 -18.12334029	 -7.27874725
Au	 -5.88863022	 -18.12334029	 -10.19024615
Au	 -5.88863022	 -18.12334029	 -13.10174505
Au	 -5.88863022	 -18.12334029	 -16.01324394
Au	 -5.88863022	 -18.12334029	 -18.92474284
Au	 -5.88863022	 -18.12334029	 -21.83624174
Au	 -5.88863022	 -18.12334029	 -24.74774064
Au	 -5.16075550	 -20.36350834	 23.29199119
Au	 -5.16075550	 -20.36350834	 20.38049229
Au	 -5.16075550	 -20.36350834	 17.46899339
Au	 -5.16075550	 -20.36350834	 14.55749449
Au	 -5.16075550	 -20.36350834	 11.64599560
Au	 -5.16075550	 -20.36350834	 8.73449670
Au	 -5.16075550	 -20.36350834	 5.82299780
Au	 -5.16075550	 -20.36350834	 2.91149890
Au	 -5.16075550	 -20.36350834	 -0.00000000
Au	 -5.16075550	 -20.36350834	 -2.91149890
Au	 -5.16075550	 -20.36350834	 -5.82299780
Au	 -5.16075550	 -20.36350834	 -8.73449670
Au	 -5.16075550	 -20.36350834	 -11.64599560
Au	 -5.16075550	 -20.36350834	 -14.55749449
Au	 -5.16075550	 -20.36350834	 -17.46899339
Au	 -5.16075550	 -20.36350834	 -20.38049229
Au	 -5.16075550	 -20.36350834	 -23.29199119
Au	 -6.89452835	 -7.77816806	 32.02648789
Au	 -6.89452835	 -7.77816806	 29.11498899
Au	 -6.89452835	 -7.77816806	 26.20349009
Au	 -6.89452835	 -7.77816806	 23.29199119
Au	 -6.89452835	 -7.77816806	 20.38049229
Au	 -6.89452835	 -7.77816806	 17.46899339
Au	 -6.89452835	 -7.77816806	 14.55749449
Au	 -6.89452835	 -7.77816806	 11.64599560
Au	 -6.89452835	 -7.77816806	 8.73449670
Au	 -6.89452835	 -7.77816806	 5.82299780
Au	 -6.89452835	 -7.77816806	 2.91149890
Au	 -6.89452835	 -7.77816806	 0.00000000
Au	 -6.89452835	 -7.77816806	 -2.91149890
Au	 -6.89452835	 -7.77816806	 -5.82299780
Au	 -6.89452835	 -7.77816806	 -8.73449670
Au	 -6.89452835	 -7.77816806	 -11.64599560
Au	 -6.89452835	 -7.77816806	 -14.55749449
Au	 -6.89452835	 -7.77816806	 -17.46899339
Au	 -6.89452835	 -7.77816806	 -20.38049229
Au	 -6.89452835	 -7.77816806	 -23.29199119
Au	 -6.89452835	 -7.77816806	 -26.20349009
Au	 -6.89452835	 -7.77816806	 -29.11498899
Au	 -6.89452835	 -7.77816806	 -32.02648789
Au	 -6.16665363	 -10.01833611	 30.57073844
Au	 -6.16665363	 -10.01833611	 27.65923954
Au	 -6.16665363	 -10.01833611	 24.74774064
Au	 -6.16665363	 -10.01833611	 21.83624174
Au	 -6.16665363	 -10.01833611	 18.92474284
Au	 -6.16665363	 -10.01833611	 16.01324394
Au	 -6.16665363	 -10.01833611	 13.10174505
Au	 -6.16665363	 -10.01833611	 10.19024615
Au	 -6.16665363	 -10.01833611	 7.27874725
Au	 -6.16665363	 -10.01833611	 4.36724835
Au	 -6.16665363	 -10.01833611	 1.45574945
Au	 -6.16665363	 -10.01833611	 -1.45574945
Au	 -6.16665363	 -10.01833611	 -4.36724835
Au	 -6.16665363	 -10.01833611	 -7.27874725
Au	 -6.16665363	 -10.01833611	 -10.19024615
Au	 -6.16665363	 -10.01833611	 -13.10174505
Au	 -6.16665363	 -10.01833611	 -16.01324394
Au	 -6.16665363	 -10.01833611	 -18.92474284
Au	 -6.16665363	 -10.01833611	 -21.83624174
Au	 -6.16665363	 -10.01833611	 -24.74774064
Au	 -6.16665363	 -10.01833611	 -27.65923954
Au	 -6.16665363	 -10.01833611	 -30.57073844
Au	 -5.43877890	 -12.25850417	 29.11498899
Au	 -5.43877890	 -12.25850417	 26.20349009
Au	 -5.43877890	 -12.25850417	 23.29199119
Au	 -5.43877890	 -12.25850417	 20.38049229
Au	 -5.43877890	 -12.25850417	 17.46899339
Au	 -5.43877890	 -12.25850417	 14.55749449
Au	 -5.43877890	 -12.25850417	 11.64599560
Au	 -5.43877890	 -12.25850417	 8.73449670
Au	 -5.43877890	 -12.25850417	 5.82299780
Au	 -5.43877890	 -12.25850417	 2.91149890
Au	 -5.43877890	 -12.25850417	 0.00000000
Au	 -5.43877890	 -12.25850417	 -2.91149890
Au	 -5.43877890	 -12.25850417	 -5.82299780
Au	 -5.43877890	 -12.25850417	 -8.73449670
Au	 -5.43877890	 -12.25850417	 -11.64599560
Au	 -5.43877890	 -12.25850417	 -14.55749449
Au	 -5.43877890	 -12.25850417	 -17.46899339
Au	 -5.43877890	 -12.25850417	 -20.38049229
Au	 -5.43877890	 -12.25850417	 -23.29199119
Au	 -5.43877890	 -12.25850417	 -26.20349009
Au	 -5.43877890	 -12.25850417	 -29.11498899
Au	 -4.71090418	 -14.49867223	 27.65923954
Au	 -4.71090418	 -14.49867223	 24.74774064
Au	 -4.71090418	 -14.49867223	 21.83624174
Au	 -4.71090418	 -14.49867223	 18.92474284
Au	 -4.71090418	 -14.49867223	 16.01324394
Au	 -4.71090418	 -14.49867223	 13.10174505
Au	 -4.71090418	 -14.49867223	 10.19024615
Au	 -4.71090418	 -14.49867223	 7.27874725
Au	 -4.71090418	 -14.49867223	 4.36724835
Au	 -4.71090418	 -14.49867223	 1.45574945
Au	 -4.71090418	 -14.49867223	 -1.45574945
Au	 -4.71090418	 -14.49867223	 -4.36724835
Au	 -4.71090418	 -14.49867223	 -7.27874725
Au	 -4.71090418	 -14.49867223	 -10.19024615
Au	 -4.71090418	 -14.49867223	 -13.10174505
Au	 -4.71090418	 -14.49867223	 -16.01324394
Au	 -4.71090418	 -14.49867223	 -18.92474284
Au	 -4.71090418	 -14.49867223	 -21.83624174
Au	 -4.71090418	 -14.49867223	 -24.74774064
Au	 -4.71090418	 -14.49867223	 -27.65923954
Au	 -3.98302945	 -16.73884029	 26.20349009
Au	 -3.98302945	 -16.73884029	 23.29199119
Au	 -3.98302945	 -16.73884029	 20.38049229
Au	 -3.98302945	 -16.73884029	 17.46899339
Au	 -3.98302945	 -16.73884029	 14.55749449
Au	 -3.98302945	 -16.73884029	 11.64599560
Au	 -3.98302945	 -16.73884029	 8.73449670
Au	 -3.98302945	 -16.73884029	 5.82299780
Au	 -3.98302945	 -16.73884029	 2.91149890
Au	 -3.98302945	 -16.73884029	 -0.00000000
Au	 -3.98302945	 -16.73884029	 -2.91149890
Au	 -3.98302945	 -16.73884029	 -5.82299780
Au	 -3.98302945	 -16.73884029	 -8.73449670
Au	 -3.98302945	 -16.73884029	 -11.64599560
Au	 -3.98302945	 -16.73884029	 -14.55749449
Au	 -3.98302945	 -16.73884029	 -17.46899339
Au	 -3.98302945	 -16.73884029	 -20.38049229
Au	 -3.98302945	 -16.73884029	 -23.29199119
Au	 -3.98302945	 -16.73884029	 -26.20349009
Au	 -3.25515473	 -18.97900834	 24.74774064
Au	 -3.25515473	 -18.97900834	 21.83624174
Au	 -3.25515473	 -18.97900834	 18.92474284
Au	 -3.25515473	 -18.97900834	 16.01324394
Au	 -3.25515473	 -18.97900834	 13.10174505
Au	 -3.25515473	 -18.97900834	 10.19024615
Au	 -3.25515473	 -18.97900834	 7.27874725
Au	 -3.25515473	 -18.97900834	 4.36724835
Au	 -3.25515473	 -18.97900834	 1.45574945
Au	 -3.25515473	 -18.97900834	 -1.45574945
Au	 -3.25515473	 -18.97900834	 -4.36724835
Au	 -3.25515473	 -18.97900834	 -7.27874725
Au	 -3.25515473	 -18.97900834	 -10.19024615
Au	 -3.25515473	 -18.97900834	 -13.10174505
Au	 -3.25515473	 -18.97900834	 -16.01324394
Au	 -3.25515473	 -18.97900834	 -18.92474284
Au	 -3.25515473	 -18.97900834	 -21.83624174
Au	 -3.25515473	 -18.97900834	 -24.74774064
Au	 -2.52728000	 -21.21917640	 23.29199119
Au	 -2.52728000	 -21.21917640	 20.38049229
Au	 -2.52728000	 -21.21917640	 17.46899339
Au	 -2.52728000	 -21.21917640	 14.55749449
Au	 -2.52728000	 -21.21917640	 11.64599560
Au	 -2.52728000	 -21.21917640	 8.73449670
Au	 -2.52728000	 -21.21917640	 5.82299780
Au	 -2.52728000	 -21.21917640	 2.91149890
Au	 -2.52728000	 -21.21917640	 -0.00000000
Au	 -2.52728000	 -21.21917640	 -2.91149890
Au	 -2.52728000	 -21.21917640	 -5.82299780
Au	 -2.52728000	 -21.21917640	 -8.73449670
Au	 -2.52728000	 -21.21917640	 -11.64599560
Au	 -2.52728000	 -21.21917640	 -14.55749449
Au	 -2.52728000	 -21.21917640	 -17.46899339
Au	 -2.52728000	 -21.21917640	 -20.38049229
Au	 -2.52728000	 -21.21917640	 -23.29199119
Au	 -4.98892758	 -6.39366806	 33.48223734
Au	 -4.98892758	 -6.39366806	 30.57073844
Au	 -4.98892758	 -6.39366806	 27.65923954
Au	 -4.98892758	 -6.39366806	 24.74774064
Au	 -4.98892758	 -6.39366806	 21.83624174
Au	 -4.98892758	 -6.39366806	 18.92474284
Au	 -4.98892758	 -6.39366806	 16.01324394
Au	 -4.98892758	 -6.39366806	 13.10174505
Au	 -4.98892758	 -6.39366806	 10.19024615
Au	 -4.98892758	 -6.39366806	 7.27874725
Au	 -4.98892758	 -6.39366806	 4.36724835
Au	 -4.98892758	 -6.39366806	 1.45574945
Au	 -4.98892758	 -6.39366806	 -1.45574945
Au	 -4.98892758	 -6.39366806	 -4.36724835
Au	 -4.98892758	 -6.39366806	 -7.27874725
Au	 -4.98892758	 -6.39366806	 -10.19024615
Au	 -4.98892758	 -6.39366806	 -13.10174505
Au	 -4.98892758	 -6.39366806	 -16.01324394
Au	 -4.98892758	 -6.39366806	 -18.92474284
Au	 -4.98892758	 -6.39366806	 -21.83624174
Au	 -4.98892758	 -6.39366806	 -24.74774064
Au	 -4.98892758	 -6.39366806	 -27.65923954
Au	 -4.98892758	 -6.39366806	 -30.57073844
Au	 -4.98892758	 -6.39366806	 -33.48223734
Au	 -4.26105286	 -8.63383611	 32.02648789
Au	 -4.26105286	 -8.63383611	 29.11498899
Au	 -4.26105286	 -8.63383611	 26.20349009
Au	 -4.26105286	 -8.63383611	 23.29199119
Au	 -4.26105286	 -8.63383611	 20.38049229
Au	 -4.26105286	 -8.63383611	 17.46899339
Au	 -4.26105286	 -8.63383611	 14.55749449
Au	 -4.26105286	 -8.63383611	 11.64599560
Au	 -4.26105286	 -8.63383611	 8.73449670
Au	 -4.26105286	 -8.63383611	 5.82299780
Au	 -4.26105286	 -8.63383611	 2.91149890
Au	 -4.26105286	 -8.63383611	 0.00000000
Au	 -4.26105286	 -8.63383611	 -2.91149890
Au	 -4.26105286	 -8.63383611	 -5.82299780
Au	 -4.26105286	 -8.63383611	 -8.73449670
Au	 -4.26105286	 -8.63383611	 -11.64599560
Au	 -4.26105286	 -8.63383611	 -14.55749449
Au	 -4.26105286	 -8.63383611	 -17.46899339
Au	 -4.26105286	 -8.63383611	 -20.38049229
Au	 -4.26105286	 -8.63383611	 -23.29199119
Au	 -4.26105286	 -8.63383611	 -26.20349009
Au	 -4.26105286	 -8.63383611	 -29.11498899
Au	 -4.26105286	 -8.63383611	 -32.02648789
Au	 -3.53317813	 -10.87400417	 30.57073844
Au	 -3.53317813	 -10.87400417	 27.65923954
Au	 -3.53317813	 -10.87400417	 24.74774064
Au	 -3.53317813	 -10.87400417	 21.83624174
Au	 -3.53317813	 -10.87400417	 18.92474284
Au	 -3.53317813	 -10.87400417	 16.01324394
Au	 -3.53317813	 -10.87400417	 13.10174505
Au	 -3.53317813	 -10.87400417	 10.19024615
Au	 -3.53317813	 -10.87400417	 7.27874725
Au	 -3.53317813	 -10.87400417	 4.36724835
Au	 -3.53317813	 -10.87400417	 1.45574945
Au	 -3.53317813	 -10.87400417	 -1.45574945
Au	 -3.53317813	 -10.87400417	 -4.36724835
Au	 -3.53317813	 -10.87400417	 -7.27874725
Au	 -3.53317813	 -10.87400417	 -10.19024615
Au	 -3.53317813	 -10.87400417	 -13.10174505
Au	 -3.53317813	 -10.87400417	 -16.01324394
Au	 -3.53317813	 -10.87400417	 -18.92474284
Au	 -3.53317813	 -10.87400417	 -21.83624174
Au	 -3.53317813	 -10.87400417	 -24.74774064
Au	 -3.53317813	 -10.87400417	 -27.65923954
Au	 -3.53317813	 -10.87400417	 -30.57073844
Au	 -2.80530341	 -13.11417223	 29.11498899
Au	 -2.80530341	 -13.11417223	 26.20349009
Au	 -2.80530341	 -13.11417223	 23.29199119
Au	 -2.80530341	 -13.11417223	 20.38049229
Au	 -2.80530341	 -13.11417223	 17.46899339
Au	 -2.80530341	 -13.11417223	 14.55749449
Au	 -2.80530341	 -13.11417223	 11.64599560
Au	 -2.80530341	 -13.11417223	 8.73449670
Au	 -2.80530341	 -13.11417223	 5.82299780
Au	 -2.80530341	 -13.11417223	 2.91149890
Au	 -2.80530341	 -13.11417223	 0.00000000
Au	 -2.80530341	 -13.11417223	 -2.91149890
Au	 -2.80530341	 -13.11417223	 -5.82299780
Au	 -2.80530341	 -13.11417223	 -8.73449670
Au	 -2.80530341	 -13.11417223	 -11.64599560
Au	 -2.80530341	 -13.11417223	 -14.55749449
Au	 -2.80530341	 -13.11417223	 -17.46899339
Au	 -2.80530341	 -13.11417223	 -20.38049229
Au	 -2.80530341	 -13.11417223	 -23.29199119
Au	 -2.80530341	 -13.11417223	 -26.20349009
Au	 -2.80530341	 -13.11417223	 -29.11498899
Au	 -2.07742868	 -15.35434029	 27.65923954
Au	 -2.07742868	 -15.35434029	 24.74774064
Au	 -2.07742868	 -15.35434029	 21.83624174
Au	 -2.07742868	 -15.35434029	 18.92474284
Au	 -2.07742868	 -15.35434029	 16.01324394
Au	 -2.07742868	 -15.35434029	 13.10174505
Au	 -2.07742868	 -15.35434029	 10.19024615
Au	 -2.07742868	 -15.35434029	 7.27874725
Au	 -2.07742868	 -15.35434029	 4.36724835
Au	 -2.07742868	 -15.35434029	 1.45574945
Au	 -2.07742868	 -15.35434029	 -1.45574945
Au	 -2.07742868	 -15.35434029	 -4.36724835
Au	 -2.07742868	 -15.35434029	 -7.27874725
Au	 -2.07742868	 -15.35434029	 -10.19024615
Au	 -2.07742868	 -15.35434029	 -13.10174505
Au	 -2.07742868	 -15.35434029	 -16.01324394
Au	 -2.07742868	 -15.35434029	 -18.92474284
Au	 -2.07742868	 -15.35434029	 -21.83624174
Au	 -2.07742868	 -15.35434029	 -24.74774064
Au	 -2.07742868	 -15.35434029	 -27.65923954
Au	 -1.34955396	 -17.59450834	 26.20349009
Au	 -1.34955396	 -17.59450834	 23.29199119
Au	 -1.34955396	 -17.59450834	 20.38049229
Au	 -1.34955396	 -17.59450834	 17.46899339
Au	 -1.34955396	 -17.59450834	 14.55749449
Au	 -1.34955396	 -17.59450834	 11.64599560
Au	 -1.34955396	 -17.59450834	 8.73449670
Au	 -1.34955396	 -17.59450834	 5.82299780
Au	 -1.34955396	 -17.59450834	 2.91149890
Au	 -1.34955396	 -17.59450834	 0.00000000
Au	 -1.34955396	 -17.59450834	 -2.91149890
Au	 -1.34955396	 -17.59450834	 -5.82299780
Au	 -1.34955396	 -17.59450834	 -8.73449670
Au	 -1.34955396	 -17.59450834	 -11.64599560
Au	 -1.34955396	 -17.59450834	 -14.55749449
Au	 -1.34955396	 -17.59450834	 -17.46899339
Au	 -1.34955396	 -17.59450834	 -20.38049229
Au	 -1.34955396	 -17.59450834	 -23.29199119
Au	 -1.34955396	 -17.59450834	 -26.20349009
Au	 -0.62167923	 -19.83467640	 24.74774064
Au	 -0.62167923	 -19.83467640	 21.83624174
Au	 -0.62167923	 -19.83467640	 18.92474284
Au	 -0.62167923	 -19.83467640	 16.01324394
Au	 -0.62167923	 -19.83467640	 13.10174505
Au	 -0.62167923	 -19.83467640	 10.19024615
Au	 -0.62167923	 -19.83467640	 7.27874725
Au	 -0.62167923	 -19.83467640	 4.36724835
Au	 -0.62167923	 -19.83467640	 1.45574945
Au	 -0.62167923	 -19.83467640	 -1.45574945
Au	 -0.62167923	 -19.83467640	 -4.36724835
Au	 -0.62167923	 -19.83467640	 -7.27874725
Au	 -0.62167923	 -19.83467640	 -10.19024615
Au	 -0.62167923	 -19.83467640	 -13.10174505
Au	 -0.62167923	 -19.83467640	 -16.01324394
Au	 -0.62167923	 -19.83467640	 -18.92474284
Au	 -0.62167923	 -19.83467640	 -21.83624174
Au	 -0.62167923	 -19.83467640	 -24.74774064
Au	 0.10619549	 -22.07484446	 23.29199119
Au	 0.10619549	 -22.07484446	 20.38049229
Au	 0.10619549	 -22.07484446	 17.46899339
Au	 0.10619549	 -22.07484446	 14.55749449
Au	 0.10619549	 -22.07484446	 11.64599560
Au	 0.10619549	 -22.07484446	 8.73449670
Au	 0.10619549	 -22.07484446	 5.82299780
Au	 0.10619549	 -22.07484446	 2.91149890
Au	 0.10619549	 -22.07484446	 -0.00000000
Au	 0.10619549	 -22.07484446	 -2.91149890
Au	 0.10619549	 -22.07484446	 -5.82299780
Au	 0.10619549	 -22.07484446	 -8.73449670
Au	 0.10619549	 -22.07484446	 -11.64599560
Au	 0.10619549	 -22.07484446	 -14.55749449
Au	 0.10619549	 -22.07484446	 -17.46899339
Au	 0.10619549	 -22.07484446	 -20.38049229
Au	 0.10619549	 -22.07484446	 -23.29199119
Au	 -3.08332681	 -5.00916806	 34.93798679
Au	 -3.08332681	 -5.00916806	 32.02648789
Au	 -3.08332681	 -5.00916806	 29.11498899
Au	 -3.08332681	 -5.00916806	 26.20349009
Au	 -3.08332681	 -5.00916806	 23.29199119
Au	 -3.08332681	 -5.00916806	 20.38049229
Au	 -3.08332681	 -5.00916806	 17.46899339
Au	 -3.08332681	 -5.00916806	 14.55749449
Au	 -3.08332681	 -5.00916806	 11.64599560
Au	 -3.08332681	 -5.00916806	 8.73449670
Au	 -3.08332681	 -5.00916806	 5.82299780
Au	 -3.08332681	 -5.00916806	 2.91149890
Au	 -3.08332681	 -5.00916806	 0.00000000
Au	 -3.08332681	 -5.00916806	 -2.91149890
Au	 -3.08332681	 -5.00916806	 -5.82299780
Au	 -3.08332681	 -5.00916806	 -8.73449670
Au	 -3.08332681	 -5.00916806	 -11.64599560
Au	 -3.08332681	 -5.00916806	 -14.55749449
Au	 -3.08332681	 -5.00916806	 -17.46899339
Au	 -3.08332681	 -5.00916806	 -20.38049229
Au	 -3.08332681	 -5.00916806	 -23.29199119
Au	 -3.08332681	 -5.00916806	 -26.20349009
Au	 -3.08332681	 -5.00916806	 -29.11498899
Au	 -3.08332681	 -5.00916806	 -32.02648789
Au	 -3.08332681	 -5.00916806	 -34.93798679
Au	 -2.35545209	 -7.24933611	 33.48223734
Au	 -2.35545209	 -7.24933611	 30.57073844
Au	 -2.35545209	 -7.24933611	 27.65923954
Au	 -2.35545209	 -7.24933611	 24.74774064
Au	 -2.35545209	 -7.24933611	 21.83624174
Au	 -2.35545209	 -7.24933611	 18.92474284
Au	 -2.35545209	 -7.24933611	 16.01324394
Au	 -2.35545209	 -7.24933611	 13.10174505
Au	 -2.35545209	 -7.24933611	 10.19024615
Au	 -2.35545209	 -7.24933611	 7.27874725
Au	 -2.35545209	 -7.24933611	 4.36724835
Au	 -2.35545209	 -7.24933611	 1.45574945
Au	 -2.35545209	 -7.24933611	 -1.45574945
Au	 -2.35545209	 -7.24933611	 -4.36724835
Au	 -2.35545209	 -7.24933611	 -7.27874725
Au	 -2.35545209	 -7.24933611	 -10.19024615
Au	 -2.35545209	 -7.24933611	 -13.10174505
Au	 -2.35545209	 -7.24933611	 -16.01324394
Au	 -2.35545209	 -7.24933611	 -18.92474284
Au	 -2.35545209	 -7.24933611	 -21.83624174
Au	 -2.35545209	 -7.24933611	 -24.74774064
Au	 -2.35545209	 -7.24933611	 -27.65923954
Au	 -2.35545209	 -7.24933611	 -30.57073844
Au	 -2.35545209	 -7.24933611	 -33.48223734
Au	 -1.62757736	 -9.48950417	 32.02648789
Au	 -1.62757736	 -9.48950417	 29.11498899
Au	 -1.62757736	 -9.48950417	 26.20349009
Au	 -1.62757736	 -9.48950417	 23.29199119
Au	 -1.62757736	 -9.48950417	 20.38049229
Au	 -1.62757736	 -9.48950417	 17.46899339
Au	 -1.62757736	 -9.48950417	 14.55749449
Au	 -1.62757736	 -9.48950417	 11.64599560
Au	 -1.62757736	 -9.48950417	 8.73449670
Au	 -1.62757736	 -9.48950417	 5.82299780
Au	 -1.62757736	 -9.48950417	 2.91149890
Au	 -1.62757736	 -9.48950417	 0.00000000
Au	 -1.62757736	 -9.48950417	 -2.91149890
Au	 -1.62757736	 -9.48950417	 -5.82299780
Au	 -1.62757736	 -9.48950417	 -8.73449670
Au	 -1.62757736	 -9.48950417	 -11.64599560
Au	 -1.62757736	 -9.48950417	 -14.55749449
Au	 -1.62757736	 -9.48950417	 -17.46899339
Au	 -1.62757736	 -9.48950417	 -20.38049229
Au	 -1.62757736	 -9.48950417	 -23.29199119
Au	 -1.62757736	 -9.48950417	 -26.20349009
Au	 -1.62757736	 -9.48950417	 -29.11498899
Au	 -1.62757736	 -9.48950417	 -32.02648789
Au	 -0.89970264	 -11.72967223	 30.57073844
Au	 -0.89970264	 -11.72967223	 27.65923954
Au	 -0.89970264	 -11.72967223	 24.74774064
Au	 -0.89970264	 -11.72967223	 21.83624174
Au	 -0.89970264	 -11.72967223	 18.92474284
Au	 -0.89970264	 -11.72967223	 16.01324394
Au	 -0.89970264	 -11.72967223	 13.10174505
Au	 -0.89970264	 -11.72967223	 10.19024615
Au	 -0.89970264	 -11.72967223	 7.27874725
Au	 -0.89970264	 -11.72967223	 4.36724835
Au	 -0.89970264	 -11.72967223	 1.45574945
Au	 -0.89970264	 -11.72967223	 -1.45574945
Au	 -0.89970264	 -11.72967223	 -4.36724835
Au	 -0.89970264	 -11.72967223	 -7.27874725
Au	 -0.89970264	 -11.72967223	 -10.19024615
Au	 -0.89970264	 -11.72967223	 -13.10174505
Au	 -0.89970264	 -11.72967223	 -16.01324394
Au	 -0.89970264	 -11.72967223	 -18.92474284
Au	 -0.89970264	 -11.72967223	 -21.83624174
Au	 -0.89970264	 -11.72967223	 -24.74774064
Au	 -0.89970264	 -11.72967223	 -27.65923954
Au	 -0.89970264	 -11.72967223	 -30.57073844
Au	 -0.17182791	 -13.96984029	 29.11498899
Au	 -0.17182791	 -13.96984029	 26.20349009
Au	 -0.17182791	 -13.96984029	 23.29199119
Au	 -0.17182791	 -13.96984029	 20.38049229
Au	 -0.17182791	 -13.96984029	 17.46899339
Au	 -0.17182791	 -13.96984029	 14.55749449
Au	 -0.17182791	 -13.96984029	 11.64599560
Au	 -0.17182791	 -13.96984029	 8.73449670
Au	 -0.17182791	 -13.96984029	 5.82299780
Au	 -0.17182791	 -13.96984029	 2.91149890
Au	 -0.17182791	 -13.96984029	 0.00000000
Au	 -0.17182791	 -13.96984029	 -2.91149890
Au	 -0.17182791	 -13.96984029	 -5.82299780
Au	 -0.17182791	 -13.96984029	 -8.73449670
Au	 -0.17182791	 -13.96984029	 -11.64599560
Au	 -0.17182791	 -13.96984029	 -14.55749449
Au	 -0.17182791	 -13.96984029	 -17.46899339
Au	 -0.17182791	 -13.96984029	 -20.38049229
Au	 -0.17182791	 -13.96984029	 -23.29199119
Au	 -0.17182791	 -13.96984029	 -26.20349009
Au	 -0.17182791	 -13.96984029	 -29.11498899
Au	 0.55604681	 -16.21000834	 27.65923954
Au	 0.55604681	 -16.21000834	 24.74774064
Au	 0.55604681	 -16.21000834	 21.83624174
Au	 0.55604681	 -16.21000834	 18.92474284
Au	 0.55604681	 -16.21000834	 16.01324394
Au	 0.55604681	 -16.21000834	 13.10174505
Au	 0.55604681	 -16.21000834	 10.19024615
Au	 0.55604681	 -16.21000834	 7.27874725
Au	 0.55604681	 -16.21000834	 4.36724835
Au	 0.55604681	 -16.21000834	 1.45574945
Au	 0.55604681	 -16.21000834	 -1.45574945
Au	 0.55604681	 -16.21000834	 -4.36724835
Au	 0.55604681	 -16.21000834	 -7.27874725
Au	 0.55604681	 -16.21000834	 -10.19024615
Au	 0.55604681	 -16.21000834	 -13.10174505
Au	 0.55604681	 -16.21000834	 -16.01324394
Au	 0.55604681	 -16.21000834	 -18.92474284
Au	 0.55604681	 -16.21000834	 -21.83624174
Au	 0.55604681	 -16.21000834	 -24.74774064
Au	 0.55604681	 -16.21000834	 -27.65923954
Au	 1.28392154	 -18.45017640	 26.20349009
Au	 1.28392154	 -18.45017640	 23.29199119
Au	 1.28392154	 -18.45017640	 20.38049229
Au	 1.28392154	 -18.45017640	 17.46899339
Au	 1.28392154	 -18.45017640	 14.55749449
Au	 1.28392154	 -18.45017640	 11.64599560
Au	 1.28392154	 -18.45017640	 8.73449670
Au	 1.28392154	 -18.45017640	 5.82299780
Au	 1.28392154	 -18.45017640	 2.91149890
Au	 1.28392154	 -18.45017640	 0.00000000
Au	 1.28392154	 -18.45017640	 -2.91149890
Au	 1.28392154	 -18.45017640	 -5.82299780
Au	 1.28392154	 -18.45017640	 -8.73449670
Au	 1.28392154	 -18.45017640	 -11.64599560
Au	 1.28392154	 -18.45017640	 -14.55749449
Au	 1.28392154	 -18.45017640	 -17.46899339
Au	 1.28392154	 -18.45017640	 -20.38049229
Au	 1.28392154	 -18.45017640	 -23.29199119
Au	 1.28392154	 -18.45017640	 -26.20349009
Au	 2.01179626	 -20.69034446	 24.74774064
Au	 2.01179626	 -20.69034446	 21.83624174
Au	 2.01179626	 -20.69034446	 18.92474284
Au	 2.01179626	 -20.69034446	 16.01324394
Au	 2.01179626	 -20.69034446	 13.10174505
Au	 2.01179626	 -20.69034446	 10.19024615
Au	 2.01179626	 -20.69034446	 7.27874725
Au	 2.01179626	 -20.69034446	 4.36724835
Au	 2.01179626	 -20.69034446	 1.45574945
Au	 2.01179626	 -20.69034446	 -1.45574945
Au	 2.01179626	 -20.69034446	 -4.36724835
Au	 2.01179626	 -20.69034446	 -7.27874725
Au	 2.01179626	 -20.69034446	 -10.19024615
Au	 2.01179626	 -20.69034446	 -13.10174505
Au	 2.01179626	 -20.69034446	 -16.01324394
Au	 2.01179626	 -20.69034446	 -18.92474284
Au	 2.01179626	 -20.69034446	 -21.83624174
Au	 2.01179626	 -20.69034446	 -24.74774064
Au	 2.73967098	 -22.93051252	 23.29199119
Au	 2.73967098	 -22.93051252	 20.38049229
Au	 2.73967098	 -22.93051252	 17.46899339
Au	 2.73967098	 -22.93051252	 14.55749449
Au	 2.73967098	 -22.93051252	 11.64599560
Au	 2.73967098	 -22.93051252	 8.73449670
Au	 2.73967098	 -22.93051252	 5.82299780
Au	 2.73967098	 -22.93051252	 2.91149890
Au	 2.73967098	 -22.93051252	 0.00000000
Au	 2.73967098	 -22.93051252	 -2.91149890
Au	 2.73967098	 -22.93051252	 -5.82299780
Au	 2.73967098	 -22.93051252	 -8.73449670
Au	 2.73967098	 -22.93051252	 -11.64599560
Au	 2.73967098	 -22.93051252	 -14.55749449
Au	 2.73967098	 -22.93051252	 -17.46899339
Au	 2.73967098	 -22.93051252	 -20.38049229
Au	 2.73967098	 -22.93051252	 -23.29199119
Au	 -1.17772604	 -3.62466806	 36.39373624
Au	 -1.17772604	 -3.62466806	 33.48223734
Au	 -1.17772604	 -3.62466806	 30.57073844
Au	 -1.17772604	 -3.62466806	 27.65923954
Au	 -1.17772604	 -3.62466806	 24.74774064
Au	 -1.17772604	 -3.62466806	 21.83624174
Au	 -1.17772604	 -3.62466806	 18.92474284
Au	 -1.17772604	 -3.62466806	 16.01324394
Au	 -1.17772604	 -3.62466806	 13.10174505
Au	 -1.17772604	 -3.62466806	 10.19024615
Au	 -1.17772604	 -3.62466806	 7.27874725
Au	 -1.17772604	 -3.62466806	 4.36724835
Au	 -1.17772604	 -3.62466806	 1.45574945
Au	 -1.17772604	 -3.62466806	 -1.45574945
Au	 -1.17772604	 -3.62466806	 -4.36724835
Au	 -1.17772604	 -3.62466806	 -7.27874725
Au	 -1.17772604	 -3.62466806	 -10.19024615
Au	 -1.17772604	 -3.62466806	 -13.10174505
Au	 -1.17772604	 -3.62466806	 -16.01324394
Au	 -1.17772604	 -3.62466806	 -18.92474284
Au	 -1.17772604	 -3.62466806	 -21.83624174
Au	 -1.17772604	 -3.62466806	 -24.74774064
Au	 -1.17772604	 -3.62466806	 -27.65923954
Au	 -1.17772604	 -3.62466806	 -30.57073844
Au	 -1.17772604	 -3.62466806	 -33.48223734
Au	 -1.17772604	 -3.62466806	 -36.39373624
Au	 -0.44985132	 -5.86483611	 34.93798679
Au	 -0.44985132	 -5.86483611	 32.02648789
Au	 -0.44985132	 -5.86483611	 29.11498899
Au	 -0.44985132	 -5.86483611	 26.20349009
Au	 -0.44985132	 -5.86483611	 23.29199119
Au	 -0.44985132	 -5.86483611	 20.38049229
Au	 -0.44985132	 -5.86483611	 17.46899339
Au	 -0.44985132	 -5.86483611	 14.55749449
Au	 -0.44985132	 -5.86483611	 11.64599560
Au	 -0.44985132	 -5.86483611	 8.73449670
Au	 -0.44985132	 -5.86483611	 5.82299780
Au	 -0.44985132	 -5.86483611	 2.91149890
Au	 -0.44985132	 -5.86483611	 0.00000000
Au	 -0.44985132	 -5.86483611	 -2.91149890
Au	 -0.44985132	 -5.86483611	 -5.82299780
Au	 -0.44985132	 -5.86483611	 -8.73449670
Au	 -0.44985132	 -5.86483611	 -11.64599560
Au	 -0.44985132	 -5.86483611	 -14.55749449
Au	 -0.44985132	 -5.86483611	 -17.46899339
Au	 -0.44985132	 -5.86483611	 -20.38049229
Au	 -0.44985132	 -5.86483611	 -23.29199119
Au	 -0.44985132	 -5.86483611	 -26.20349009
Au	 -0.44985132	 -5.86483611	 -29.11498899
Au	 -0.44985132	 -5.86483611	 -32.02648789
Au	 -0.44985132	 -5.86483611	 -34.93798679
Au	 0.27802341	 -8.10500417	 33.48223734
Au	 0.27802341	 -8.10500417	 30.57073844
Au	 0.27802341	 -8.10500417	 27.65923954
Au	 0.27802341	 -8.10500417	 24.74774064
Au	 0.27802341	 -8.10500417	 21.83624174
Au	 0.27802341	 -8.10500417	 18.92474284
Au	 0.27802341	 -8.10500417	 16.01324394
Au	 0.27802341	 -8.10500417	 13.10174505
Au	 0.27802341	 -8.10500417	 10.19024615
Au	 0.27802341	 -8.10500417	 7.27874725
Au	 0.27802341	 -8.10500417	 4.36724835
Au	 0.27802341	 -8.10500417	 1.45574945
Au	 0.27802341	 -8.10500417	 -1.45574945
Au	 0.27802341	 -8.10500417	 -4.36724835
Au	 0.27802341	 -8.10500417	 -7.27874725
Au	 0.27802341	 -8.10500417	 -10.19024615
Au	 0.27802341	 -8.10500417	 -13.10174505
Au	 0.27802341	 -8.10500417	 -16.01324394
Au	 0.27802341	 -8.10500417	 -18.92474284
Au	 0.27802341	 -8.10500417	 -21.83624174
Au	 0.27802341	 -8.10500417	 -24.74774064
Au	 0.27802341	 -8.10500417	 -27.65923954
Au	 0.27802341	 -8.10500417	 -30.57073844
Au	 0.27802341	 -8.10500417	 -33.48223734
Au	 1.00589813	 -10.34517223	 32.02648789
Au	 1.00589813	 -10.34517223	 29.11498899
Au	 1.00589813	 -10.34517223	 26.20349009
Au	 1.00589813	 -10.34517223	 23.29199119
Au	 1.00589813	 -10.34517223	 20.38049229
Au	 1.00589813	 -10.34517223	 17.46899339
Au	 1.00589813	 -10.34517223	 14.55749449
Au	 1.00589813	 -10.34517223	 11.64599560
Au	 1.00589813	 -10.34517223	 8.73449670
Au	 1.00589813	 -10.34517223	 5.82299780
Au	 1.00589813	 -10.34517223	 2.91149890
Au	 1.00589813	 -10.34517223	 0.00000000
Au	 1.00589813	 -10.34517223	 -2.91149890
Au	 1.00589813	 -10.34517223	 -5.82299780
Au	 1.00589813	 -10.34517223	 -8.73449670
Au	 1.00589813	 -10.34517223	 -11.64599560
Au	 1.00589813	 -10.34517223	 -14.55749449
Au	 1.00589813	 -10.34517223	 -17.46899339
Au	 1.00589813	 -10.34517223	 -20.38049229
Au	 1.00589813	 -10.34517223	 -23.29199119
Au	 1.00589813	 -10.34517223	 -26.20349009
Au	 1.00589813	 -10.34517223	 -29.11498899
Au	 1.00589813	 -10.34517223	 -32.02648789
Au	 1.73377285	 -12.58534029	 30.57073844
Au	 1.73377285	 -12.58534029	 27.65923954
Au	 1.73377285	 -12.58534029	 24.74774064
Au	 1.73377285	 -12.58534029	 21.83624174
Au	 1.73377285	 -12.58534029	 18.92474284
Au	 1.73377285	 -12.58534029	 16.01324394
Au	 1.73377285	 -12.58534029	 13.10174505
Au	 1.73377285	 -12.58534029	 10.19024615
Au	 1.73377285	 -12.58534029	 7.27874725
Au	 1.73377285	 -12.58534029	 4.36724835
Au	 1.73377285	 -12.58534029	 1.45574945
Au	 1.73377285	 -12.58534029	 -1.45574945
Au	 1.73377285	 -12.58534029	 -4.36724835
Au	 1.73377285	 -12.58534029	 -7.27874725
Au	 1.73377285	 -12.58534029	 -10.19024615
Au	 1.73377285	 -12.58534029	 -13.10174505
Au	 1.73377285	 -12.58534029	 -16.01324394
Au	 1.73377285	 -12.58534029	 -18.92474284
Au	 1.73377285	 -12.58534029	 -21.83624174
Au	 1.73377285	 -12.58534029	 -24.74774064
Au	 1.73377285	 -12.58534029	 -27.65923954
Au	 1.73377285	 -12.58534029	 -30.57073844
Au	 2.46164758	 -14.82550834	 29.11498899
Au	 2.46164758	 -14.82550834	 26.20349009
Au	 2.46164758	 -14.82550834	 23.29199119
Au	 2.46164758	 -14.82550834	 20.38049229
Au	 2.46164758	 -14.82550834	 17.46899339
Au	 2.46164758	 -14.82550834	 14.55749449
Au	 2.46164758	 -14.82550834	 11.64599560
Au	 2.46164758	 -14.82550834	 8.73449670
Au	 2.46164758	 -14.82550834	 5.82299780
Au	 2.46164758	 -14.82550834	 2.91149890
Au	 2.46164758	 -14.82550834	 0.00000000
Au	 2.46164758	 -14.82550834	 -2.91149890
Au	 2.46164758	 -14.82550834	 -5.82299780
Au	 2.46164758	 -14.82550834	 -8.73449670
Au	 2.46164758	 -14.82550834	 -11.64599560
Au	 2.46164758	 -14.82550834	 -14.55749449
Au	 2.46164758	 -14.82550834	 -17.46899339
Au	 2.46164758	 -14.82550834	 -20.38049229
Au	 2.46164758	 -14.82550834	 -23.29199119
Au	 2.46164758	 -14.82550834	 -26.20349009
Au	 2.46164758	 -14.82550834	 -29.11498899
Au	 3.18952230	 -17.06567640	 27.65923954
Au	 3.18952230	 -17.06567640	 24.74774064
Au	 3.18952230	 -17.06567640	 21.83624174
Au	 3.18952230	 -17.06567640	 18.92474284
Au	 3.18952230	 -17.06567640	 16.01324394
Au	 3.18952230	 -17.06567640	 13.10174505
Au	 3.18952230	 -17.06567640	 10.19024615
Au	 3.18952230	 -17.06567640	 7.27874725
Au	 3.18952230	 -17.06567640	 4.36724835
Au	 3.18952230	 -17.06567640	 1.45574945
Au	 3.18952230	 -17.06567640	 -1.45574945
Au	 3.18952230	 -17.06567640	 -4.36724835
Au	 3.18952230	 -17.06567640	 -7.27874725
Au	 3.18952230	 -17.06567640	 -10.19024615
Au	 3.18952230	 -17.06567640	 -13.10174505
Au	 3.18952230	 -17.06567640	 -16.01324394
Au	 3.18952230	 -17.06567640	 -18.92474284
Au	 3.18952230	 -17.06567640	 -21.83624174
Au	 3.18952230	 -17.06567640	 -24.74774064
Au	 3.18952230	 -17.06567640	 -27.65923954
Au	 3.91739703	 -19.30584446	 26.20349009
Au	 3.91739703	 -19.30584446	 23.29199119
Au	 3.91739703	 -19.30584446	 20.38049229
Au	 3.91739703	 -19.30584446	 17.46899339
Au	 3.91739703	 -19.30584446	 14.55749449
Au	 3.91739703	 -19.30584446	 11.64599560
Au	 3.91739703	 -19.30584446	 8.73449670
Au	 3.91739703	 -19.30584446	 5.82299780
Au	 3.91739703	 -19.30584446	 2.91149890
Au	 3.91739703	 -19.30584446	 -0.00000000
Au	 3.91739703	 -19.30584446	 -2.91149890
Au	 3.91739703	 -19.30584446	 -5.82299780
Au	 3.91739703	 -19.30584446	 -8.73449670
Au	 3.91739703	 -19.30584446	 -11.64599560
Au	 3.91739703	 -19.30584446	 -14.55749449
Au	 3.91739703	 -19.30584446	 -17.46899339
Au	 3.91739703	 -19.30584446	 -20.38049229
Au	 3.91739703	 -19.30584446	 -23.29199119
Au	 3.91739703	 -19.30584446	 -26.20349009
Au	 4.64527175	 -21.54601252	 24.74774064
Au	 4.64527175	 -21.54601252	 21.83624174
Au	 4.64527175	 -21.54601252	 18.92474284
Au	 4.64527175	 -21.54601252	 16.01324394
Au	 4.64527175	 -21.54601252	 13.10174505
Au	 4.64527175	 -21.54601252	 10.19024615
Au	 4.64527175	 -21.54601252	 7.27874725
Au	 4.64527175	 -21.54601252	 4.36724835
Au	 4.64527175	 -21.54601252	 1.45574945
Au	 4.64527175	 -21.54601252	 -1.45574945
Au	 4.64527175	 -21.54601252	 -4.36724835
Au	 4.64527175	 -21.54601252	 -7.27874725
Au	 4.64527175	 -21.54601252	 -10.19024615
Au	 4.64527175	 -21.54601252	 -13.10174505
Au	 4.64527175	 -21.54601252	 -16.01324394
Au	 4.64527175	 -21.54601252	 -18.92474284
Au	 4.64527175	 -21.54601252	 -21.83624174
Au	 4.64527175	 -21.54601252	 -24.74774064
Au	 5.37314648	 -23.78618057	 23.29199119
Au	 5.37314648	 -23.78618057	 20.38049229
Au	 5.37314648	 -23.78618057	 17.46899339
Au	 5.37314648	 -23.78618057	 14.55749449
Au	 5.37314648	 -23.78618057	 11.64599560
Au	 5.37314648	 -23.78618057	 8.73449670
Au	 5.37314648	 -23.78618057	 5.82299780
Au	 5.37314648	 -23.78618057	 2.91149890
Au	 5.37314648	 -23.78618057	 -0.00000000
Au	 5.37314648	 -23.78618057	 -2.91149890
Au	 5.37314648	 -23.78618057	 -5.82299780
Au	 5.37314648	 -23.78618057	 -8.73449670
Au	 5.37314648	 -23.78618057	 -11.64599560
Au	 5.37314648	 -23.78618057	 -14.55749449
Au	 5.37314648	 -23.78618057	 -17.46899339
Au	 5.37314648	 -23.78618057	 -20.38049229
Au	 5.37314648	 -23.78618057	 -23.29199119
Au	 9.63419934	 -22.40168057	 23.29199119
Au	 9.63419934	 -22.40168057	 20.38049229
Au	 9.63419934	 -22.40168057	 17.46899339
Au	 9.63419934	 -22.40168057	 14.55749449
Au	 9.63419934	 -22.40168057	 11.64599560
Au	 9.63419934	 -22.40168057	 8.73449670
Au	 9.63419934	 -22.40168057	 5.82299780
Au	 9.63419934	 -22.40168057	 2.91149890
Au	 9.63419934	 -22.40168057	 -0.00000000
Au	 9.63419934	 -22.40168057	 -2.91149890
Au	 9.63419934	 -22.40168057	 -5.82299780
Au	 9.63419934	 -22.40168057	 -8.73449670
Au	 9.63419934	 -22.40168057	 -11.64599560
Au	 9.63419934	 -22.40168057	 -14.55749449
Au	 9.63419934	 -22.40168057	 -17.46899339
Au	 9.63419934	 -22.40168057	 -20.38049229
Au	 9.63419934	 -22.40168057	 -23.29199119
Au	 8.90632461	 -20.16151252	 24.74774064
Au	 8.90632461	 -20.16151252	 21.83624174
Au	 8.90632461	 -20.16151252	 18.92474284
Au	 8.90632461	 -20.16151252	 16.01324394
Au	 8.90632461	 -20.16151252	 13.10174505
Au	 8.90632461	 -20.16151252	 10.19024615
Au	 8.90632461	 -20.16151252	 7.27874725
Au	 8.90632461	 -20.16151252	 4.36724835
Au	 8.90632461	 -20.16151252	 1.45574945
Au	 8.90632461	 -20.16151252	 -1.45574945
Au	 8.90632461	 -20.16151252	 -4.36724835
Au	 8.90632461	 -20.16151252	 -7.27874725
Au	 8.90632461	 -20.16151252	 -10.19024615
Au	 8.90632461	 -20.16151252	 -13.10174505
Au	 8.90632461	 -20.16151252	 -16.01324394
Au	 8.90632461	 -20.16151252	 -18.92474284
Au	 8.90632461	 -20.16151252	 -21.83624174
Au	 8.90632461	 -20.16151252	 -24.74774064
Au	 11.26177670	 -20.16151252	 23.29199119
Au	 11.26177670	 -20.16151252	 20.38049229
Au	 11.26177670	 -20.16151252	 17.46899339
Au	 11.26177670	 -20.16151252	 14.55749449
Au	 11.26177670	 -20.16151252	 11.64599560
Au	 11.26177670	 -20.16151252	 8.73449670
Au	 11.26177670	 -20.16151252	 5.82299780
Au	 11.26177670	 -20.16151252	 2.91149890
Au	 11.26177670	 -20.16151252	 -0.00000000
Au	 11.26177670	 -20.16151252	 -2.91149890
Au	 11.26177670	 -20.16151252	 -5.82299780
Au	 11.26177670	 -20.16151252	 -8.73449670
Au	 11.26177670	 -20.16151252	 -11.64599560
Au	 11.26177670	 -20.16151252	 -14.55749449
Au	 11.26177670	 -20.16151252	 -17.46899339
Au	 11.26177670	 -20.16151252	 -20.38049229
Au	 11.26177670	 -20.16151252	 -23.29199119
Au	 8.17844989	 -17.92134446	 26.20349009
Au	 8.17844989	 -17.92134446	 23.29199119
Au	 8.17844989	 -17.92134446	 20.38049229
Au	 8.17844989	 -17.92134446	 17.46899339
Au	 8.17844989	 -17.92134446	 14.55749449
Au	 8.17844989	 -17.92134446	 11.64599560
Au	 8.17844989	 -17.92134446	 8.73449670
Au	 8.17844989	 -17.92134446	 5.82299780
Au	 8.17844989	 -17.92134446	 2.91149890
Au	 8.17844989	 -17.92134446	 0.00000000
Au	 8.17844989	 -17.92134446	 -2.91149890
Au	 8.17844989	 -17.92134446	 -5.82299780
Au	 8.17844989	 -17.92134446	 -8.73449670
Au	 8.17844989	 -17.92134446	 -11.64599560
Au	 8.17844989	 -17.92134446	 -14.55749449
Au	 8.17844989	 -17.92134446	 -17.46899339
Au	 8.17844989	 -17.92134446	 -20.38049229
Au	 8.17844989	 -17.92134446	 -23.29199119
Au	 8.17844989	 -17.92134446	 -26.20349009
Au	 10.53390197	 -17.92134446	 24.74774064
Au	 10.53390197	 -17.92134446	 21.83624174
Au	 10.53390197	 -17.92134446	 18.92474284
Au	 10.53390197	 -17.92134446	 16.01324394
Au	 10.53390197	 -17.92134446	 13.10174505
Au	 10.53390197	 -17.92134446	 10.19024615
Au	 10.53390197	 -17.92134446	 7.27874725
Au	 10.53390197	 -17.92134446	 4.36724835
Au	 10.53390197	 -17.92134446	 1.45574945
Au	 10.53390197	 -17.92134446	 -1.45574945
Au	 10.53390197	 -17.92134446	 -4.36724835
Au	 10.53390197	 -17.92134446	 -7.27874725
Au	 10.53390197	 -17.92134446	 -10.19024615
Au	 10.53390197	 -17.92134446	 -13.10174505
Au	 10.53390197	 -17.92134446	 -16.01324394
Au	 10.53390197	 -17.92134446	 -18.92474284
Au	 10.53390197	 -17.92134446	 -21.83624174
Au	 10.53390197	 -17.92134446	 -24.74774064
Au	 12.88935406	 -17.92134446	 23.29199119
Au	 12.88935406	 -17.92134446	 20.38049229
Au	 12.88935406	 -17.92134446	 17.46899339
Au	 12.88935406	 -17.92134446	 14.55749449
Au	 12.88935406	 -17.92134446	 11.64599560
Au	 12.88935406	 -17.92134446	 8.73449670
Au	 12.88935406	 -17.92134446	 5.82299780
Au	 12.88935406	 -17.92134446	 2.91149890
Au	 12.88935406	 -17.92134446	 -0.00000000
Au	 12.88935406	 -17.92134446	 -2.91149890
Au	 12.88935406	 -17.92134446	 -5.82299780
Au	 12.88935406	 -17.92134446	 -8.73449670
Au	 12.88935406	 -17.92134446	 -11.64599560
Au	 12.88935406	 -17.92134446	 -14.55749449
Au	 12.88935406	 -17.92134446	 -17.46899339
Au	 12.88935406	 -17.92134446	 -20.38049229
Au	 12.88935406	 -17.92134446	 -23.29199119
Au	 7.45057516	 -15.68117640	 27.65923954
Au	 7.45057516	 -15.68117640	 24.74774064
Au	 7.45057516	 -15.68117640	 21.83624174
Au	 7.45057516	 -15.68117640	 18.92474284
Au	 7.45057516	 -15.68117640	 16.01324394
Au	 7.45057516	 -15.68117640	 13.10174505
Au	 7.45057516	 -15.68117640	 10.19024615
Au	 7.45057516	 -15.68117640	 7.27874725
Au	 7.45057516	 -15.68117640	 4.36724835
Au	 7.45057516	 -15.68117640	 1.45574945
Au	 7.45057516	 -15.68117640	 -1.45574945
Au	 7.45057516	 -15.68117640	 -4.36724835
Au	 7.45057516	 -15.68117640	 -7.27874725
Au	 7.45057516	 -15.68117640	 -10.19024615
Au	 7.45057516	 -15.68117640	 -13.10174505
Au	 7.45057516	 -15.68117640	 -16.01324394
Au	 7.45057516	 -15.68117640	 -18.92474284
Au	 7.45057516	 -15.68117640	 -21.83624174
Au	 7.45057516	 -15.68117640	 -24.74774064
Au	 7.45057516	 -15.68117640	 -27.65923954
Au	 9.80602725	 -15.68117640	 26.20349009
Au	 9.80602725	 -15.68117640	 23.29199119
Au	 9.80602725	 -15.68117640	 20.38049229
Au	 9.80602725	 -15.68117640	 17.46899339
Au	 9.80602725	 -15.68117640	 14.55749449
Au	 9.80602725	 -15.68117640	 11.64599560
Au	 9.80602725	 -15.68117640	 8.73449670
Au	 9.80602725	 -15.68117640	 5.82299780
Au	 9.80602725	 -15.68117640	 2.91149890
Au	 9.80602725	 -15.68117640	 -0.00000000
Au	 9.80602725	 -15.68117640	 -2.91149890
Au	 9.80602725	 -15.68117640	 -5.82299780
Au	 9.80602725	 -15.68117640	 -8.73449670
Au	 9.80602725	 -15.68117640	 -11.64599560
Au	 9.80602725	 -15.68117640	 -14.55749449
Au	 9.80602725	 -15.68117640	 -17.46899339
Au	 9.80602725	 -15.68117640	 -20.38049229
Au	 9.80602725	 -15.68117640	 -23.29199119
Au	 9.80602725	 -15.68117640	 -26.20349009
Au	 12.16147934	 -15.68117640	 24.74774064
Au	 12.16147934	 -15.68117640	 21.83624174
Au	 12.16147934	 -15.68117640	 18.92474284
Au	 12.16147934	 -15.68117640	 16.01324394
Au	 12.16147934	 -15.68117640	 13.10174505
Au	 12.16147934	 -15.68117640	 10.19024615
Au	 12.16147934	 -15.68117640	 7.27874725
Au	 12.16147934	 -15.68117640	 4.36724835
Au	 12.16147934	 -15.68117640	 1.45574945
Au	 12.16147934	 -15.68117640	 -1.45574945
Au	 12.16147934	 -15.68117640	 -4.36724835
Au	 12.16147934	 -15.68117640	 -7.27874725
Au	 12.16147934	 -15.68117640	 -10.19024615
Au	 12.16147934	 -15.68117640	 -13.10174505
Au	 12.16147934	 -15.68117640	 -16.01324394
Au	 12.16147934	 -15.68117640	 -18.92474284
Au	 12.16147934	 -15.68117640	 -21.83624174
Au	 12.16147934	 -15.68117640	 -24.74774064
Au	 14.51693143	 -15.68117640	 23.29199119
Au	 14.51693143	 -15.68117640	 20.38049229
Au	 14.51693143	 -15.68117640	 17.46899339
Au	 14.51693143	 -15.68117640	 14.55749449
Au	 14.51693143	 -15.68117640	 11.64599560
Au	 14.51693143	 -15.68117640	 8.73449670
Au	 14.51693143	 -15.68117640	 5.82299780
Au	 14.51693143	 -15.68117640	 2.91149890
Au	 14.51693143	 -15.68117640	 -0.00000000
Au	 14.51693143	 -15.68117640	 -2.91149890
Au	 14.51693143	 -15.68117640	 -5.82299780
Au	 14.51693143	 -15.68117640	 -8.73449670
Au	 14.51693143	 -15.68117640	 -11.64599560
Au	 14.51693143	 -15.68117640	 -14.55749449
Au	 14.51693143	 -15.68117640	 -17.46899339
Au	 14.51693143	 -15.68117640	 -20.38049229
Au	 14.51693143	 -15.68117640	 -23.29199119
Au	 6.72270044	 -13.44100834	 29.11498899
Au	 6.72270044	 -13.44100834	 26.20349009
Au	 6.72270044	 -13.44100834	 23.29199119
Au	 6.72270044	 -13.44100834	 20.38049229
Au	 6.72270044	 -13.44100834	 17.46899339
Au	 6.72270044	 -13.44100834	 14.55749449
Au	 6.72270044	 -13.44100834	 11.64599560
Au	 6.72270044	 -13.44100834	 8.73449670
Au	 6.72270044	 -13.44100834	 5.82299780
Au	 6.72270044	 -13.44100834	 2.91149890
Au	 6.72270044	 -13.44100834	 0.00000000
Au	 6.72270044	 -13.44100834	 -2.91149890
Au	 6.72270044	 -13.44100834	 -5.82299780
Au	 6.72270044	 -13.44100834	 -8.73449670
Au	 6.72270044	 -13.44100834	 -11.64599560
Au	 6.72270044	 -13.44100834	 -14.55749449
Au	 6.72270044	 -13.44100834	 -17.46899339
Au	 6.72270044	 -13.44100834	 -20.38049229
Au	 6.72270044	 -13.44100834	 -23.29199119
Au	 6.72270044	 -13.44100834	 -26.20349009
Au	 6.72270044	 -13.44100834	 -29.11498899
Au	 9.07815253	 -13.44100834	 27.65923954
Au	 9.07815253	 -13.44100834	 24.74774064
Au	 9.07815253	 -13.44100834	 21.83624174
Au	 9.07815253	 -13.44100834	 18.92474284
Au	 9.07815253	 -13.44100834	 16.01324394
Au	 9.07815253	 -13.44100834	 13.10174505
Au	 9.07815253	 -13.44100834	 10.19024615
Au	 9.07815253	 -13.44100834	 7.27874725
Au	 9.07815253	 -13.44100834	 4.36724835
Au	 9.07815253	 -13.44100834	 1.45574945
Au	 9.07815253	 -13.44100834	 -1.45574945
Au	 9.07815253	 -13.44100834	 -4.36724835
Au	 9.07815253	 -13.44100834	 -7.27874725
Au	 9.07815253	 -13.44100834	 -10.19024615
Au	 9.07815253	 -13.44100834	 -13.10174505
Au	 9.07815253	 -13.44100834	 -16.01324394
Au	 9.07815253	 -13.44100834	 -18.92474284
Au	 9.07815253	 -13.44100834	 -21.83624174
Au	 9.07815253	 -13.44100834	 -24.74774064
Au	 9.07815253	 -13.44100834	 -27.65923954
Au	 11.43360461	 -13.44100834	 26.20349009
Au	 11.43360461	 -13.44100834	 23.29199119
Au	 11.43360461	 -13.44100834	 20.38049229
Au	 11.43360461	 -13.44100834	 17.46899339
Au	 11.43360461	 -13.44100834	 14.55749449
Au	 11.43360461	 -13.44100834	 11.64599560
Au	 11.43360461	 -13.44100834	 8.73449670
Au	 11.43360461	 -13.44100834	 5.82299780
Au	 11.43360461	 -13.44100834	 2.91149890
Au	 11.43360461	 -13.44100834	 0.00000000
Au	 11.43360461	 -13.44100834	 -2.91149890
Au	 11.43360461	 -13.44100834	 -5.82299780
Au	 11.43360461	 -13.44100834	 -8.73449670
Au	 11.43360461	 -13.44100834	 -11.64599560
Au	 11.43360461	 -13.44100834	 -14.55749449
Au	 11.43360461	 -13.44100834	 -17.46899339
Au	 11.43360461	 -13.44100834	 -20.38049229
Au	 11.43360461	 -13.44100834	 -23.29199119
Au	 11.43360461	 -13.44100834	 -26.20349009
Au	 13.78905670	 -13.44100834	 24.74774064
Au	 13.78905670	 -13.44100834	 21.83624174
Au	 13.78905670	 -13.44100834	 18.92474284
Au	 13.78905670	 -13.44100834	 16.01324394
Au	 13.78905670	 -13.44100834	 13.10174505
Au	 13.78905670	 -13.44100834	 10.19024615
Au	 13.78905670	 -13.44100834	 7.27874725
Au	 13.78905670	 -13.44100834	 4.36724835
Au	 13.78905670	 -13.44100834	 1.45574945
Au	 13.78905670	 -13.44100834	 -1.45574945
Au	 13.78905670	 -13.44100834	 -4.36724835
Au	 13.78905670	 -13.44100834	 -7.27874725
Au	 13.78905670	 -13.44100834	 -10.19024615
Au	 13.78905670	 -13.44100834	 -13.10174505
Au	 13.78905670	 -13.44100834	 -16.01324394
Au	 13.78905670	 -13.44100834	 -18.92474284
Au	 13.78905670	 -13.44100834	 -21.83624174
Au	 13.78905670	 -13.44100834	 -24.74774064
Au	 16.14450879	 -13.44100834	 23.29199119
Au	 16.14450879	 -13.44100834	 20.38049229
Au	 16.14450879	 -13.44100834	 17.46899339
Au	 16.14450879	 -13.44100834	 14.55749449
Au	 16.14450879	 -13.44100834	 11.64599560
Au	 16.14450879	 -13.44100834	 8.73449670
Au	 16.14450879	 -13.44100834	 5.82299780
Au	 16.14450879	 -13.44100834	 2.91149890
Au	 16.14450879	 -13.44100834	 0.00000000
Au	 16.14450879	 -13.44100834	 -2.91149890
Au	 16.14450879	 -13.44100834	 -5.82299780
Au	 16.14450879	 -13.44100834	 -8.73449670
Au	 16.14450879	 -13.44100834	 -11.64599560
Au	 16.14450879	 -13.44100834	 -14.55749449
Au	 16.14450879	 -13.44100834	 -17.46899339
Au	 16.14450879	 -13.44100834	 -20.38049229
Au	 16.14450879	 -13.44100834	 -23.29199119
Au	 5.99482571	 -11.20084029	 30.57073844
Au	 5.99482571	 -11.20084029	 27.65923954
Au	 5.99482571	 -11.20084029	 24.74774064
Au	 5.99482571	 -11.20084029	 21.83624174
Au	 5.99482571	 -11.20084029	 18.92474284
Au	 5.99482571	 -11.20084029	 16.01324394
Au	 5.99482571	 -11.20084029	 13.10174505
Au	 5.99482571	 -11.20084029	 10.19024615
Au	 5.99482571	 -11.20084029	 7.27874725
Au	 5.99482571	 -11.20084029	 4.36724835
Au	 5.99482571	 -11.20084029	 1.45574945
Au	 5.99482571	 -11.20084029	 -1.45574945
Au	 5.99482571	 -11.20084029	 -4.36724835
Au	 5.99482571	 -11.20084029	 -7.27874725
Au	 5.99482571	 -11.20084029	 -10.19024615
Au	 5.99482571	 -11.20084029	 -13.10174505
Au	 5.99482571	 -11.20084029	 -16.01324394
Au	 5.99482571	 -11.20084029	 -18.92474284
Au	 5.99482571	 -11.20084029	 -21.83624174
Au	 5.99482571	 -11.20084029	 -24.74774064
Au	 5.99482571	 -11.20084029	 -27.65923954
Au	 5.99482571	 -11.20084029	 -30.57073844
Au	 8.35027780	 -11.20084029	 29.11498899
Au	 8.35027780	 -11.20084029	 26.20349009
Au	 8.35027780	 -11.20084029	 23.29199119
Au	 8.35027780	 -11.20084029	 20.38049229
Au	 8.35027780	 -11.20084029	 17.46899339
Au	 8.35027780	 -11.20084029	 14.55749449
Au	 8.35027780	 -11.20084029	 11.64599560
Au	 8.35027780	 -11.20084029	 8.73449670
Au	 8.35027780	 -11.20084029	 5.82299780
Au	 8.35027780	 -11.20084029	 2.91149890
Au	 8.35027780	 -11.20084029	 0.00000000
Au	 8.35027780	 -11.20084029	 -2.91149890
Au	 8.35027780	 -11.20084029	 -5.82299780
Au	 8.35027780	 -11.20084029	 -8.73449670
Au	 8.35027780	 -11.20084029	 -11.64599560
Au	 8.35027780	 -11.20084029	 -14.55749449
Au	 8.35027780	 -11.20084029	 -17.46899339
Au	 8.35027780	 -11.20084029	 -20.38049229
Au	 8.35027780	 -11.20084029	 -23.29199119
Au	 8.35027780	 -11.20084029	 -26.20349009
Au	 8.35027780	 -11.20084029	 -29.11498899
Au	 10.70572989	 -11.20084029	 27.65923954
Au	 10.70572989	 -11.20084029	 24.74774064
Au	 10.70572989	 -11.20084029	 21.83624174
Au	 10.70572989	 -11.20084029	 18.92474284
Au	 10.70572989	 -11.20084029	 16.01324394
Au	 10.70572989	 -11.20084029	 13.10174505
Au	 10.70572989	 -11.20084029	 10.19024615
Au	 10.70572989	 -11.20084029	 7.27874725
Au	 10.70572989	 -11.20084029	 4.36724835
Au	 10.70572989	 -11.20084029	 1.45574945
Au	 10.70572989	 -11.20084029	 -1.45574945
Au	 10.70572989	 -11.20084029	 -4.36724835
Au	 10.70572989	 -11.20084029	 -7.27874725
Au	 10.70572989	 -11.20084029	 -10.19024615
Au	 10.70572989	 -11.20084029	 -13.10174505
Au	 10.70572989	 -11.20084029	 -16.01324394
Au	 10.70572989	 -11.20084029	 -18.92474284
Au	 10.70572989	 -11.20084029	 -21.83624174
Au	 10.70572989	 -11.20084029	 -24.74774064
Au	 10.70572989	 -11.20084029	 -27.65923954
Au	 13.06118198	 -11.20084029	 26.20349009
Au	 13.06118198	 -11.20084029	 23.29199119
Au	 13.06118198	 -11.20084029	 20.38049229
Au	 13.06118198	 -11.20084029	 17.46899339
Au	 13.06118198	 -11.20084029	 14.55749449
Au	 13.06118198	 -11.20084029	 11.64599560
Au	 13.06118198	 -11.20084029	 8.73449670
Au	 13.06118198	 -11.20084029	 5.82299780
Au	 13.06118198	 -11.20084029	 2.91149890
Au	 13.06118198	 -11.20084029	 -0.00000000
Au	 13.06118198	 -11.20084029	 -2.91149890
Au	 13.06118198	 -11.20084029	 -5.82299780
Au	 13.06118198	 -11.20084029	 -8.73449670
Au	 13.06118198	 -11.20084029	 -11.64599560
Au	 13.06118198	 -11.20084029	 -14.55749449
Au	 13.06118198	 -11.20084029	 -17.46899339
Au	 13.06118198	 -11.20084029	 -20.38049229
Au	 13.06118198	 -11.20084029	 -23.29199119
Au	 13.06118198	 -11.20084029	 -26.20349009
Au	 15.41663407	 -11.20084029	 24.74774064
Au	 15.41663407	 -11.20084029	 21.83624174
Au	 15.41663407	 -11.20084029	 18.92474284
Au	 15.41663407	 -11.20084029	 16.01324394
Au	 15.41663407	 -11.20084029	 13.10174505
Au	 15.41663407	 -11.20084029	 10.19024615
Au	 15.41663407	 -11.20084029	 7.27874725
Au	 15.41663407	 -11.20084029	 4.36724835
Au	 15.41663407	 -11.20084029	 1.45574945
Au	 15.41663407	 -11.20084029	 -1.45574945
Au	 15.41663407	 -11.20084029	 -4.36724835
Au	 15.41663407	 -11.20084029	 -7.27874725
Au	 15.41663407	 -11.20084029	 -10.19024615
Au	 15.41663407	 -11.20084029	 -13.10174505
Au	 15.41663407	 -11.20084029	 -16.01324394
Au	 15.41663407	 -11.20084029	 -18.92474284
Au	 15.41663407	 -11.20084029	 -21.83624174
Au	 15.41663407	 -11.20084029	 -24.74774064
Au	 17.77208615	 -11.20084029	 23.29199119
Au	 17.77208615	 -11.20084029	 20.38049229
Au	 17.77208615	 -11.20084029	 17.46899339
Au	 17.77208615	 -11.20084029	 14.55749449
Au	 17.77208615	 -11.20084029	 11.64599560
Au	 17.77208615	 -11.20084029	 8.73449670
Au	 17.77208615	 -11.20084029	 5.82299780
Au	 17.77208615	 -11.20084029	 2.91149890
Au	 17.77208615	 -11.20084029	 -0.00000000
Au	 17.77208615	 -11.20084029	 -2.91149890
Au	 17.77208615	 -11.20084029	 -5.82299780
Au	 17.77208615	 -11.20084029	 -8.73449670
Au	 17.77208615	 -11.20084029	 -11.64599560
Au	 17.77208615	 -11.20084029	 -14.55749449
Au	 17.77208615	 -11.20084029	 -17.46899339
Au	 17.77208615	 -11.20084029	 -20.38049229
Au	 17.77208615	 -11.20084029	 -23.29199119
Au	 5.26695099	 -8.96067223	 32.02648789
Au	 5.26695099	 -8.96067223	 29.11498899
Au	 5.26695099	 -8.96067223	 26.20349009
Au	 5.26695099	 -8.96067223	 23.29199119
Au	 5.26695099	 -8.96067223	 20.38049229
Au	 5.26695099	 -8.96067223	 17.46899339
Au	 5.26695099	 -8.96067223	 14.55749449
Au	 5.26695099	 -8.96067223	 11.64599560
Au	 5.26695099	 -8.96067223	 8.73449670
Au	 5.26695099	 -8.96067223	 5.82299780
Au	 5.26695099	 -8.96067223	 2.91149890
Au	 5.26695099	 -8.96067223	 0.00000000
Au	 5.26695099	 -8.96067223	 -2.91149890
Au	 5.26695099	 -8.96067223	 -5.82299780
Au	 5.26695099	 -8.96067223	 -8.73449670
Au	 5.26695099	 -8.96067223	 -11.64599560
Au	 5.26695099	 -8.96067223	 -14.55749449
Au	 5.26695099	 -8.96067223	 -17.46899339
Au	 5.26695099	 -8.96067223	 -20.38049229
Au	 5.26695099	 -8.96067223	 -23.29199119
Au	 5.26695099	 -8.96067223	 -26.20349009
Au	 5.26695099	 -8.96067223	 -29.11498899
Au	 5.26695099	 -8.96067223	 -32.02648789
Au	 7.62240308	 -8.96067223	 30.57073844
Au	 7.62240308	 -8.96067223	 27.65923954
Au	 7.62240308	 -8.96067223	 24.74774064
Au	 7.62240308	 -8.96067223	 21.83624174
Au	 7.62240308	 -8.96067223	 18.92474284
Au	 7.62240308	 -8.96067223	 16.01324394
Au	 7.62240308	 -8.96067223	 13.10174505
Au	 7.62240308	 -8.96067223	 10.19024615
Au	 7.62240308	 -8.96067223	 7.27874725
Au	 7.62240308	 -8.96067223	 4.36724835
Au	 7.62240308	 -8.96067223	 1.45574945
Au	 7.62240308	 -8.96067223	 -1.45574945
Au	 7.62240308	 -8.96067223	 -4.36724835
Au	 7.62240308	 -8.96067223	 -7.27874725
Au	 7.62240308	 -8.96067223	 -10.19024615
Au	 7.62240308	 -8.96067223	 -13.10174505
Au	 7.62240308	 -8.96067223	 -16.01324394
Au	 7.62240308	 -8.96067223	 -18.92474284
Au	 7.62240308	 -8.96067223	 -21.83624174
Au	 7.62240308	 -8.96067223	 -24.74774064
Au	 7.62240308	 -8.96067223	 -27.65923954
Au	 7.62240308	 -8.96067223	 -30.57073844
Au	 9.97785516	 -8.96067223	 29.11498899
Au	 9.97785516	 -8.96067223	 26.20349009
Au	 9.97785516	 -8.96067223	 23.29199119
Au	 9.97785516	 -8.96067223	 20.38049229
Au	 9.97785516	 -8.96067223	 17.46899339
Au	 9.97785516	 -8.96067223	 14.55749449
Au	 9.97785516	 -8.96067223	 11.64599560
Au	 9.97785516	 -8.96067223	 8.73449670
Au	 9.97785516	 -8.96067223	 5.82299780
Au	 9.97785516	 -8.96067223	 2.91149890
Au	 9.97785516	 -8.96067223	 0.00000000
Au	 9.97785516	 -8.96067223	 -2.91149890
Au	 9.97785516	 -8.96067223	 -5.82299780
Au	 9.97785516	 -8.96067223	 -8.73449670
Au	 9.97785516	 -8.96067223	 -11.64599560
Au	 9.97785516	 -8.96067223	 -14.55749449
Au	 9.97785516	 -8.96067223	 -17.46899339
Au	 9.97785516	 -8.96067223	 -20.38049229
Au	 9.97785516	 -8.96067223	 -23.29199119
Au	 9.97785516	 -8.96067223	 -26.20349009
Au	 9.97785516	 -8.96067223	 -29.11498899
Au	 12.33330725	 -8.96067223	 27.65923954
Au	 12.33330725	 -8.96067223	 24.74774064
Au	 12.33330725	 -8.96067223	 21.83624174
Au	 12.33330725	 -8.96067223	 18.92474284
Au	 12.33330725	 -8.96067223	 16.01324394
Au	 12.33330725	 -8.96067223	 13.10174505
Au	 12.33330725	 -8.96067223	 10.19024615
Au	 12.33330725	 -8.96067223	 7.27874725
Au	 12.33330725	 -8.96067223	 4.36724835
Au	 12.33330725	 -8.96067223	 1.45574945
Au	 12.33330725	 -8.96067223	 -1.45574945
Au	 12.33330725	 -8.96067223	 -4.36724835
Au	 12.33330725	 -8.96067223	 -7.27874725
Au	 12.33330725	 -8.96067223	 -10.19024615
Au	 12.33330725	 -8.96067223	 -13.10174505
Au	 12.33330725	 -8.96067223	 -16.01324394
Au	 12.33330725	 -8.96067223	 -18.92474284
Au	 12.33330725	 -8.96067223	 -21.83624174
Au	 12.33330725	 -8.96067223	 -24.74774064
Au	 12.33330725	 -8.96067223	 -27.65923954
Au	 14.68875934	 -8.96067223	 26.20349009
Au	 14.68875934	 -8.96067223	 23.29199119
Au	 14.68875934	 -8.96067223	 20.38049229
Au	 14.68875934	 -8.96067223	 17.46899339
Au	 14.68875934	 -8.96067223	 14.55749449
Au	 14.68875934	 -8.96067223	 11.64599560
Au	 14.68875934	 -8.96067223	 8.73449670
Au	 14.68875934	 -8.96067223	 5.82299780
Au	 14.68875934	 -8.96067223	 2.91149890
Au	 14.68875934	 -8.96067223	 -0.00000000
Au	 14.68875934	 -8.96067223	 -2.91149890
Au	 14.68875934	 -8.96067223	 -5.82299780
Au	 14.68875934	 -8.96067223	 -8.73449670
Au	 14.68875934	 -8.96067223	 -11.64599560
Au	 14.68875934	 -8.96067223	 -14.55749449
Au	 14.68875934	 -8.96067223	 -17.46899339
Au	 14.68875934	 -8.96067223	 -20.38049229
Au	 14.68875934	 -8.96067223	 -23.29199119
Au	 14.68875934	 -8.96067223	 -26.20349009
Au	 17.04421143	 -8.96067223	 24.74774064
Au	 17.04421143	 -8.96067223	 21.83624174
Au	 17.04421143	 -8.96067223	 18.92474284
Au	 17.04421143	 -8.96067223	 16.01324394
Au	 17.04421143	 -8.96067223	 13.10174505
Au	 17.04421143	 -8.96067223	 10.19024615
Au	 17.04421143	 -8.96067223	 7.27874725
Au	 17.04421143	 -8.96067223	 4.36724835
Au	 17.04421143	 -8.96067223	 1.45574945
Au	 17.04421143	 -8.96067223	 -1.45574945
Au	 17.04421143	 -8.96067223	 -4.36724835
Au	 17.04421143	 -8.96067223	 -7.27874725
Au	 17.04421143	 -8.96067223	 -10.19024615
Au	 17.04421143	 -8.96067223	 -13.10174505
Au	 17.04421143	 -8.96067223	 -16.01324394
Au	 17.04421143	 -8.96067223	 -18.92474284
Au	 17.04421143	 -8.96067223	 -21.83624174
Au	 17.04421143	 -8.96067223	 -24.74774064
Au	 19.39966352	 -8.96067223	 23.29199119
Au	 19.39966352	 -8.96067223	 20.38049229
Au	 19.39966352	 -8.96067223	 17.46899339
Au	 19.39966352	 -8.96067223	 14.55749449
Au	 19.39966352	 -8.96067223	 11.64599560
Au	 19.39966352	 -8.96067223	 8.73449670
Au	 19.39966352	 -8.96067223	 5.82299780
Au	 19.39966352	 -8.96067223	 2.91149890
Au	 19.39966352	 -8.96067223	 -0.00000000
Au	 19.39966352	 -8.96067223	 -2.91149890
Au	 19.39966352	 -8.96067223	 -5.82299780
Au	 19.39966352	 -8.96067223	 -8.73449670
Au	 19.39966352	 -8.96067223	 -11.64599560
Au	 19.39966352	 -8.96067223	 -14.55749449
Au	 19.39966352	 -8.96067223	 -17.46899339
Au	 19.39966352	 -8.96067223	 -20.38049229
Au	 19.39966352	 -8.96067223	 -23.29199119
Au	 4.53907626	 -6.72050417	 33.48223734
Au	 4.53907626	 -6.72050417	 30.57073844
Au	 4.53907626	 -6.72050417	 27.65923954
Au	 4.53907626	 -6.72050417	 24.74774064
Au	 4.53907626	 -6.72050417	 21.83624174
Au	 4.53907626	 -6.72050417	 18.92474284
Au	 4.53907626	 -6.72050417	 16.01324394
Au	 4.53907626	 -6.72050417	 13.10174505
Au	 4.53907626	 -6.72050417	 10.19024615
Au	 4.53907626	 -6.72050417	 7.27874725
Au	 4.53907626	 -6.72050417	 4.36724835
Au	 4.53907626	 -6.72050417	 1.45574945
Au	 4.53907626	 -6.72050417	 -1.45574945
Au	 4.53907626	 -6.72050417	 -4.36724835
Au	 4.53907626	 -6.72050417	 -7.27874725
Au	 4.53907626	 -6.72050417	 -10.19024615
Au	 4.53907626	 -6.72050417	 -13.10174505
Au	 4.53907626	 -6.72050417	 -16.01324394
Au	 4.53907626	 -6.72050417	 -18.92474284
Au	 4.53907626	 -6.72050417	 -21.83624174
Au	 4.53907626	 -6.72050417	 -24.74774064
Au	 4.53907626	 -6.72050417	 -27.65923954
Au	 4.53907626	 -6.72050417	 -30.57073844
Au	 4.53907626	 -6.72050417	 -33.48223734
Au	 6.89452835	 -6.72050417	 32.02648789
Au	 6.89452835	 -6.72050417	 29.11498899
Au	 6.89452835	 -6.72050417	 26.20349009
Au	 6.89452835	 -6.72050417	 23.29199119
Au	 6.89452835	 -6.72050417	 20.38049229
Au	 6.89452835	 -6.72050417	 17.46899339
Au	 6.89452835	 -6.72050417	 14.55749449
Au	 6.89452835	 -6.72050417	 11.64599560
Au	 6.89452835	 -6.72050417	 8.73449670
Au	 6.89452835	 -6.72050417	 5.82299780
Au	 6.89452835	 -6.72050417	 2.91149890
Au	 6.89452835	 -6.72050417	 0.00000000
Au	 6.89452835	 -6.72050417	 -2.91149890
Au	 6.89452835	 -6.72050417	 -5.82299780
Au	 6.89452835	 -6.72050417	 -8.73449670
Au	 6.89452835	 -6.72050417	 -11.64599560
Au	 6.89452835	 -6.72050417	 -14.55749449
Au	 6.89452835	 -6.72050417	 -17.46899339
Au	 6.89452835	 -6.72050417	 -20.38049229
Au	 6.89452835	 -6.72050417	 -23.29199119
Au	 6.89452835	 -6.72050417	 -26.20349009
Au	 6.89452835	 -6.72050417	 -29.11498899
Au	 6.89452835	 -6.72050417	 -32.02648789
Au	 9.24998044	 -6.72050417	 30.57073844
Au	 9.24998044	 -6.72050417	 27.65923954
Au	 9.24998044	 -6.72050417	 24.74774064
Au	 9.24998044	 -6.72050417	 21.83624174
Au	 9.24998044	 -6.72050417	 18.92474284
Au	 9.24998044	 -6.72050417	 16.01324394
Au	 9.24998044	 -6.72050417	 13.10174505
Au	 9.24998044	 -6.72050417	 10.19024615
Au	 9.24998044	 -6.72050417	 7.27874725
Au	 9.24998044	 -6.72050417	 4.36724835
Au	 9.24998044	 -6.72050417	 1.45574945
Au	 9.24998044	 -6.72050417	 -1.45574945
Au	 9.24998044	 -6.72050417	 -4.36724835
Au	 9.24998044	 -6.72050417	 -7.27874725
Au	 9.24998044	 -6.72050417	 -10.19024615
Au	 9.24998044	 -6.72050417	 -13.10174505
Au	 9.24998044	 -6.72050417	 -16.01324394
Au	 9.24998044	 -6.72050417	 -18.92474284
Au	 9.24998044	 -6.72050417	 -21.83624174
Au	 9.24998044	 -6.72050417	 -24.74774064
Au	 9.24998044	 -6.72050417	 -27.65923954
Au	 9.24998044	 -6.72050417	 -30.57073844
Au	 11.60543253	 -6.72050417	 29.11498899
Au	 11.60543253	 -6.72050417	 26.20349009
Au	 11.60543253	 -6.72050417	 23.29199119
Au	 11.60543253	 -6.72050417	 20.38049229
Au	 11.60543253	 -6.72050417	 17.46899339
Au	 11.60543253	 -6.72050417	 14.55749449
Au	 11.60543253	 -6.72050417	 11.64599560
Au	 11.60543253	 -6.72050417	 8.73449670
Au	 11.60543253	 -6.72050417	 5.82299780
Au	 11.60543253	 -6.72050417	 2.91149890
Au	 11.60543253	 -6.72050417	 0.00000000
Au	 11.60543253	 -6.72050417	 -2.91149890
Au	 11.60543253	 -6.72050417	 -5.82299780
Au	 11.60543253	 -6.72050417	 -8.73449670
Au	 11.60543253	 -6.72050417	 -11.64599560
Au	 11.60543253	 -6.72050417	 -14.55749449
Au	 11.60543253	 -6.72050417	 -17.46899339
Au	 11.60543253	 -6.72050417	 -20.38049229
Au	 11.60543253	 -6.72050417	 -23.29199119
Au	 11.60543253	 -6.72050417	 -26.20349009
Au	 11.60543253	 -6.72050417	 -29.11498899
Au	 13.96088462	 -6.72050417	 27.65923954
Au	 13.96088462	 -6.72050417	 24.74774064
Au	 13.96088462	 -6.72050417	 21.83624174
Au	 13.96088462	 -6.72050417	 18.92474284
Au	 13.96088462	 -6.72050417	 16.01324394
Au	 13.96088462	 -6.72050417	 13.10174505
Au	 13.96088462	 -6.72050417	 10.19024615
Au	 13.96088462	 -6.72050417	 7.27874725
Au	 13.96088462	 -6.72050417	 4.36724835
Au	 13.96088462	 -6.72050417	 1.45574945
Au	 13.96088462	 -6.72050417	 -1.45574945
Au	 13.96088462	 -6.72050417	 -4.36724835
Au	 13.96088462	 -6.72050417	 -7.27874725
Au	 13.96088462	 -6.72050417	 -10.19024615
Au	 13.96088462	 -6.72050417	 -13.10174505
Au	 13.96088462	 -6.72050417	 -16.01324394
Au	 13.96088462	 -6.72050417	 -18.92474284
Au	 13.96088462	 -6.72050417	 -21.83624174
Au	 13.96088462	 -6.72050417	 -24.74774064
Au	 13.96088462	 -6.72050417	 -27.65923954
Au	 16.31633670	 -6.72050417	 26.20349009
Au	 16.31633670	 -6.72050417	 23.29199119
Au	 16.31633670	 -6.72050417	 20.38049229
Au	 16.31633670	 -6.72050417	 17.46899339
Au	 16.31633670	 -6.72050417	 14.55749449
Au	 16.31633670	 -6.72050417	 11.64599560
Au	 16.31633670	 -6.72050417	 8.73449670
Au	 16.31633670	 -6.72050417	 5.82299780
Au	 16.31633670	 -6.72050417	 2.91149890
Au	 16.31633670	 -6.72050417	 0.00000000
Au	 16.31633670	 -6.72050417	 -2.91149890
Au	 16.31633670	 -6.72050417	 -5.82299780
Au	 16.31633670	 -6.72050417	 -8.73449670
Au	 16.31633670	 -6.72050417	 -11.64599560
Au	 16.31633670	 -6.72050417	 -14.55749449
Au	 16.31633670	 -6.72050417	 -17.46899339
Au	 16.31633670	 -6.72050417	 -20.38049229
Au	 16.31633670	 -6.72050417	 -23.29199119
Au	 16.31633670	 -6.72050417	 -26.20349009
Au	 18.67178879	 -6.72050417	 24.74774064
Au	 18.67178879	 -6.72050417	 21.83624174
Au	 18.67178879	 -6.72050417	 18.92474284
Au	 18.67178879	 -6.72050417	 16.01324394
Au	 18.67178879	 -6.72050417	 13.10174505
Au	 18.67178879	 -6.72050417	 10.19024615
Au	 18.67178879	 -6.72050417	 7.27874725
Au	 18.67178879	 -6.72050417	 4.36724835
Au	 18.67178879	 -6.72050417	 1.45574945
Au	 18.67178879	 -6.72050417	 -1.45574945
Au	 18.67178879	 -6.72050417	 -4.36724835
Au	 18.67178879	 -6.72050417	 -7.27874725
Au	 18.67178879	 -6.72050417	 -10.19024615
Au	 18.67178879	 -6.72050417	 -13.10174505
Au	 18.67178879	 -6.72050417	 -16.01324394
Au	 18.67178879	 -6.72050417	 -18.92474284
Au	 18.67178879	 -6.72050417	 -21.83624174
Au	 18.67178879	 -6.72050417	 -24.74774064
Au	 21.02724088	 -6.72050417	 23.29199119
Au	 21.02724088	 -6.72050417	 20.38049229
Au	 21.02724088	 -6.72050417	 17.46899339
Au	 21.02724088	 -6.72050417	 14.55749449
Au	 21.02724088	 -6.72050417	 11.64599560
Au	 21.02724088	 -6.72050417	 8.73449670
Au	 21.02724088	 -6.72050417	 5.82299780
Au	 21.02724088	 -6.72050417	 2.91149890
Au	 21.02724088	 -6.72050417	 -0.00000000
Au	 21.02724088	 -6.72050417	 -2.91149890
Au	 21.02724088	 -6.72050417	 -5.82299780
Au	 21.02724088	 -6.72050417	 -8.73449670
Au	 21.02724088	 -6.72050417	 -11.64599560
Au	 21.02724088	 -6.72050417	 -14.55749449
Au	 21.02724088	 -6.72050417	 -17.46899339
Au	 21.02724088	 -6.72050417	 -20.38049229
Au	 21.02724088	 -6.72050417	 -23.29199119
Au	 3.81120154	 -4.48033611	 34.93798679
Au	 3.81120154	 -4.48033611	 32.02648789
Au	 3.81120154	 -4.48033611	 29.11498899
Au	 3.81120154	 -4.48033611	 26.20349009
Au	 3.81120154	 -4.48033611	 23.29199119
Au	 3.81120154	 -4.48033611	 20.38049229
Au	 3.81120154	 -4.48033611	 17.46899339
Au	 3.81120154	 -4.48033611	 14.55749449
Au	 3.81120154	 -4.48033611	 11.64599560
Au	 3.81120154	 -4.48033611	 8.73449670
Au	 3.81120154	 -4.48033611	 5.82299780
Au	 3.81120154	 -4.48033611	 2.91149890
Au	 3.81120154	 -4.48033611	 0.00000000
Au	 3.81120154	 -4.48033611	 -2.91149890
Au	 3.81120154	 -4.48033611	 -5.82299780
Au	 3.81120154	 -4.48033611	 -8.73449670
Au	 3.81120154	 -4.48033611	 -11.64599560
Au	 3.81120154	 -4.48033611	 -14.55749449
Au	 3.81120154	 -4.48033611	 -17.46899339
Au	 3.81120154	 -4.48033611	 -20.38049229
Au	 3.81120154	 -4.48033611	 -23.29199119
Au	 3.81120154	 -4.48033611	 -26.20349009
Au	 3.81120154	 -4.48033611	 -29.11498899
Au	 3.81120154	 -4.48033611	 -32.02648789
Au	 3.81120154	 -4.48033611	 -34.93798679
Au	 6.16665363	 -4.48033611	 33.48223734
Au	 6.16665363	 -4.48033611	 30.57073844
Au	 6.16665363	 -4.48033611	 27.65923954
Au	 6.16665363	 -4.48033611	 24.74774064
Au	 6.16665363	 -4.48033611	 21.83624174
Au	 6.16665363	 -4.48033611	 18.92474284
Au	 6.16665363	 -4.48033611	 16.01324394
Au	 6.16665363	 -4.48033611	 13.10174505
Au	 6.16665363	 -4.48033611	 10.19024615
Au	 6.16665363	 -4.48033611	 7.27874725
Au	 6.16665363	 -4.48033611	 4.36724835
Au	 6.16665363	 -4.48033611	 1.45574945
Au	 6.16665363	 -4.48033611	 -1.45574945
Au	 6.16665363	 -4.48033611	 -4.36724835
Au	 6.16665363	 -4.48033611	 -7.27874725
Au	 6.16665363	 -4.48033611	 -10.19024615
Au	 6.16665363	 -4.48033611	 -13.10174505
Au	 6.16665363	 -4.48033611	 -16.01324394
Au	 6.16665363	 -4.48033611	 -18.92474284
Au	 6.16665363	 -4.48033611	 -21.83624174
Au	 6.16665363	 -4.48033611	 -24.74774064
Au	 6.16665363	 -4.48033611	 -27.65923954
Au	 6.16665363	 -4.48033611	 -30.57073844
Au	 6.16665363	 -4.48033611	 -33.48223734
Au	 8.52210571	 -4.48033611	 32.02648789
Au	 8.52210571	 -4.48033611	 29.11498899
Au	 8.52210571	 -4.48033611	 26.20349009
Au	 8.52210571	 -4.48033611	 23.29199119
Au	 8.52210571	 -4.48033611	 20.38049229
Au	 8.52210571	 -4.48033611	 17.46899339
Au	 8.52210571	 -4.48033611	 14.55749449
Au	 8.52210571	 -4.48033611	 11.64599560
Au	 8.52210571	 -4.48033611	 8.73449670
Au	 8.52210571	 -4.48033611	 5.82299780
Au	 8.52210571	 -4.48033611	 2.91149890
Au	 8.52210571	 -4.48033611	 0.00000000
Au	 8.52210571	 -4.48033611	 -2.91149890
Au	 8.52210571	 -4.48033611	 -5.82299780
Au	 8.52210571	 -4.48033611	 -8.73449670
Au	 8.52210571	 -4.48033611	 -11.64599560
Au	 8.52210571	 -4.48033611	 -14.55749449
Au	 8.52210571	 -4.48033611	 -17.46899339
Au	 8.52210571	 -4.48033611	 -20.38049229
Au	 8.52210571	 -4.48033611	 -23.29199119
Au	 8.52210571	 -4.48033611	 -26.20349009
Au	 8.52210571	 -4.48033611	 -29.11498899
Au	 8.52210571	 -4.48033611	 -32.02648789
Au	 10.87755780	 -4.48033611	 30.57073844
Au	 10.87755780	 -4.48033611	 27.65923954
Au	 10.87755780	 -4.48033611	 24.74774064
Au	 10.87755780	 -4.48033611	 21.83624174
Au	 10.87755780	 -4.48033611	 18.92474284
Au	 10.87755780	 -4.48033611	 16.01324394
Au	 10.87755780	 -4.48033611	 13.10174505
Au	 10.87755780	 -4.48033611	 10.19024615
Au	 10.87755780	 -4.48033611	 7.27874725
Au	 10.87755780	 -4.48033611	 4.36724835
Au	 10.87755780	 -4.48033611	 1.45574945
Au	 10.87755780	 -4.48033611	 -1.45574945
Au	 10.87755780	 -4.48033611	 -4.36724835
Au	 10.87755780	 -4.48033611	 -7.27874725
Au	 10.87755780	 -4.48033611	 -10.19024615
Au	 10.87755780	 -4.48033611	 -13.10174505
Au	 10.87755780	 -4.48033611	 -16.01324394
Au	 10.87755780	 -4.48033611	 -18.92474284
Au	 10.87755780	 -4.48033611	 -21.83624174
Au	 10.87755780	 -4.48033611	 -24.74774064
Au	 10.87755780	 -4.48033611	 -27.65923954
Au	 10.87755780	 -4.48033611	 -30.57073844
Au	 13.23300989	 -4.48033611	 29.11498899
Au	 13.23300989	 -4.48033611	 26.20349009
Au	 13.23300989	 -4.48033611	 23.29199119
Au	 13.23300989	 -4.48033611	 20.38049229
Au	 13.23300989	 -4.48033611	 17.46899339
Au	 13.23300989	 -4.48033611	 14.55749449
Au	 13.23300989	 -4.48033611	 11.64599560
Au	 13.23300989	 -4.48033611	 8.73449670
Au	 13.23300989	 -4.48033611	 5.82299780
Au	 13.23300989	 -4.48033611	 2.91149890
Au	 13.23300989	 -4.48033611	 0.00000000
Au	 13.23300989	 -4.48033611	 -2.91149890
Au	 13.23300989	 -4.48033611	 -5.82299780
Au	 13.23300989	 -4.48033611	 -8.73449670
Au	 13.23300989	 -4.48033611	 -11.64599560
Au	 13.23300989	 -4.48033611	 -14.55749449
Au	 13.23300989	 -4.48033611	 -17.46899339
Au	 13.23300989	 -4.48033611	 -20.38049229
Au	 13.23300989	 -4.48033611	 -23.29199119
Au	 13.23300989	 -4.48033611	 -26.20349009
Au	 13.23300989	 -4.48033611	 -29.11498899
Au	 15.58846198	 -4.48033611	 27.65923954
Au	 15.58846198	 -4.48033611	 24.74774064
Au	 15.58846198	 -4.48033611	 21.83624174
Au	 15.58846198	 -4.48033611	 18.92474284
Au	 15.58846198	 -4.48033611	 16.01324394
Au	 15.58846198	 -4.48033611	 13.10174505
Au	 15.58846198	 -4.48033611	 10.19024615
Au	 15.58846198	 -4.48033611	 7.27874725
Au	 15.58846198	 -4.48033611	 4.36724835
Au	 15.58846198	 -4.48033611	 1.45574945
Au	 15.58846198	 -4.48033611	 -1.45574945
Au	 15.58846198	 -4.48033611	 -4.36724835
Au	 15.58846198	 -4.48033611	 -7.27874725
Au	 15.58846198	 -4.48033611	 -10.19024615
Au	 15.58846198	 -4.48033611	 -13.10174505
Au	 15.58846198	 -4.48033611	 -16.01324394
Au	 15.58846198	 -4.48033611	 -18.92474284
Au	 15.58846198	 -4.48033611	 -21.83624174
Au	 15.58846198	 -4.48033611	 -24.74774064
Au	 15.58846198	 -4.48033611	 -27.65923954
Au	 17.94391407	 -4.48033611	 26.20349009
Au	 17.94391407	 -4.48033611	 23.29199119
Au	 17.94391407	 -4.48033611	 20.38049229
Au	 17.94391407	 -4.48033611	 17.46899339
Au	 17.94391407	 -4.48033611	 14.55749449
Au	 17.94391407	 -4.48033611	 11.64599560
Au	 17.94391407	 -4.48033611	 8.73449670
Au	 17.94391407	 -4.48033611	 5.82299780
Au	 17.94391407	 -4.48033611	 2.91149890
Au	 17.94391407	 -4.48033611	 0.00000000
Au	 17.94391407	 -4.48033611	 -2.91149890
Au	 17.94391407	 -4.48033611	 -5.82299780
Au	 17.94391407	 -4.48033611	 -8.73449670
Au	 17.94391407	 -4.48033611	 -11.64599560
Au	 17.94391407	 -4.48033611	 -14.55749449
Au	 17.94391407	 -4.48033611	 -17.46899339
Au	 17.94391407	 -4.48033611	 -20.38049229
Au	 17.94391407	 -4.48033611	 -23.29199119
Au	 17.94391407	 -4.48033611	 -26.20349009
Au	 20.29936616	 -4.48033611	 24.74774064
Au	 20.29936616	 -4.48033611	 21.83624174
Au	 20.29936616	 -4.48033611	 18.92474284
Au	 20.29936616	 -4.48033611	 16.01324394
Au	 20.29936616	 -4.48033611	 13.10174505
Au	 20.29936616	 -4.48033611	 10.19024615
Au	 20.29936616	 -4.48033611	 7.27874725
Au	 20.29936616	 -4.48033611	 4.36724835
Au	 20.29936616	 -4.48033611	 1.45574945
Au	 20.29936616	 -4.48033611	 -1.45574945
Au	 20.29936616	 -4.48033611	 -4.36724835
Au	 20.29936616	 -4.48033611	 -7.27874725
Au	 20.29936616	 -4.48033611	 -10.19024615
Au	 20.29936616	 -4.48033611	 -13.10174505
Au	 20.29936616	 -4.48033611	 -16.01324394
Au	 20.29936616	 -4.48033611	 -18.92474284
Au	 20.29936616	 -4.48033611	 -21.83624174
Au	 20.29936616	 -4.48033611	 -24.74774064
Au	 22.65481824	 -4.48033611	 23.29199119
Au	 22.65481824	 -4.48033611	 20.38049229
Au	 22.65481824	 -4.48033611	 17.46899339
Au	 22.65481824	 -4.48033611	 14.55749449
Au	 22.65481824	 -4.48033611	 11.64599560
Au	 22.65481824	 -4.48033611	 8.73449670
Au	 22.65481824	 -4.48033611	 5.82299780
Au	 22.65481824	 -4.48033611	 2.91149890
Au	 22.65481824	 -4.48033611	 0.00000000
Au	 22.65481824	 -4.48033611	 -2.91149890
Au	 22.65481824	 -4.48033611	 -5.82299780
Au	 22.65481824	 -4.48033611	 -8.73449670
Au	 22.65481824	 -4.48033611	 -11.64599560
Au	 22.65481824	 -4.48033611	 -14.55749449
Au	 22.65481824	 -4.48033611	 -17.46899339
Au	 22.65481824	 -4.48033611	 -20.38049229
Au	 22.65481824	 -4.48033611	 -23.29199119
Au	 3.08332681	 -2.24016806	 36.39373624
Au	 3.08332681	 -2.24016806	 33.48223734
Au	 3.08332681	 -2.24016806	 30.57073844
Au	 3.08332681	 -2.24016806	 27.65923954
Au	 3.08332681	 -2.24016806	 24.74774064
Au	 3.08332681	 -2.24016806	 21.83624174
Au	 3.08332681	 -2.24016806	 18.92474284
Au	 3.08332681	 -2.24016806	 16.01324394
Au	 3.08332681	 -2.24016806	 13.10174505
Au	 3.08332681	 -2.24016806	 10.19024615
Au	 3.08332681	 -2.24016806	 7.27874725
Au	 3.08332681	 -2.24016806	 4.36724835
Au	 3.08332681	 -2.24016806	 1.45574945
Au	 3.08332681	 -2.24016806	 -1.45574945
Au	 3.08332681	 -2.24016806	 -4.36724835
Au	 3.08332681	 -2.24016806	 -7.27874725
Au	 3.08332681	 -2.24016806	 -10.19024615
Au	 3.08332681	 -2.24016806	 -13.10174505
Au	 3.08332681	 -2.24016806	 -16.01324394
Au	 3.08332681	 -2.24016806	 -18.92474284
Au	 3.08332681	 -2.24016806	 -21.83624174
Au	 3.08332681	 -2.24016806	 -24.74774064
Au	 3.08332681	 -2.24016806	 -27.65923954
Au	 3.08332681	 -2.24016806	 -30.57073844
Au	 3.08332681	 -2.24016806	 -33.48223734
Au	 3.08332681	 -2.24016806	 -36.39373624
Au	 5.43877890	 -2.24016806	 34.93798679
Au	 5.43877890	 -2.24016806	 32.02648789
Au	 5.43877890	 -2.24016806	 29.11498899
Au	 5.43877890	 -2.24016806	 26.20349009
Au	 5.43877890	 -2.24016806	 23.29199119
Au	 5.43877890	 -2.24016806	 20.38049229
Au	 5.43877890	 -2.24016806	 17.46899339
Au	 5.43877890	 -2.24016806	 14.55749449
Au	 5.43877890	 -2.24016806	 11.64599560
Au	 5.43877890	 -2.24016806	 8.73449670
Au	 5.43877890	 -2.24016806	 5.82299780
Au	 5.43877890	 -2.24016806	 2.91149890
Au	 5.43877890	 -2.24016806	 0.00000000
Au	 5.43877890	 -2.24016806	 -2.91149890
Au	 5.43877890	 -2.24016806	 -5.82299780
Au	 5.43877890	 -2.24016806	 -8.73449670
Au	 5.43877890	 -2.24016806	 -11.64599560
Au	 5.43877890	 -2.24016806	 -14.55749449
Au	 5.43877890	 -2.24016806	 -17.46899339
Au	 5.43877890	 -2.24016806	 -20.38049229
Au	 5.43877890	 -2.24016806	 -23.29199119
Au	 5.43877890	 -2.24016806	 -26.20349009
Au	 5.43877890	 -2.24016806	 -29.11498899
Au	 5.43877890	 -2.24016806	 -32.02648789
Au	 5.43877890	 -2.24016806	 -34.93798679
Au	 7.79423099	 -2.24016806	 33.48223734
Au	 7.79423099	 -2.24016806	 30.57073844
Au	 7.79423099	 -2.24016806	 27.65923954
Au	 7.79423099	 -2.24016806	 24.74774064
Au	 7.79423099	 -2.24016806	 21.83624174
Au	 7.79423099	 -2.24016806	 18.92474284
Au	 7.79423099	 -2.24016806	 16.01324394
Au	 7.79423099	 -2.24016806	 13.10174505
Au	 7.79423099	 -2.24016806	 10.19024615
Au	 7.79423099	 -2.24016806	 7.27874725
Au	 7.79423099	 -2.24016806	 4.36724835
Au	 7.79423099	 -2.24016806	 1.45574945
Au	 7.79423099	 -2.24016806	 -1.45574945
Au	 7.79423099	 -2.24016806	 -4.36724835
Au	 7.79423099	 -2.24016806	 -7.27874725
Au	 7.79423099	 -2.24016806	 -10.19024615
Au	 7.79423099	 -2.24016806	 -13.10174505
Au	 7.79423099	 -2.24016806	 -16.01324394
Au	 7.79423099	 -2.24016806	 -18.92474284
Au	 7.79423099	 -2.24016806	 -21.83624174
Au	 7.79423099	 -2.24016806	 -24.74774064
Au	 7.79423099	 -2.24016806	 -27.65923954
Au	 7.79423099	 -2.24016806	 -30.57073844
Au	 7.79423099	 -2.24016806	 -33.48223734
Au	 10.14968308	 -2.24016806	 32.02648789
Au	 10.14968308	 -2.24016806	 29.11498899
Au	 10.14968308	 -2.24016806	 26.20349009
Au	 10.14968308	 -2.24016806	 23.29199119
Au	 10.14968308	 -2.24016806	 20.38049229
Au	 10.14968308	 -2.24016806	 17.46899339
Au	 10.14968308	 -2.24016806	 14.55749449
Au	 10.14968308	 -2.24016806	 11.64599560
Au	 10.14968308	 -2.24016806	 8.73449670
Au	 10.14968308	 -2.24016806	 5.82299780
Au	 10.14968308	 -2.24016806	 2.91149890
Au	 10.14968308	 -2.24016806	 0.00000000
Au	 10.14968308	 -2.24016806	 -2.91149890
Au	 10.14968308	 -2.24016806	 -5.82299780
Au	 10.14968308	 -2.24016806	 -8.73449670
Au	 10.14968308	 -2.24016806	 -11.64599560
Au	 10.14968308	 -2.24016806	 -14.55749449
Au	 10.14968308	 -2.24016806	 -17.46899339
Au	 10.14968308	 -2.24016806	 -20.38049229
Au	 10.14968308	 -2.24016806	 -23.29199119
Au	 10.14968308	 -2.24016806	 -26.20349009
Au	 10.14968308	 -2.24016806	 -29.11498899
Au	 10.14968308	 -2.24016806	 -32.02648789
Au	 12.50513517	 -2.24016806	 30.57073844
Au	 12.50513517	 -2.24016806	 27.65923954
Au	 12.50513517	 -2.24016806	 24.74774064
Au	 12.50513517	 -2.24016806	 21.83624174
Au	 12.50513517	 -2.24016806	 18.92474284
Au	 12.50513517	 -2.24016806	 16.01324394
Au	 12.50513517	 -2.24016806	 13.10174505
Au	 12.50513517	 -2.24016806	 10.19024615
Au	 12.50513517	 -2.24016806	 7.27874725
Au	 12.50513517	 -2.24016806	 4.36724835
Au	 12.50513517	 -2.24016806	 1.45574945
Au	 12.50513517	 -2.24016806	 -1.45574945
Au	 12.50513517	 -2.24016806	 -4.36724835
Au	 12.50513517	 -2.24016806	 -7.27874725
Au	 12.50513517	 -2.24016806	 -10.19024615
Au	 12.50513517	 -2.24016806	 -13.10174505
Au	 12.50513517	 -2.24016806	 -16.01324394
Au	 12.50513517	 -2.24016806	 -18.92474284
Au	 12.50513517	 -2.24016806	 -21.83624174
Au	 12.50513517	 -2.24016806	 -24.74774064
Au	 12.50513517	 -2.24016806	 -27.65923954
Au	 12.50513517	 -2.24016806	 -30.57073844
Au	 14.86058725	 -2.24016806	 29.11498899
Au	 14.86058725	 -2.24016806	 26.20349009
Au	 14.86058725	 -2.24016806	 23.29199119
Au	 14.86058725	 -2.24016806	 20.38049229
Au	 14.86058725	 -2.24016806	 17.46899339
Au	 14.86058725	 -2.24016806	 14.55749449
Au	 14.86058725	 -2.24016806	 11.64599560
Au	 14.86058725	 -2.24016806	 8.73449670
Au	 14.86058725	 -2.24016806	 5.82299780
Au	 14.86058725	 -2.24016806	 2.91149890
Au	 14.86058725	 -2.24016806	 0.00000000
Au	 14.86058725	 -2.24016806	 -2.91149890
Au	 14.86058725	 -2.24016806	 -5.82299780
Au	 14.86058725	 -2.24016806	 -8.73449670
Au	 14.86058725	 -2.24016806	 -11.64599560
Au	 14.86058725	 -2.24016806	 -14.55749449
Au	 14.86058725	 -2.24016806	 -17.46899339
Au	 14.86058725	 -2.24016806	 -20.38049229
Au	 14.86058725	 -2.24016806	 -23.29199119
Au	 14.86058725	 -2.24016806	 -26.20349009
Au	 14.86058725	 -2.24016806	 -29.11498899
Au	 17.21603934	 -2.24016806	 27.65923954
Au	 17.21603934	 -2.24016806	 24.74774064
Au	 17.21603934	 -2.24016806	 21.83624174
Au	 17.21603934	 -2.24016806	 18.92474284
Au	 17.21603934	 -2.24016806	 16.01324394
Au	 17.21603934	 -2.24016806	 13.10174505
Au	 17.21603934	 -2.24016806	 10.19024615
Au	 17.21603934	 -2.24016806	 7.27874725
Au	 17.21603934	 -2.24016806	 4.36724835
Au	 17.21603934	 -2.24016806	 1.45574945
Au	 17.21603934	 -2.24016806	 -1.45574945
Au	 17.21603934	 -2.24016806	 -4.36724835
Au	 17.21603934	 -2.24016806	 -7.27874725
Au	 17.21603934	 -2.24016806	 -10.19024615
Au	 17.21603934	 -2.24016806	 -13.10174505
Au	 17.21603934	 -2.24016806	 -16.01324394
Au	 17.21603934	 -2.24016806	 -18.92474284
Au	 17.21603934	 -2.24016806	 -21.83624174
Au	 17.21603934	 -2.24016806	 -24.74774064
Au	 17.21603934	 -2.24016806	 -27.65923954
Au	 19.57149143	 -2.24016806	 26.20349009
Au	 19.57149143	 -2.24016806	 23.29199119
Au	 19.57149143	 -2.24016806	 20.38049229
Au	 19.57149143	 -2.24016806	 17.46899339
Au	 19.57149143	 -2.24016806	 14.55749449
Au	 19.57149143	 -2.24016806	 11.64599560
Au	 19.57149143	 -2.24016806	 8.73449670
Au	 19.57149143	 -2.24016806	 5.82299780
Au	 19.57149143	 -2.24016806	 2.91149890
Au	 19.57149143	 -2.24016806	 -0.00000000
Au	 19.57149143	 -2.24016806	 -2.91149890
Au	 19.57149143	 -2.24016806	 -5.82299780
Au	 19.57149143	 -2.24016806	 -8.73449670
Au	 19.57149143	 -2.24016806	 -11.64599560
Au	 19.57149143	 -2.24016806	 -14.55749449
Au	 19.57149143	 -2.24016806	 -17.46899339
Au	 19.57149143	 -2.24016806	 -20.38049229
Au	 19.57149143	 -2.24016806	 -23.29199119
Au	 19.57149143	 -2.24016806	 -26.20349009
Au	 21.92694352	 -2.24016806	 24.74774064
Au	 21.92694352	 -2.24016806	 21.83624174
Au	 21.92694352	 -2.24016806	 18.92474284
Au	 21.92694352	 -2.24016806	 16.01324394
Au	 21.92694352	 -2.24016806	 13.10174505
Au	 21.92694352	 -2.24016806	 10.19024615
Au	 21.92694352	 -2.24016806	 7.27874725
Au	 21.92694352	 -2.24016806	 4.36724835
Au	 21.92694352	 -2.24016806	 1.45574945
Au	 21.92694352	 -2.24016806	 -1.45574945
Au	 21.92694352	 -2.24016806	 -4.36724835
Au	 21.92694352	 -2.24016806	 -7.27874725
Au	 21.92694352	 -2.24016806	 -10.19024615
Au	 21.92694352	 -2.24016806	 -13.10174505
Au	 21.92694352	 -2.24016806	 -16.01324394
Au	 21.92694352	 -2.24016806	 -18.92474284
Au	 21.92694352	 -2.24016806	 -21.83624174
Au	 21.92694352	 -2.24016806	 -24.74774064
Au	 24.28239561	 -2.24016806	 23.29199119
Au	 24.28239561	 -2.24016806	 20.38049229
Au	 24.28239561	 -2.24016806	 17.46899339
Au	 24.28239561	 -2.24016806	 14.55749449
Au	 24.28239561	 -2.24016806	 11.64599560
Au	 24.28239561	 -2.24016806	 8.73449670
Au	 24.28239561	 -2.24016806	 5.82299780
Au	 24.28239561	 -2.24016806	 2.91149890
Au	 24.28239561	 -2.24016806	 -0.00000000
Au	 24.28239561	 -2.24016806	 -2.91149890
Au	 24.28239561	 -2.24016806	 -5.82299780
Au	 24.28239561	 -2.24016806	 -8.73449670
Au	 24.28239561	 -2.24016806	 -11.64599560
Au	 24.28239561	 -2.24016806	 -14.55749449
Au	 24.28239561	 -2.24016806	 -17.46899339
Au	 24.28239561	 -2.24016806	 -20.38049229
Au	 24.28239561	 -2.24016806	 -23.29199119
