1533 
{'Au': 1533}
Au	 -46.89987500	 -42.82162500	 -36.70425000
Au	 -42.82162500	 -46.89987500	 -36.70425000
Au	 -44.86075000	 -42.82162500	 -38.74337500
Au	 -42.82162500	 -44.86075000	 -38.74337500
Au	 -42.82162500	 -42.82162500	 -40.78250000
Au	 -44.86075000	 -44.86075000	 -36.70425000
Au	 -42.82162500	 -42.82162500	 -36.70425000
Au	 -46.89987500	 -36.70425000	 -42.82162500
Au	 -44.86075000	 -38.74337500	 -42.82162500
Au	 -42.82162500	 -40.78250000	 -42.82162500
Au	 -42.82162500	 -38.74337500	 -44.86075000
Au	 -42.82162500	 -36.70425000	 -46.89987500
Au	 -44.86075000	 -36.70425000	 -44.86075000
Au	 -42.82162500	 -36.70425000	 -42.82162500
Au	 -46.89987500	 -40.78250000	 -38.74337500
Au	 -46.89987500	 -38.74337500	 -40.78250000
Au	 -44.86075000	 -40.78250000	 -40.78250000
Au	 -44.86075000	 -38.74337500	 -38.74337500
Au	 -42.82162500	 -40.78250000	 -38.74337500
Au	 -42.82162500	 -38.74337500	 -40.78250000
Au	 -44.86075000	 -40.78250000	 -36.70425000
Au	 -44.86075000	 -38.74337500	 -34.66512500
Au	 -42.82162500	 -40.78250000	 -34.66512500
Au	 -42.82162500	 -38.74337500	 -36.70425000
Au	 -42.82162500	 -38.74337500	 -32.62600000
Au	 -44.86075000	 -36.70425000	 -40.78250000
Au	 -44.86075000	 -34.66512500	 -38.74337500
Au	 -42.82162500	 -36.70425000	 -38.74337500
Au	 -42.82162500	 -34.66512500	 -40.78250000
Au	 -44.86075000	 -36.70425000	 -36.70425000
Au	 -42.82162500	 -36.70425000	 -34.66512500
Au	 -42.82162500	 -34.66512500	 -36.70425000
Au	 -42.82162500	 -32.62600000	 -38.74337500
Au	 -40.78250000	 -42.82162500	 -42.82162500
Au	 -38.74337500	 -44.86075000	 -42.82162500
Au	 -38.74337500	 -42.82162500	 -44.86075000
Au	 -36.70425000	 -46.89987500	 -42.82162500
Au	 -36.70425000	 -42.82162500	 -46.89987500
Au	 -36.70425000	 -44.86075000	 -44.86075000
Au	 -36.70425000	 -42.82162500	 -42.82162500
Au	 -40.78250000	 -46.89987500	 -38.74337500
Au	 -38.74337500	 -46.89987500	 -40.78250000
Au	 -40.78250000	 -44.86075000	 -40.78250000
Au	 -40.78250000	 -42.82162500	 -38.74337500
Au	 -38.74337500	 -44.86075000	 -38.74337500
Au	 -38.74337500	 -42.82162500	 -40.78250000
Au	 -40.78250000	 -44.86075000	 -36.70425000
Au	 -40.78250000	 -42.82162500	 -34.66512500
Au	 -38.74337500	 -44.86075000	 -34.66512500
Au	 -38.74337500	 -42.82162500	 -36.70425000
Au	 -38.74337500	 -42.82162500	 -32.62600000
Au	 -36.70425000	 -44.86075000	 -40.78250000
Au	 -36.70425000	 -42.82162500	 -38.74337500
Au	 -34.66512500	 -44.86075000	 -38.74337500
Au	 -34.66512500	 -42.82162500	 -40.78250000
Au	 -36.70425000	 -44.86075000	 -36.70425000
Au	 -36.70425000	 -42.82162500	 -34.66512500
Au	 -34.66512500	 -42.82162500	 -36.70425000
Au	 -32.62600000	 -42.82162500	 -38.74337500
Au	 -40.78250000	 -38.74337500	 -46.89987500
Au	 -38.74337500	 -40.78250000	 -46.89987500
Au	 -40.78250000	 -40.78250000	 -44.86075000
Au	 -40.78250000	 -38.74337500	 -42.82162500
Au	 -38.74337500	 -40.78250000	 -42.82162500
Au	 -38.74337500	 -38.74337500	 -44.86075000
Au	 -40.78250000	 -36.70425000	 -44.86075000
Au	 -40.78250000	 -34.66512500	 -42.82162500
Au	 -38.74337500	 -36.70425000	 -42.82162500
Au	 -38.74337500	 -34.66512500	 -44.86075000
Au	 -38.74337500	 -32.62600000	 -42.82162500
Au	 -36.70425000	 -40.78250000	 -44.86075000
Au	 -36.70425000	 -38.74337500	 -42.82162500
Au	 -34.66512500	 -40.78250000	 -42.82162500
Au	 -34.66512500	 -38.74337500	 -44.86075000
Au	 -36.70425000	 -36.70425000	 -44.86075000
Au	 -36.70425000	 -34.66512500	 -42.82162500
Au	 -34.66512500	 -36.70425000	 -42.82162500
Au	 -32.62600000	 -38.74337500	 -42.82162500
Au	 -40.78250000	 -40.78250000	 -40.78250000
Au	 -40.78250000	 -38.74337500	 -38.74337500
Au	 -38.74337500	 -40.78250000	 -38.74337500
Au	 -38.74337500	 -38.74337500	 -40.78250000
Au	 -40.78250000	 -40.78250000	 -36.70425000
Au	 -40.78250000	 -38.74337500	 -34.66512500
Au	 -38.74337500	 -40.78250000	 -34.66512500
Au	 -38.74337500	 -38.74337500	 -36.70425000
Au	 -40.78250000	 -40.78250000	 -32.62600000
Au	 -38.74337500	 -38.74337500	 -32.62600000
Au	 -40.78250000	 -36.70425000	 -40.78250000
Au	 -40.78250000	 -34.66512500	 -38.74337500
Au	 -38.74337500	 -36.70425000	 -38.74337500
Au	 -38.74337500	 -34.66512500	 -40.78250000
Au	 -40.78250000	 -36.70425000	 -36.70425000
Au	 -40.78250000	 -34.66512500	 -34.66512500
Au	 -38.74337500	 -36.70425000	 -34.66512500
Au	 -38.74337500	 -34.66512500	 -36.70425000
Au	 -40.78250000	 -36.70425000	 -32.62600000
Au	 -40.78250000	 -34.66512500	 -30.58687500
Au	 -38.74337500	 -36.70425000	 -30.58687500
Au	 -38.74337500	 -34.66512500	 -32.62600000
Au	 -38.74337500	 -34.66512500	 -28.54775000
Au	 -40.78250000	 -32.62600000	 -40.78250000
Au	 -38.74337500	 -32.62600000	 -38.74337500
Au	 -40.78250000	 -32.62600000	 -36.70425000
Au	 -40.78250000	 -30.58687500	 -34.66512500
Au	 -38.74337500	 -32.62600000	 -34.66512500
Au	 -38.74337500	 -30.58687500	 -36.70425000
Au	 -40.78250000	 -32.62600000	 -32.62600000
Au	 -38.74337500	 -32.62600000	 -30.58687500
Au	 -38.74337500	 -30.58687500	 -32.62600000
Au	 -38.74337500	 -28.54775000	 -34.66512500
Au	 -36.70425000	 -40.78250000	 -40.78250000
Au	 -36.70425000	 -38.74337500	 -38.74337500
Au	 -34.66512500	 -40.78250000	 -38.74337500
Au	 -34.66512500	 -38.74337500	 -40.78250000
Au	 -36.70425000	 -40.78250000	 -36.70425000
Au	 -36.70425000	 -38.74337500	 -34.66512500
Au	 -34.66512500	 -40.78250000	 -34.66512500
Au	 -34.66512500	 -38.74337500	 -36.70425000
Au	 -36.70425000	 -40.78250000	 -32.62600000
Au	 -36.70425000	 -38.74337500	 -30.58687500
Au	 -34.66512500	 -40.78250000	 -30.58687500
Au	 -34.66512500	 -38.74337500	 -32.62600000
Au	 -34.66512500	 -38.74337500	 -28.54775000
Au	 -36.70425000	 -36.70425000	 -40.78250000
Au	 -36.70425000	 -34.66512500	 -38.74337500
Au	 -34.66512500	 -36.70425000	 -38.74337500
Au	 -34.66512500	 -34.66512500	 -40.78250000
Au	 -36.70425000	 -36.70425000	 -36.70425000
Au	 -36.70425000	 -34.66512500	 -34.66512500
Au	 -34.66512500	 -36.70425000	 -34.66512500
Au	 -34.66512500	 -34.66512500	 -36.70425000
Au	 -36.70425000	 -36.70425000	 -32.62600000
Au	 -36.70425000	 -34.66512500	 -30.58687500
Au	 -34.66512500	 -36.70425000	 -30.58687500
Au	 -34.66512500	 -34.66512500	 -32.62600000
Au	 -36.70425000	 -36.70425000	 -28.54775000
Au	 -34.66512500	 -34.66512500	 -28.54775000
Au	 -36.70425000	 -32.62600000	 -40.78250000
Au	 -36.70425000	 -30.58687500	 -38.74337500
Au	 -34.66512500	 -32.62600000	 -38.74337500
Au	 -34.66512500	 -30.58687500	 -40.78250000
Au	 -36.70425000	 -32.62600000	 -36.70425000
Au	 -36.70425000	 -30.58687500	 -34.66512500
Au	 -34.66512500	 -32.62600000	 -34.66512500
Au	 -34.66512500	 -30.58687500	 -36.70425000
Au	 -36.70425000	 -32.62600000	 -32.62600000
Au	 -36.70425000	 -30.58687500	 -30.58687500
Au	 -34.66512500	 -32.62600000	 -30.58687500
Au	 -34.66512500	 -30.58687500	 -32.62600000
Au	 -36.70425000	 -32.62600000	 -28.54775000
Au	 -36.70425000	 -30.58687500	 -26.50862500
Au	 -34.66512500	 -32.62600000	 -26.50862500
Au	 -34.66512500	 -30.58687500	 -28.54775000
Au	 -34.66512500	 -30.58687500	 -24.46950000
Au	 -34.66512500	 -28.54775000	 -38.74337500
Au	 -36.70425000	 -28.54775000	 -36.70425000
Au	 -34.66512500	 -28.54775000	 -34.66512500
Au	 -36.70425000	 -28.54775000	 -32.62600000
Au	 -36.70425000	 -26.50862500	 -30.58687500
Au	 -34.66512500	 -28.54775000	 -30.58687500
Au	 -34.66512500	 -26.50862500	 -32.62600000
Au	 -36.70425000	 -28.54775000	 -28.54775000
Au	 -34.66512500	 -28.54775000	 -26.50862500
Au	 -34.66512500	 -26.50862500	 -28.54775000
Au	 -34.66512500	 -24.46950000	 -30.58687500
Au	 -32.62600000	 -40.78250000	 -40.78250000
Au	 -32.62600000	 -38.74337500	 -38.74337500
Au	 -32.62600000	 -40.78250000	 -36.70425000
Au	 -32.62600000	 -38.74337500	 -34.66512500
Au	 -30.58687500	 -40.78250000	 -34.66512500
Au	 -30.58687500	 -38.74337500	 -36.70425000
Au	 -32.62600000	 -40.78250000	 -32.62600000
Au	 -32.62600000	 -38.74337500	 -30.58687500
Au	 -30.58687500	 -38.74337500	 -32.62600000
Au	 -32.62600000	 -36.70425000	 -40.78250000
Au	 -32.62600000	 -34.66512500	 -38.74337500
Au	 -30.58687500	 -36.70425000	 -38.74337500
Au	 -30.58687500	 -34.66512500	 -40.78250000
Au	 -32.62600000	 -36.70425000	 -36.70425000
Au	 -32.62600000	 -34.66512500	 -34.66512500
Au	 -30.58687500	 -36.70425000	 -34.66512500
Au	 -30.58687500	 -34.66512500	 -36.70425000
Au	 -32.62600000	 -36.70425000	 -32.62600000
Au	 -32.62600000	 -34.66512500	 -30.58687500
Au	 -30.58687500	 -36.70425000	 -30.58687500
Au	 -30.58687500	 -34.66512500	 -32.62600000
Au	 -32.62600000	 -36.70425000	 -28.54775000
Au	 -32.62600000	 -34.66512500	 -26.50862500
Au	 -30.58687500	 -36.70425000	 -26.50862500
Au	 -30.58687500	 -34.66512500	 -28.54775000
Au	 -30.58687500	 -34.66512500	 -24.46950000
Au	 -32.62600000	 -32.62600000	 -40.78250000
Au	 -32.62600000	 -30.58687500	 -38.74337500
Au	 -30.58687500	 -32.62600000	 -38.74337500
Au	 -32.62600000	 -32.62600000	 -36.70425000
Au	 -32.62600000	 -30.58687500	 -34.66512500
Au	 -30.58687500	 -32.62600000	 -34.66512500
Au	 -30.58687500	 -30.58687500	 -36.70425000
Au	 -32.62600000	 -32.62600000	 -32.62600000
Au	 -32.62600000	 -30.58687500	 -30.58687500
Au	 -30.58687500	 -32.62600000	 -30.58687500
Au	 -30.58687500	 -30.58687500	 -32.62600000
Au	 -32.62600000	 -32.62600000	 -28.54775000
Au	 -32.62600000	 -30.58687500	 -26.50862500
Au	 -30.58687500	 -32.62600000	 -26.50862500
Au	 -30.58687500	 -30.58687500	 -28.54775000
Au	 -32.62600000	 -32.62600000	 -24.46950000
Au	 -30.58687500	 -30.58687500	 -24.46950000
Au	 -32.62600000	 -28.54775000	 -36.70425000
Au	 -32.62600000	 -26.50862500	 -34.66512500
Au	 -30.58687500	 -28.54775000	 -34.66512500
Au	 -30.58687500	 -26.50862500	 -36.70425000
Au	 -32.62600000	 -28.54775000	 -32.62600000
Au	 -32.62600000	 -26.50862500	 -30.58687500
Au	 -30.58687500	 -28.54775000	 -30.58687500
Au	 -30.58687500	 -26.50862500	 -32.62600000
Au	 -32.62600000	 -28.54775000	 -28.54775000
Au	 -32.62600000	 -26.50862500	 -26.50862500
Au	 -30.58687500	 -28.54775000	 -26.50862500
Au	 -30.58687500	 -26.50862500	 -28.54775000
Au	 -32.62600000	 -28.54775000	 -24.46950000
Au	 -32.62600000	 -26.50862500	 -22.43037500
Au	 -30.58687500	 -28.54775000	 -22.43037500
Au	 -30.58687500	 -26.50862500	 -24.46950000
Au	 -30.58687500	 -24.46950000	 -34.66512500
Au	 -32.62600000	 -24.46950000	 -32.62600000
Au	 -30.58687500	 -24.46950000	 -30.58687500
Au	 -32.62600000	 -24.46950000	 -28.54775000
Au	 -32.62600000	 -22.43037500	 -26.50862500
Au	 -30.58687500	 -24.46950000	 -26.50862500
Au	 -30.58687500	 -22.43037500	 -28.54775000
Au	 -32.62600000	 -24.46950000	 -24.46950000
Au	 -30.58687500	 -24.46950000	 -22.43037500
Au	 -30.58687500	 -22.43037500	 -24.46950000
Au	 -28.54775000	 -38.74337500	 -34.66512500
Au	 -28.54775000	 -34.66512500	 -38.74337500
Au	 -28.54775000	 -36.70425000	 -36.70425000
Au	 -28.54775000	 -34.66512500	 -34.66512500
Au	 -28.54775000	 -36.70425000	 -32.62600000
Au	 -28.54775000	 -34.66512500	 -30.58687500
Au	 -26.50862500	 -36.70425000	 -30.58687500
Au	 -26.50862500	 -34.66512500	 -32.62600000
Au	 -28.54775000	 -36.70425000	 -28.54775000
Au	 -28.54775000	 -34.66512500	 -26.50862500
Au	 -26.50862500	 -34.66512500	 -28.54775000
Au	 -28.54775000	 -32.62600000	 -36.70425000
Au	 -28.54775000	 -30.58687500	 -34.66512500
Au	 -26.50862500	 -32.62600000	 -34.66512500
Au	 -26.50862500	 -30.58687500	 -36.70425000
Au	 -28.54775000	 -32.62600000	 -32.62600000
Au	 -28.54775000	 -30.58687500	 -30.58687500
Au	 -26.50862500	 -32.62600000	 -30.58687500
Au	 -26.50862500	 -30.58687500	 -32.62600000
Au	 -28.54775000	 -32.62600000	 -28.54775000
Au	 -28.54775000	 -30.58687500	 -26.50862500
Au	 -26.50862500	 -32.62600000	 -26.50862500
Au	 -26.50862500	 -30.58687500	 -28.54775000
Au	 -28.54775000	 -32.62600000	 -24.46950000
Au	 -28.54775000	 -30.58687500	 -22.43037500
Au	 -26.50862500	 -32.62600000	 -22.43037500
Au	 -26.50862500	 -30.58687500	 -24.46950000
Au	 -28.54775000	 -28.54775000	 -36.70425000
Au	 -28.54775000	 -26.50862500	 -34.66512500
Au	 -26.50862500	 -28.54775000	 -34.66512500
Au	 -28.54775000	 -28.54775000	 -32.62600000
Au	 -28.54775000	 -26.50862500	 -30.58687500
Au	 -26.50862500	 -28.54775000	 -30.58687500
Au	 -26.50862500	 -26.50862500	 -32.62600000
Au	 -28.54775000	 -28.54775000	 -28.54775000
Au	 -28.54775000	 -26.50862500	 -26.50862500
Au	 -26.50862500	 -28.54775000	 -26.50862500
Au	 -26.50862500	 -26.50862500	 -28.54775000
Au	 -28.54775000	 -28.54775000	 -24.46950000
Au	 -28.54775000	 -26.50862500	 -22.43037500
Au	 -26.50862500	 -28.54775000	 -22.43037500
Au	 -26.50862500	 -26.50862500	 -24.46950000
Au	 -28.54775000	 -24.46950000	 -32.62600000
Au	 -28.54775000	 -22.43037500	 -30.58687500
Au	 -26.50862500	 -24.46950000	 -30.58687500
Au	 -26.50862500	 -22.43037500	 -32.62600000
Au	 -28.54775000	 -24.46950000	 -28.54775000
Au	 -28.54775000	 -22.43037500	 -26.50862500
Au	 -26.50862500	 -24.46950000	 -26.50862500
Au	 -26.50862500	 -22.43037500	 -28.54775000
Au	 -28.54775000	 -24.46950000	 -24.46950000
Au	 -28.54775000	 -22.43037500	 -22.43037500
Au	 -26.50862500	 -24.46950000	 -22.43037500
Au	 -26.50862500	 -22.43037500	 -24.46950000
Au	 -24.46950000	 -34.66512500	 -30.58687500
Au	 -24.46950000	 -30.58687500	 -34.66512500
Au	 -24.46950000	 -32.62600000	 -32.62600000
Au	 -24.46950000	 -30.58687500	 -30.58687500
Au	 -24.46950000	 -32.62600000	 -28.54775000
Au	 -24.46950000	 -30.58687500	 -26.50862500
Au	 -22.43037500	 -32.62600000	 -26.50862500
Au	 -22.43037500	 -30.58687500	 -28.54775000
Au	 -24.46950000	 -32.62600000	 -24.46950000
Au	 -24.46950000	 -30.58687500	 -22.43037500
Au	 -22.43037500	 -30.58687500	 -24.46950000
Au	 -24.46950000	 -28.54775000	 -32.62600000
Au	 -24.46950000	 -26.50862500	 -30.58687500
Au	 -22.43037500	 -28.54775000	 -30.58687500
Au	 -22.43037500	 -26.50862500	 -32.62600000
Au	 -24.46950000	 -28.54775000	 -28.54775000
Au	 -24.46950000	 -26.50862500	 -26.50862500
Au	 -22.43037500	 -28.54775000	 -26.50862500
Au	 -22.43037500	 -26.50862500	 -28.54775000
Au	 -24.46950000	 -28.54775000	 -24.46950000
Au	 -24.46950000	 -26.50862500	 -22.43037500
Au	 -22.43037500	 -28.54775000	 -22.43037500
Au	 -22.43037500	 -26.50862500	 -24.46950000
Au	 -24.46950000	 -24.46950000	 -32.62600000
Au	 -24.46950000	 -22.43037500	 -30.58687500
Au	 -22.43037500	 -24.46950000	 -30.58687500
Au	 -24.46950000	 -24.46950000	 -28.54775000
Au	 -24.46950000	 -22.43037500	 -26.50862500
Au	 -22.43037500	 -24.46950000	 -26.50862500
Au	 -22.43037500	 -22.43037500	 -28.54775000
Au	 -24.46950000	 -24.46950000	 -24.46950000
Au	 -24.46950000	 -22.43037500	 -22.43037500
Au	 -22.43037500	 -24.46950000	 -22.43037500
Au	 -22.43037500	 -22.43037500	 -24.46950000
Au	 -30.58687500	 -26.50862500	 -20.39125000
Au	 -26.50862500	 -30.58687500	 -20.39125000
Au	 -28.54775000	 -28.54775000	 -20.39125000
Au	 -26.50862500	 -26.50862500	 -20.39125000
Au	 -28.54775000	 -24.46950000	 -20.39125000
Au	 -28.54775000	 -22.43037500	 -18.35212500
Au	 -26.50862500	 -24.46950000	 -18.35212500
Au	 -26.50862500	 -22.43037500	 -20.39125000
Au	 -26.50862500	 -22.43037500	 -16.31300000
Au	 -24.46950000	 -28.54775000	 -20.39125000
Au	 -24.46950000	 -26.50862500	 -18.35212500
Au	 -22.43037500	 -28.54775000	 -18.35212500
Au	 -22.43037500	 -26.50862500	 -20.39125000
Au	 -22.43037500	 -26.50862500	 -16.31300000
Au	 -24.46950000	 -24.46950000	 -20.39125000
Au	 -24.46950000	 -22.43037500	 -18.35212500
Au	 -22.43037500	 -24.46950000	 -18.35212500
Au	 -22.43037500	 -22.43037500	 -20.39125000
Au	 -24.46950000	 -24.46950000	 -16.31300000
Au	 -22.43037500	 -22.43037500	 -16.31300000
Au	 -30.58687500	 -20.39125000	 -26.50862500
Au	 -26.50862500	 -20.39125000	 -30.58687500
Au	 -28.54775000	 -20.39125000	 -28.54775000
Au	 -26.50862500	 -20.39125000	 -26.50862500
Au	 -28.54775000	 -20.39125000	 -24.46950000
Au	 -28.54775000	 -18.35212500	 -22.43037500
Au	 -26.50862500	 -20.39125000	 -22.43037500
Au	 -26.50862500	 -18.35212500	 -24.46950000
Au	 -26.50862500	 -16.31300000	 -22.43037500
Au	 -24.46950000	 -20.39125000	 -28.54775000
Au	 -24.46950000	 -18.35212500	 -26.50862500
Au	 -22.43037500	 -20.39125000	 -26.50862500
Au	 -22.43037500	 -18.35212500	 -28.54775000
Au	 -24.46950000	 -20.39125000	 -24.46950000
Au	 -24.46950000	 -18.35212500	 -22.43037500
Au	 -22.43037500	 -20.39125000	 -22.43037500
Au	 -22.43037500	 -18.35212500	 -24.46950000
Au	 -22.43037500	 -16.31300000	 -26.50862500
Au	 -24.46950000	 -16.31300000	 -24.46950000
Au	 -22.43037500	 -16.31300000	 -22.43037500
Au	 -28.54775000	 -20.39125000	 -20.39125000
Au	 -26.50862500	 -20.39125000	 -18.35212500
Au	 -26.50862500	 -18.35212500	 -20.39125000
Au	 -24.46950000	 -20.39125000	 -20.39125000
Au	 -24.46950000	 -18.35212500	 -18.35212500
Au	 -22.43037500	 -20.39125000	 -18.35212500
Au	 -22.43037500	 -18.35212500	 -20.39125000
Au	 -24.46950000	 -20.39125000	 -16.31300000
Au	 -24.46950000	 -18.35212500	 -14.27387500
Au	 -22.43037500	 -20.39125000	 -14.27387500
Au	 -22.43037500	 -18.35212500	 -16.31300000
Au	 -22.43037500	 -18.35212500	 -12.23475000
Au	 -24.46950000	 -16.31300000	 -20.39125000
Au	 -24.46950000	 -14.27387500	 -18.35212500
Au	 -22.43037500	 -16.31300000	 -18.35212500
Au	 -22.43037500	 -14.27387500	 -20.39125000
Au	 -24.46950000	 -16.31300000	 -16.31300000
Au	 -22.43037500	 -16.31300000	 -14.27387500
Au	 -22.43037500	 -14.27387500	 -16.31300000
Au	 -22.43037500	 -12.23475000	 -18.35212500
Au	 -20.39125000	 -30.58687500	 -26.50862500
Au	 -20.39125000	 -26.50862500	 -30.58687500
Au	 -20.39125000	 -28.54775000	 -28.54775000
Au	 -20.39125000	 -26.50862500	 -26.50862500
Au	 -20.39125000	 -28.54775000	 -24.46950000
Au	 -20.39125000	 -26.50862500	 -22.43037500
Au	 -18.35212500	 -28.54775000	 -22.43037500
Au	 -18.35212500	 -26.50862500	 -24.46950000
Au	 -20.39125000	 -24.46950000	 -28.54775000
Au	 -20.39125000	 -22.43037500	 -26.50862500
Au	 -18.35212500	 -24.46950000	 -26.50862500
Au	 -18.35212500	 -22.43037500	 -28.54775000
Au	 -20.39125000	 -24.46950000	 -24.46950000
Au	 -20.39125000	 -22.43037500	 -22.43037500
Au	 -18.35212500	 -24.46950000	 -22.43037500
Au	 -18.35212500	 -22.43037500	 -24.46950000
Au	 -16.31300000	 -26.50862500	 -22.43037500
Au	 -16.31300000	 -22.43037500	 -26.50862500
Au	 -16.31300000	 -24.46950000	 -24.46950000
Au	 -16.31300000	 -22.43037500	 -22.43037500
Au	 -20.39125000	 -28.54775000	 -20.39125000
Au	 -20.39125000	 -26.50862500	 -18.35212500
Au	 -18.35212500	 -26.50862500	 -20.39125000
Au	 -20.39125000	 -24.46950000	 -20.39125000
Au	 -20.39125000	 -22.43037500	 -18.35212500
Au	 -18.35212500	 -24.46950000	 -18.35212500
Au	 -18.35212500	 -22.43037500	 -20.39125000
Au	 -20.39125000	 -24.46950000	 -16.31300000
Au	 -20.39125000	 -22.43037500	 -14.27387500
Au	 -18.35212500	 -24.46950000	 -14.27387500
Au	 -18.35212500	 -22.43037500	 -16.31300000
Au	 -18.35212500	 -22.43037500	 -12.23475000
Au	 -16.31300000	 -24.46950000	 -20.39125000
Au	 -16.31300000	 -22.43037500	 -18.35212500
Au	 -14.27387500	 -24.46950000	 -18.35212500
Au	 -14.27387500	 -22.43037500	 -20.39125000
Au	 -16.31300000	 -24.46950000	 -16.31300000
Au	 -16.31300000	 -22.43037500	 -14.27387500
Au	 -14.27387500	 -22.43037500	 -16.31300000
Au	 -12.23475000	 -22.43037500	 -18.35212500
Au	 -20.39125000	 -20.39125000	 -28.54775000
Au	 -20.39125000	 -18.35212500	 -26.50862500
Au	 -18.35212500	 -20.39125000	 -26.50862500
Au	 -20.39125000	 -20.39125000	 -24.46950000
Au	 -20.39125000	 -18.35212500	 -22.43037500
Au	 -18.35212500	 -20.39125000	 -22.43037500
Au	 -18.35212500	 -18.35212500	 -24.46950000
Au	 -20.39125000	 -16.31300000	 -24.46950000
Au	 -20.39125000	 -14.27387500	 -22.43037500
Au	 -18.35212500	 -16.31300000	 -22.43037500
Au	 -18.35212500	 -14.27387500	 -24.46950000
Au	 -18.35212500	 -12.23475000	 -22.43037500
Au	 -16.31300000	 -20.39125000	 -24.46950000
Au	 -16.31300000	 -18.35212500	 -22.43037500
Au	 -14.27387500	 -20.39125000	 -22.43037500
Au	 -14.27387500	 -18.35212500	 -24.46950000
Au	 -16.31300000	 -16.31300000	 -24.46950000
Au	 -16.31300000	 -14.27387500	 -22.43037500
Au	 -14.27387500	 -16.31300000	 -22.43037500
Au	 -12.23475000	 -18.35212500	 -22.43037500
Au	 -20.39125000	 -20.39125000	 -20.39125000
Au	 -20.39125000	 -18.35212500	 -18.35212500
Au	 -18.35212500	 -20.39125000	 -18.35212500
Au	 -18.35212500	 -18.35212500	 -20.39125000
Au	 -20.39125000	 -20.39125000	 -16.31300000
Au	 -20.39125000	 -18.35212500	 -14.27387500
Au	 -18.35212500	 -20.39125000	 -14.27387500
Au	 -18.35212500	 -18.35212500	 -16.31300000
Au	 -20.39125000	 -20.39125000	 -12.23475000
Au	 -18.35212500	 -18.35212500	 -12.23475000
Au	 -20.39125000	 -16.31300000	 -20.39125000
Au	 -20.39125000	 -14.27387500	 -18.35212500
Au	 -18.35212500	 -16.31300000	 -18.35212500
Au	 -18.35212500	 -14.27387500	 -20.39125000
Au	 -20.39125000	 -16.31300000	 -16.31300000
Au	 -20.39125000	 -14.27387500	 -14.27387500
Au	 -18.35212500	 -16.31300000	 -14.27387500
Au	 -18.35212500	 -14.27387500	 -16.31300000
Au	 -20.39125000	 -16.31300000	 -12.23475000
Au	 -20.39125000	 -14.27387500	 -10.19562500
Au	 -18.35212500	 -16.31300000	 -10.19562500
Au	 -18.35212500	 -14.27387500	 -12.23475000
Au	 -18.35212500	 -14.27387500	 -8.15650000
Au	 -20.39125000	 -12.23475000	 -20.39125000
Au	 -18.35212500	 -12.23475000	 -18.35212500
Au	 -20.39125000	 -12.23475000	 -16.31300000
Au	 -20.39125000	 -10.19562500	 -14.27387500
Au	 -18.35212500	 -12.23475000	 -14.27387500
Au	 -18.35212500	 -10.19562500	 -16.31300000
Au	 -20.39125000	 -12.23475000	 -12.23475000
Au	 -18.35212500	 -12.23475000	 -10.19562500
Au	 -18.35212500	 -10.19562500	 -12.23475000
Au	 -18.35212500	 -8.15650000	 -14.27387500
Au	 -16.31300000	 -20.39125000	 -20.39125000
Au	 -16.31300000	 -18.35212500	 -18.35212500
Au	 -14.27387500	 -20.39125000	 -18.35212500
Au	 -14.27387500	 -18.35212500	 -20.39125000
Au	 -16.31300000	 -20.39125000	 -16.31300000
Au	 -16.31300000	 -18.35212500	 -14.27387500
Au	 -14.27387500	 -20.39125000	 -14.27387500
Au	 -14.27387500	 -18.35212500	 -16.31300000
Au	 -16.31300000	 -20.39125000	 -12.23475000
Au	 -16.31300000	 -18.35212500	 -10.19562500
Au	 -14.27387500	 -20.39125000	 -10.19562500
Au	 -14.27387500	 -18.35212500	 -12.23475000
Au	 -14.27387500	 -18.35212500	 -8.15650000
Au	 -16.31300000	 -16.31300000	 -20.39125000
Au	 -16.31300000	 -14.27387500	 -18.35212500
Au	 -14.27387500	 -16.31300000	 -18.35212500
Au	 -14.27387500	 -14.27387500	 -20.39125000
Au	 -16.31300000	 -16.31300000	 -16.31300000
Au	 -16.31300000	 -14.27387500	 -14.27387500
Au	 -14.27387500	 -16.31300000	 -14.27387500
Au	 -14.27387500	 -14.27387500	 -16.31300000
Au	 -16.31300000	 -16.31300000	 -12.23475000
Au	 -16.31300000	 -14.27387500	 -10.19562500
Au	 -14.27387500	 -16.31300000	 -10.19562500
Au	 -14.27387500	 -14.27387500	 -12.23475000
Au	 -16.31300000	 -16.31300000	 -8.15650000
Au	 -14.27387500	 -14.27387500	 -8.15650000
Au	 -16.31300000	 -12.23475000	 -20.39125000
Au	 -16.31300000	 -10.19562500	 -18.35212500
Au	 -14.27387500	 -12.23475000	 -18.35212500
Au	 -14.27387500	 -10.19562500	 -20.39125000
Au	 -16.31300000	 -12.23475000	 -16.31300000
Au	 -16.31300000	 -10.19562500	 -14.27387500
Au	 -14.27387500	 -12.23475000	 -14.27387500
Au	 -14.27387500	 -10.19562500	 -16.31300000
Au	 -16.31300000	 -12.23475000	 -12.23475000
Au	 -16.31300000	 -10.19562500	 -10.19562500
Au	 -14.27387500	 -12.23475000	 -10.19562500
Au	 -14.27387500	 -10.19562500	 -12.23475000
Au	 -16.31300000	 -12.23475000	 -8.15650000
Au	 -16.31300000	 -10.19562500	 -6.11737500
Au	 -14.27387500	 -12.23475000	 -6.11737500
Au	 -14.27387500	 -10.19562500	 -8.15650000
Au	 -14.27387500	 -10.19562500	 -4.07825000
Au	 -14.27387500	 -8.15650000	 -18.35212500
Au	 -16.31300000	 -8.15650000	 -16.31300000
Au	 -14.27387500	 -8.15650000	 -14.27387500
Au	 -16.31300000	 -8.15650000	 -12.23475000
Au	 -16.31300000	 -6.11737500	 -10.19562500
Au	 -14.27387500	 -8.15650000	 -10.19562500
Au	 -14.27387500	 -6.11737500	 -12.23475000
Au	 -16.31300000	 -8.15650000	 -8.15650000
Au	 -14.27387500	 -8.15650000	 -6.11737500
Au	 -14.27387500	 -6.11737500	 -8.15650000
Au	 -14.27387500	 -4.07825000	 -10.19562500
Au	 -12.23475000	 -20.39125000	 -20.39125000
Au	 -12.23475000	 -18.35212500	 -18.35212500
Au	 -12.23475000	 -20.39125000	 -16.31300000
Au	 -12.23475000	 -18.35212500	 -14.27387500
Au	 -10.19562500	 -20.39125000	 -14.27387500
Au	 -10.19562500	 -18.35212500	 -16.31300000
Au	 -12.23475000	 -20.39125000	 -12.23475000
Au	 -12.23475000	 -18.35212500	 -10.19562500
Au	 -10.19562500	 -18.35212500	 -12.23475000
Au	 -12.23475000	 -16.31300000	 -20.39125000
Au	 -12.23475000	 -14.27387500	 -18.35212500
Au	 -10.19562500	 -16.31300000	 -18.35212500
Au	 -10.19562500	 -14.27387500	 -20.39125000
Au	 -12.23475000	 -16.31300000	 -16.31300000
Au	 -12.23475000	 -14.27387500	 -14.27387500
Au	 -10.19562500	 -16.31300000	 -14.27387500
Au	 -10.19562500	 -14.27387500	 -16.31300000
Au	 -12.23475000	 -16.31300000	 -12.23475000
Au	 -12.23475000	 -14.27387500	 -10.19562500
Au	 -10.19562500	 -16.31300000	 -10.19562500
Au	 -10.19562500	 -14.27387500	 -12.23475000
Au	 -12.23475000	 -16.31300000	 -8.15650000
Au	 -12.23475000	 -14.27387500	 -6.11737500
Au	 -10.19562500	 -16.31300000	 -6.11737500
Au	 -10.19562500	 -14.27387500	 -8.15650000
Au	 -10.19562500	 -14.27387500	 -4.07825000
Au	 -12.23475000	 -12.23475000	 -20.39125000
Au	 -12.23475000	 -10.19562500	 -18.35212500
Au	 -10.19562500	 -12.23475000	 -18.35212500
Au	 -12.23475000	 -12.23475000	 -16.31300000
Au	 -12.23475000	 -10.19562500	 -14.27387500
Au	 -10.19562500	 -12.23475000	 -14.27387500
Au	 -10.19562500	 -10.19562500	 -16.31300000
Au	 -12.23475000	 -12.23475000	 -12.23475000
Au	 -12.23475000	 -10.19562500	 -10.19562500
Au	 -10.19562500	 -12.23475000	 -10.19562500
Au	 -10.19562500	 -10.19562500	 -12.23475000
Au	 -12.23475000	 -12.23475000	 -8.15650000
Au	 -12.23475000	 -10.19562500	 -6.11737500
Au	 -10.19562500	 -12.23475000	 -6.11737500
Au	 -10.19562500	 -10.19562500	 -8.15650000
Au	 -12.23475000	 -12.23475000	 -4.07825000
Au	 -10.19562500	 -10.19562500	 -4.07825000
Au	 -12.23475000	 -8.15650000	 -16.31300000
Au	 -12.23475000	 -6.11737500	 -14.27387500
Au	 -10.19562500	 -8.15650000	 -14.27387500
Au	 -10.19562500	 -6.11737500	 -16.31300000
Au	 -12.23475000	 -8.15650000	 -12.23475000
Au	 -12.23475000	 -6.11737500	 -10.19562500
Au	 -10.19562500	 -8.15650000	 -10.19562500
Au	 -10.19562500	 -6.11737500	 -12.23475000
Au	 -12.23475000	 -8.15650000	 -8.15650000
Au	 -12.23475000	 -6.11737500	 -6.11737500
Au	 -10.19562500	 -8.15650000	 -6.11737500
Au	 -10.19562500	 -6.11737500	 -8.15650000
Au	 -12.23475000	 -8.15650000	 -4.07825000
Au	 -12.23475000	 -6.11737500	 -2.03912500
Au	 -10.19562500	 -8.15650000	 -2.03912500
Au	 -10.19562500	 -6.11737500	 -4.07825000
Au	 -10.19562500	 -4.07825000	 -14.27387500
Au	 -12.23475000	 -4.07825000	 -12.23475000
Au	 -10.19562500	 -4.07825000	 -10.19562500
Au	 -12.23475000	 -4.07825000	 -8.15650000
Au	 -12.23475000	 -2.03912500	 -6.11737500
Au	 -10.19562500	 -4.07825000	 -6.11737500
Au	 -10.19562500	 -2.03912500	 -8.15650000
Au	 -12.23475000	 -4.07825000	 -4.07825000
Au	 -10.19562500	 -4.07825000	 -2.03912500
Au	 -10.19562500	 -2.03912500	 -4.07825000
Au	 -8.15650000	 -18.35212500	 -14.27387500
Au	 -8.15650000	 -14.27387500	 -18.35212500
Au	 -8.15650000	 -16.31300000	 -16.31300000
Au	 -8.15650000	 -14.27387500	 -14.27387500
Au	 -8.15650000	 -16.31300000	 -12.23475000
Au	 -8.15650000	 -14.27387500	 -10.19562500
Au	 -6.11737500	 -16.31300000	 -10.19562500
Au	 -6.11737500	 -14.27387500	 -12.23475000
Au	 -8.15650000	 -16.31300000	 -8.15650000
Au	 -8.15650000	 -14.27387500	 -6.11737500
Au	 -6.11737500	 -14.27387500	 -8.15650000
Au	 -8.15650000	 -12.23475000	 -16.31300000
Au	 -8.15650000	 -10.19562500	 -14.27387500
Au	 -6.11737500	 -12.23475000	 -14.27387500
Au	 -6.11737500	 -10.19562500	 -16.31300000
Au	 -8.15650000	 -12.23475000	 -12.23475000
Au	 -8.15650000	 -10.19562500	 -10.19562500
Au	 -6.11737500	 -12.23475000	 -10.19562500
Au	 -6.11737500	 -10.19562500	 -12.23475000
Au	 -8.15650000	 -12.23475000	 -8.15650000
Au	 -8.15650000	 -10.19562500	 -6.11737500
Au	 -6.11737500	 -12.23475000	 -6.11737500
Au	 -6.11737500	 -10.19562500	 -8.15650000
Au	 -8.15650000	 -12.23475000	 -4.07825000
Au	 -8.15650000	 -10.19562500	 -2.03912500
Au	 -6.11737500	 -12.23475000	 -2.03912500
Au	 -6.11737500	 -10.19562500	 -4.07825000
Au	 -8.15650000	 -8.15650000	 -16.31300000
Au	 -8.15650000	 -6.11737500	 -14.27387500
Au	 -6.11737500	 -8.15650000	 -14.27387500
Au	 -8.15650000	 -8.15650000	 -12.23475000
Au	 -8.15650000	 -6.11737500	 -10.19562500
Au	 -6.11737500	 -8.15650000	 -10.19562500
Au	 -6.11737500	 -6.11737500	 -12.23475000
Au	 -8.15650000	 -8.15650000	 -8.15650000
Au	 -8.15650000	 -6.11737500	 -6.11737500
Au	 -6.11737500	 -8.15650000	 -6.11737500
Au	 -6.11737500	 -6.11737500	 -8.15650000
Au	 -8.15650000	 -8.15650000	 -4.07825000
Au	 -8.15650000	 -6.11737500	 -2.03912500
Au	 -6.11737500	 -8.15650000	 -2.03912500
Au	 -6.11737500	 -6.11737500	 -4.07825000
Au	 -8.15650000	 -4.07825000	 -12.23475000
Au	 -8.15650000	 -2.03912500	 -10.19562500
Au	 -6.11737500	 -4.07825000	 -10.19562500
Au	 -6.11737500	 -2.03912500	 -12.23475000
Au	 -8.15650000	 -4.07825000	 -8.15650000
Au	 -8.15650000	 -2.03912500	 -6.11737500
Au	 -6.11737500	 -4.07825000	 -6.11737500
Au	 -6.11737500	 -2.03912500	 -8.15650000
Au	 -8.15650000	 -4.07825000	 -4.07825000
Au	 -8.15650000	 -2.03912500	 -2.03912500
Au	 -6.11737500	 -4.07825000	 -2.03912500
Au	 -6.11737500	 -2.03912500	 -4.07825000
Au	 -4.07825000	 -14.27387500	 -10.19562500
Au	 -4.07825000	 -10.19562500	 -14.27387500
Au	 -4.07825000	 -12.23475000	 -12.23475000
Au	 -4.07825000	 -10.19562500	 -10.19562500
Au	 -4.07825000	 -12.23475000	 -8.15650000
Au	 -4.07825000	 -10.19562500	 -6.11737500
Au	 -2.03912500	 -12.23475000	 -6.11737500
Au	 -2.03912500	 -10.19562500	 -8.15650000
Au	 -4.07825000	 -12.23475000	 -4.07825000
Au	 -4.07825000	 -10.19562500	 -2.03912500
Au	 -2.03912500	 -10.19562500	 -4.07825000
Au	 -4.07825000	 -8.15650000	 -12.23475000
Au	 -4.07825000	 -6.11737500	 -10.19562500
Au	 -2.03912500	 -8.15650000	 -10.19562500
Au	 -2.03912500	 -6.11737500	 -12.23475000
Au	 -4.07825000	 -8.15650000	 -8.15650000
Au	 -4.07825000	 -6.11737500	 -6.11737500
Au	 -2.03912500	 -8.15650000	 -6.11737500
Au	 -2.03912500	 -6.11737500	 -8.15650000
Au	 -4.07825000	 -8.15650000	 -4.07825000
Au	 -4.07825000	 -6.11737500	 -2.03912500
Au	 -2.03912500	 -8.15650000	 -2.03912500
Au	 -2.03912500	 -6.11737500	 -4.07825000
Au	 -4.07825000	 -4.07825000	 -12.23475000
Au	 -4.07825000	 -2.03912500	 -10.19562500
Au	 -2.03912500	 -4.07825000	 -10.19562500
Au	 -4.07825000	 -4.07825000	 -8.15650000
Au	 -4.07825000	 -2.03912500	 -6.11737500
Au	 -2.03912500	 -4.07825000	 -6.11737500
Au	 -2.03912500	 -2.03912500	 -8.15650000
Au	 -4.07825000	 -4.07825000	 -4.07825000
Au	 -4.07825000	 -2.03912500	 -2.03912500
Au	 -2.03912500	 -4.07825000	 -2.03912500
Au	 -2.03912500	 -2.03912500	 -4.07825000
Au	 -10.19562500	 -6.11737500	 -0.00000000
Au	 -6.11737500	 -10.19562500	 -0.00000000
Au	 -8.15650000	 -8.15650000	 -0.00000000
Au	 -6.11737500	 -6.11737500	 -0.00000000
Au	 -8.15650000	 -4.07825000	 -0.00000000
Au	 -8.15650000	 -2.03912500	 2.03912500
Au	 -6.11737500	 -4.07825000	 2.03912500
Au	 -6.11737500	 -2.03912500	 -0.00000000
Au	 -6.11737500	 -2.03912500	 4.07825000
Au	 -4.07825000	 -8.15650000	 -0.00000000
Au	 -4.07825000	 -6.11737500	 2.03912500
Au	 -2.03912500	 -8.15650000	 2.03912500
Au	 -2.03912500	 -6.11737500	 -0.00000000
Au	 -2.03912500	 -6.11737500	 4.07825000
Au	 -4.07825000	 -4.07825000	 -0.00000000
Au	 -4.07825000	 -2.03912500	 2.03912500
Au	 -2.03912500	 -4.07825000	 2.03912500
Au	 -2.03912500	 -2.03912500	 -0.00000000
Au	 -4.07825000	 -4.07825000	 4.07825000
Au	 -2.03912500	 -2.03912500	 4.07825000
Au	 -10.19562500	 -0.00000000	 -6.11737500
Au	 -6.11737500	 -0.00000000	 -10.19562500
Au	 -8.15650000	 -0.00000000	 -8.15650000
Au	 -6.11737500	 -0.00000000	 -6.11737500
Au	 -8.15650000	 -0.00000000	 -4.07825000
Au	 -8.15650000	 2.03912500	 -2.03912500
Au	 -6.11737500	 -0.00000000	 -2.03912500
Au	 -6.11737500	 2.03912500	 -4.07825000
Au	 -6.11737500	 4.07825000	 -2.03912500
Au	 -4.07825000	 -0.00000000	 -8.15650000
Au	 -4.07825000	 2.03912500	 -6.11737500
Au	 -2.03912500	 -0.00000000	 -6.11737500
Au	 -2.03912500	 2.03912500	 -8.15650000
Au	 -4.07825000	 -0.00000000	 -4.07825000
Au	 -4.07825000	 2.03912500	 -2.03912500
Au	 -2.03912500	 -0.00000000	 -2.03912500
Au	 -2.03912500	 2.03912500	 -4.07825000
Au	 -2.03912500	 4.07825000	 -6.11737500
Au	 -4.07825000	 4.07825000	 -4.07825000
Au	 -2.03912500	 4.07825000	 -2.03912500
Au	 -8.15650000	 -0.00000000	 -0.00000000
Au	 -6.11737500	 -0.00000000	 2.03912500
Au	 -6.11737500	 2.03912500	 -0.00000000
Au	 -4.07825000	 -0.00000000	 -0.00000000
Au	 -4.07825000	 2.03912500	 2.03912500
Au	 -2.03912500	 -0.00000000	 2.03912500
Au	 -2.03912500	 2.03912500	 -0.00000000
Au	 -4.07825000	 -0.00000000	 4.07825000
Au	 -4.07825000	 2.03912500	 6.11737500
Au	 -2.03912500	 -0.00000000	 6.11737500
Au	 -2.03912500	 2.03912500	 4.07825000
Au	 -2.03912500	 2.03912500	 8.15650000
Au	 -4.07825000	 4.07825000	 -0.00000000
Au	 -4.07825000	 6.11737500	 2.03912500
Au	 -2.03912500	 4.07825000	 2.03912500
Au	 -2.03912500	 6.11737500	 -0.00000000
Au	 -4.07825000	 4.07825000	 4.07825000
Au	 -2.03912500	 4.07825000	 6.11737500
Au	 -2.03912500	 6.11737500	 4.07825000
Au	 -2.03912500	 8.15650000	 2.03912500
Au	 -0.00000000	 -10.19562500	 -6.11737500
Au	 -0.00000000	 -6.11737500	 -10.19562500
Au	 -0.00000000	 -8.15650000	 -8.15650000
Au	 -0.00000000	 -6.11737500	 -6.11737500
Au	 -0.00000000	 -8.15650000	 -4.07825000
Au	 -0.00000000	 -6.11737500	 -2.03912500
Au	 2.03912500	 -8.15650000	 -2.03912500
Au	 2.03912500	 -6.11737500	 -4.07825000
Au	 -0.00000000	 -4.07825000	 -8.15650000
Au	 -0.00000000	 -2.03912500	 -6.11737500
Au	 2.03912500	 -4.07825000	 -6.11737500
Au	 2.03912500	 -2.03912500	 -8.15650000
Au	 -0.00000000	 -4.07825000	 -4.07825000
Au	 -0.00000000	 -2.03912500	 -2.03912500
Au	 2.03912500	 -4.07825000	 -2.03912500
Au	 2.03912500	 -2.03912500	 -4.07825000
Au	 4.07825000	 -6.11737500	 -2.03912500
Au	 4.07825000	 -2.03912500	 -6.11737500
Au	 4.07825000	 -4.07825000	 -4.07825000
Au	 4.07825000	 -2.03912500	 -2.03912500
Au	 -0.00000000	 -8.15650000	 -0.00000000
Au	 -0.00000000	 -6.11737500	 2.03912500
Au	 2.03912500	 -6.11737500	 -0.00000000
Au	 -0.00000000	 -4.07825000	 -0.00000000
Au	 -0.00000000	 -2.03912500	 2.03912500
Au	 2.03912500	 -4.07825000	 2.03912500
Au	 2.03912500	 -2.03912500	 -0.00000000
Au	 -0.00000000	 -4.07825000	 4.07825000
Au	 -0.00000000	 -2.03912500	 6.11737500
Au	 2.03912500	 -4.07825000	 6.11737500
Au	 2.03912500	 -2.03912500	 4.07825000
Au	 2.03912500	 -2.03912500	 8.15650000
Au	 4.07825000	 -4.07825000	 -0.00000000
Au	 4.07825000	 -2.03912500	 2.03912500
Au	 6.11737500	 -4.07825000	 2.03912500
Au	 6.11737500	 -2.03912500	 -0.00000000
Au	 4.07825000	 -4.07825000	 4.07825000
Au	 4.07825000	 -2.03912500	 6.11737500
Au	 6.11737500	 -2.03912500	 4.07825000
Au	 8.15650000	 -2.03912500	 2.03912500
Au	 -0.00000000	 -0.00000000	 -8.15650000
Au	 -0.00000000	 2.03912500	 -6.11737500
Au	 2.03912500	 -0.00000000	 -6.11737500
Au	 -0.00000000	 -0.00000000	 -4.07825000
Au	 -0.00000000	 2.03912500	 -2.03912500
Au	 2.03912500	 -0.00000000	 -2.03912500
Au	 2.03912500	 2.03912500	 -4.07825000
Au	 -0.00000000	 4.07825000	 -4.07825000
Au	 -0.00000000	 6.11737500	 -2.03912500
Au	 2.03912500	 4.07825000	 -2.03912500
Au	 2.03912500	 6.11737500	 -4.07825000
Au	 2.03912500	 8.15650000	 -2.03912500
Au	 4.07825000	 -0.00000000	 -4.07825000
Au	 4.07825000	 2.03912500	 -2.03912500
Au	 6.11737500	 -0.00000000	 -2.03912500
Au	 6.11737500	 2.03912500	 -4.07825000
Au	 4.07825000	 4.07825000	 -4.07825000
Au	 4.07825000	 6.11737500	 -2.03912500
Au	 6.11737500	 4.07825000	 -2.03912500
Au	 8.15650000	 2.03912500	 -2.03912500
Au	 -0.00000000	 -0.00000000	 -0.00000000
Au	 -0.00000000	 2.03912500	 2.03912500
Au	 2.03912500	 -0.00000000	 2.03912500
Au	 2.03912500	 2.03912500	 -0.00000000
Au	 -0.00000000	 -0.00000000	 4.07825000
Au	 -0.00000000	 2.03912500	 6.11737500
Au	 2.03912500	 -0.00000000	 6.11737500
Au	 2.03912500	 2.03912500	 4.07825000
Au	 -0.00000000	 -0.00000000	 8.15650000
Au	 2.03912500	 2.03912500	 8.15650000
Au	 -0.00000000	 4.07825000	 -0.00000000
Au	 -0.00000000	 6.11737500	 2.03912500
Au	 2.03912500	 4.07825000	 2.03912500
Au	 2.03912500	 6.11737500	 -0.00000000
Au	 -0.00000000	 4.07825000	 4.07825000
Au	 -0.00000000	 6.11737500	 6.11737500
Au	 2.03912500	 4.07825000	 6.11737500
Au	 2.03912500	 6.11737500	 4.07825000
Au	 -0.00000000	 4.07825000	 8.15650000
Au	 -0.00000000	 6.11737500	 10.19562500
Au	 2.03912500	 4.07825000	 10.19562500
Au	 2.03912500	 6.11737500	 8.15650000
Au	 2.03912500	 6.11737500	 12.23475000
Au	 -0.00000000	 8.15650000	 -0.00000000
Au	 2.03912500	 8.15650000	 2.03912500
Au	 -0.00000000	 8.15650000	 4.07825000
Au	 -0.00000000	 10.19562500	 6.11737500
Au	 2.03912500	 8.15650000	 6.11737500
Au	 2.03912500	 10.19562500	 4.07825000
Au	 -0.00000000	 8.15650000	 8.15650000
Au	 2.03912500	 8.15650000	 10.19562500
Au	 2.03912500	 10.19562500	 8.15650000
Au	 2.03912500	 12.23475000	 6.11737500
Au	 4.07825000	 -0.00000000	 -0.00000000
Au	 4.07825000	 2.03912500	 2.03912500
Au	 6.11737500	 -0.00000000	 2.03912500
Au	 6.11737500	 2.03912500	 -0.00000000
Au	 4.07825000	 -0.00000000	 4.07825000
Au	 4.07825000	 2.03912500	 6.11737500
Au	 6.11737500	 -0.00000000	 6.11737500
Au	 6.11737500	 2.03912500	 4.07825000
Au	 4.07825000	 -0.00000000	 8.15650000
Au	 4.07825000	 2.03912500	 10.19562500
Au	 6.11737500	 -0.00000000	 10.19562500
Au	 6.11737500	 2.03912500	 8.15650000
Au	 6.11737500	 2.03912500	 12.23475000
Au	 4.07825000	 4.07825000	 -0.00000000
Au	 4.07825000	 6.11737500	 2.03912500
Au	 6.11737500	 4.07825000	 2.03912500
Au	 6.11737500	 6.11737500	 -0.00000000
Au	 4.07825000	 4.07825000	 4.07825000
Au	 4.07825000	 6.11737500	 6.11737500
Au	 6.11737500	 4.07825000	 6.11737500
Au	 6.11737500	 6.11737500	 4.07825000
Au	 4.07825000	 4.07825000	 8.15650000
Au	 4.07825000	 6.11737500	 10.19562500
Au	 6.11737500	 4.07825000	 10.19562500
Au	 6.11737500	 6.11737500	 8.15650000
Au	 4.07825000	 4.07825000	 12.23475000
Au	 6.11737500	 6.11737500	 12.23475000
Au	 4.07825000	 8.15650000	 -0.00000000
Au	 4.07825000	 10.19562500	 2.03912500
Au	 6.11737500	 8.15650000	 2.03912500
Au	 6.11737500	 10.19562500	 -0.00000000
Au	 4.07825000	 8.15650000	 4.07825000
Au	 4.07825000	 10.19562500	 6.11737500
Au	 6.11737500	 8.15650000	 6.11737500
Au	 6.11737500	 10.19562500	 4.07825000
Au	 4.07825000	 8.15650000	 8.15650000
Au	 4.07825000	 10.19562500	 10.19562500
Au	 6.11737500	 8.15650000	 10.19562500
Au	 6.11737500	 10.19562500	 8.15650000
Au	 4.07825000	 8.15650000	 12.23475000
Au	 4.07825000	 10.19562500	 14.27387500
Au	 6.11737500	 8.15650000	 14.27387500
Au	 6.11737500	 10.19562500	 12.23475000
Au	 6.11737500	 10.19562500	 16.31300000
Au	 6.11737500	 12.23475000	 2.03912500
Au	 4.07825000	 12.23475000	 4.07825000
Au	 6.11737500	 12.23475000	 6.11737500
Au	 4.07825000	 12.23475000	 8.15650000
Au	 4.07825000	 14.27387500	 10.19562500
Au	 6.11737500	 12.23475000	 10.19562500
Au	 6.11737500	 14.27387500	 8.15650000
Au	 4.07825000	 12.23475000	 12.23475000
Au	 6.11737500	 12.23475000	 14.27387500
Au	 6.11737500	 14.27387500	 12.23475000
Au	 6.11737500	 16.31300000	 10.19562500
Au	 8.15650000	 -0.00000000	 -0.00000000
Au	 8.15650000	 2.03912500	 2.03912500
Au	 8.15650000	 -0.00000000	 4.07825000
Au	 8.15650000	 2.03912500	 6.11737500
Au	 10.19562500	 -0.00000000	 6.11737500
Au	 10.19562500	 2.03912500	 4.07825000
Au	 8.15650000	 -0.00000000	 8.15650000
Au	 8.15650000	 2.03912500	 10.19562500
Au	 10.19562500	 2.03912500	 8.15650000
Au	 8.15650000	 4.07825000	 -0.00000000
Au	 8.15650000	 6.11737500	 2.03912500
Au	 10.19562500	 4.07825000	 2.03912500
Au	 10.19562500	 6.11737500	 -0.00000000
Au	 8.15650000	 4.07825000	 4.07825000
Au	 8.15650000	 6.11737500	 6.11737500
Au	 10.19562500	 4.07825000	 6.11737500
Au	 10.19562500	 6.11737500	 4.07825000
Au	 8.15650000	 4.07825000	 8.15650000
Au	 8.15650000	 6.11737500	 10.19562500
Au	 10.19562500	 4.07825000	 10.19562500
Au	 10.19562500	 6.11737500	 8.15650000
Au	 8.15650000	 4.07825000	 12.23475000
Au	 8.15650000	 6.11737500	 14.27387500
Au	 10.19562500	 4.07825000	 14.27387500
Au	 10.19562500	 6.11737500	 12.23475000
Au	 10.19562500	 6.11737500	 16.31300000
Au	 8.15650000	 8.15650000	 -0.00000000
Au	 8.15650000	 10.19562500	 2.03912500
Au	 10.19562500	 8.15650000	 2.03912500
Au	 8.15650000	 8.15650000	 4.07825000
Au	 8.15650000	 10.19562500	 6.11737500
Au	 10.19562500	 8.15650000	 6.11737500
Au	 10.19562500	 10.19562500	 4.07825000
Au	 8.15650000	 8.15650000	 8.15650000
Au	 8.15650000	 10.19562500	 10.19562500
Au	 10.19562500	 8.15650000	 10.19562500
Au	 10.19562500	 10.19562500	 8.15650000
Au	 8.15650000	 8.15650000	 12.23475000
Au	 8.15650000	 10.19562500	 14.27387500
Au	 10.19562500	 8.15650000	 14.27387500
Au	 10.19562500	 10.19562500	 12.23475000
Au	 8.15650000	 8.15650000	 16.31300000
Au	 10.19562500	 10.19562500	 16.31300000
Au	 8.15650000	 12.23475000	 4.07825000
Au	 8.15650000	 14.27387500	 6.11737500
Au	 10.19562500	 12.23475000	 6.11737500
Au	 10.19562500	 14.27387500	 4.07825000
Au	 8.15650000	 12.23475000	 8.15650000
Au	 8.15650000	 14.27387500	 10.19562500
Au	 10.19562500	 12.23475000	 10.19562500
Au	 10.19562500	 14.27387500	 8.15650000
Au	 8.15650000	 12.23475000	 12.23475000
Au	 8.15650000	 14.27387500	 14.27387500
Au	 10.19562500	 12.23475000	 14.27387500
Au	 10.19562500	 14.27387500	 12.23475000
Au	 8.15650000	 12.23475000	 16.31300000
Au	 8.15650000	 14.27387500	 18.35212500
Au	 10.19562500	 12.23475000	 18.35212500
Au	 10.19562500	 14.27387500	 16.31300000
Au	 10.19562500	 16.31300000	 6.11737500
Au	 8.15650000	 16.31300000	 8.15650000
Au	 10.19562500	 16.31300000	 10.19562500
Au	 8.15650000	 16.31300000	 12.23475000
Au	 8.15650000	 18.35212500	 14.27387500
Au	 10.19562500	 16.31300000	 14.27387500
Au	 10.19562500	 18.35212500	 12.23475000
Au	 8.15650000	 16.31300000	 16.31300000
Au	 10.19562500	 16.31300000	 18.35212500
Au	 10.19562500	 18.35212500	 16.31300000
Au	 12.23475000	 2.03912500	 6.11737500
Au	 12.23475000	 6.11737500	 2.03912500
Au	 12.23475000	 4.07825000	 4.07825000
Au	 12.23475000	 6.11737500	 6.11737500
Au	 12.23475000	 4.07825000	 8.15650000
Au	 12.23475000	 6.11737500	 10.19562500
Au	 14.27387500	 4.07825000	 10.19562500
Au	 14.27387500	 6.11737500	 8.15650000
Au	 12.23475000	 4.07825000	 12.23475000
Au	 12.23475000	 6.11737500	 14.27387500
Au	 14.27387500	 6.11737500	 12.23475000
Au	 12.23475000	 8.15650000	 4.07825000
Au	 12.23475000	 10.19562500	 6.11737500
Au	 14.27387500	 8.15650000	 6.11737500
Au	 14.27387500	 10.19562500	 4.07825000
Au	 12.23475000	 8.15650000	 8.15650000
Au	 12.23475000	 10.19562500	 10.19562500
Au	 14.27387500	 8.15650000	 10.19562500
Au	 14.27387500	 10.19562500	 8.15650000
Au	 12.23475000	 8.15650000	 12.23475000
Au	 12.23475000	 10.19562500	 14.27387500
Au	 14.27387500	 8.15650000	 14.27387500
Au	 14.27387500	 10.19562500	 12.23475000
Au	 12.23475000	 8.15650000	 16.31300000
Au	 12.23475000	 10.19562500	 18.35212500
Au	 14.27387500	 8.15650000	 18.35212500
Au	 14.27387500	 10.19562500	 16.31300000
Au	 12.23475000	 12.23475000	 4.07825000
Au	 12.23475000	 14.27387500	 6.11737500
Au	 14.27387500	 12.23475000	 6.11737500
Au	 12.23475000	 12.23475000	 8.15650000
Au	 12.23475000	 14.27387500	 10.19562500
Au	 14.27387500	 12.23475000	 10.19562500
Au	 14.27387500	 14.27387500	 8.15650000
Au	 12.23475000	 12.23475000	 12.23475000
Au	 12.23475000	 14.27387500	 14.27387500
Au	 14.27387500	 12.23475000	 14.27387500
Au	 14.27387500	 14.27387500	 12.23475000
Au	 12.23475000	 12.23475000	 16.31300000
Au	 12.23475000	 14.27387500	 18.35212500
Au	 14.27387500	 12.23475000	 18.35212500
Au	 14.27387500	 14.27387500	 16.31300000
Au	 12.23475000	 16.31300000	 8.15650000
Au	 12.23475000	 18.35212500	 10.19562500
Au	 14.27387500	 16.31300000	 10.19562500
Au	 14.27387500	 18.35212500	 8.15650000
Au	 12.23475000	 16.31300000	 12.23475000
Au	 12.23475000	 18.35212500	 14.27387500
Au	 14.27387500	 16.31300000	 14.27387500
Au	 14.27387500	 18.35212500	 12.23475000
Au	 12.23475000	 16.31300000	 16.31300000
Au	 12.23475000	 18.35212500	 18.35212500
Au	 14.27387500	 16.31300000	 18.35212500
Au	 14.27387500	 18.35212500	 16.31300000
Au	 16.31300000	 6.11737500	 10.19562500
Au	 16.31300000	 10.19562500	 6.11737500
Au	 16.31300000	 8.15650000	 8.15650000
Au	 16.31300000	 10.19562500	 10.19562500
Au	 16.31300000	 8.15650000	 12.23475000
Au	 16.31300000	 10.19562500	 14.27387500
Au	 18.35212500	 8.15650000	 14.27387500
Au	 18.35212500	 10.19562500	 12.23475000
Au	 16.31300000	 8.15650000	 16.31300000
Au	 16.31300000	 10.19562500	 18.35212500
Au	 18.35212500	 10.19562500	 16.31300000
Au	 16.31300000	 12.23475000	 8.15650000
Au	 16.31300000	 14.27387500	 10.19562500
Au	 18.35212500	 12.23475000	 10.19562500
Au	 18.35212500	 14.27387500	 8.15650000
Au	 16.31300000	 12.23475000	 12.23475000
Au	 16.31300000	 14.27387500	 14.27387500
Au	 18.35212500	 12.23475000	 14.27387500
Au	 18.35212500	 14.27387500	 12.23475000
Au	 16.31300000	 12.23475000	 16.31300000
Au	 16.31300000	 14.27387500	 18.35212500
Au	 18.35212500	 12.23475000	 18.35212500
Au	 18.35212500	 14.27387500	 16.31300000
Au	 16.31300000	 16.31300000	 8.15650000
Au	 16.31300000	 18.35212500	 10.19562500
Au	 18.35212500	 16.31300000	 10.19562500
Au	 16.31300000	 16.31300000	 12.23475000
Au	 16.31300000	 18.35212500	 14.27387500
Au	 18.35212500	 16.31300000	 14.27387500
Au	 18.35212500	 18.35212500	 12.23475000
Au	 16.31300000	 16.31300000	 16.31300000
Au	 16.31300000	 18.35212500	 18.35212500
Au	 18.35212500	 16.31300000	 18.35212500
Au	 18.35212500	 18.35212500	 16.31300000
Au	 10.19562500	 14.27387500	 20.39125000
Au	 14.27387500	 10.19562500	 20.39125000
Au	 12.23475000	 12.23475000	 20.39125000
Au	 14.27387500	 14.27387500	 20.39125000
Au	 12.23475000	 16.31300000	 20.39125000
Au	 12.23475000	 18.35212500	 22.43037500
Au	 14.27387500	 16.31300000	 22.43037500
Au	 14.27387500	 18.35212500	 20.39125000
Au	 14.27387500	 18.35212500	 24.46950000
Au	 16.31300000	 12.23475000	 20.39125000
Au	 16.31300000	 14.27387500	 22.43037500
Au	 18.35212500	 12.23475000	 22.43037500
Au	 18.35212500	 14.27387500	 20.39125000
Au	 18.35212500	 14.27387500	 24.46950000
Au	 16.31300000	 16.31300000	 20.39125000
Au	 16.31300000	 18.35212500	 22.43037500
Au	 18.35212500	 16.31300000	 22.43037500
Au	 18.35212500	 18.35212500	 20.39125000
Au	 16.31300000	 16.31300000	 24.46950000
Au	 18.35212500	 18.35212500	 24.46950000
Au	 10.19562500	 20.39125000	 14.27387500
Au	 14.27387500	 20.39125000	 10.19562500
Au	 12.23475000	 20.39125000	 12.23475000
Au	 14.27387500	 20.39125000	 14.27387500
Au	 12.23475000	 20.39125000	 16.31300000
Au	 12.23475000	 22.43037500	 18.35212500
Au	 14.27387500	 20.39125000	 18.35212500
Au	 14.27387500	 22.43037500	 16.31300000
Au	 14.27387500	 24.46950000	 18.35212500
Au	 16.31300000	 20.39125000	 12.23475000
Au	 16.31300000	 22.43037500	 14.27387500
Au	 18.35212500	 20.39125000	 14.27387500
Au	 18.35212500	 22.43037500	 12.23475000
Au	 16.31300000	 20.39125000	 16.31300000
Au	 16.31300000	 22.43037500	 18.35212500
Au	 18.35212500	 20.39125000	 18.35212500
Au	 18.35212500	 22.43037500	 16.31300000
Au	 18.35212500	 24.46950000	 14.27387500
Au	 16.31300000	 24.46950000	 16.31300000
Au	 18.35212500	 24.46950000	 18.35212500
Au	 12.23475000	 20.39125000	 20.39125000
Au	 14.27387500	 20.39125000	 22.43037500
Au	 14.27387500	 22.43037500	 20.39125000
Au	 16.31300000	 20.39125000	 20.39125000
Au	 16.31300000	 22.43037500	 22.43037500
Au	 18.35212500	 20.39125000	 22.43037500
Au	 18.35212500	 22.43037500	 20.39125000
Au	 16.31300000	 20.39125000	 24.46950000
Au	 16.31300000	 22.43037500	 26.50862500
Au	 18.35212500	 20.39125000	 26.50862500
Au	 18.35212500	 22.43037500	 24.46950000
Au	 18.35212500	 22.43037500	 28.54775000
Au	 16.31300000	 24.46950000	 20.39125000
Au	 16.31300000	 26.50862500	 22.43037500
Au	 18.35212500	 24.46950000	 22.43037500
Au	 18.35212500	 26.50862500	 20.39125000
Au	 16.31300000	 24.46950000	 24.46950000
Au	 18.35212500	 24.46950000	 26.50862500
Au	 18.35212500	 26.50862500	 24.46950000
Au	 18.35212500	 28.54775000	 22.43037500
Au	 20.39125000	 10.19562500	 14.27387500
Au	 20.39125000	 14.27387500	 10.19562500
Au	 20.39125000	 12.23475000	 12.23475000
Au	 20.39125000	 14.27387500	 14.27387500
Au	 20.39125000	 12.23475000	 16.31300000
Au	 20.39125000	 14.27387500	 18.35212500
Au	 22.43037500	 12.23475000	 18.35212500
Au	 22.43037500	 14.27387500	 16.31300000
Au	 20.39125000	 16.31300000	 12.23475000
Au	 20.39125000	 18.35212500	 14.27387500
Au	 22.43037500	 16.31300000	 14.27387500
Au	 22.43037500	 18.35212500	 12.23475000
Au	 20.39125000	 16.31300000	 16.31300000
Au	 20.39125000	 18.35212500	 18.35212500
Au	 22.43037500	 16.31300000	 18.35212500
Au	 22.43037500	 18.35212500	 16.31300000
Au	 24.46950000	 14.27387500	 18.35212500
Au	 24.46950000	 18.35212500	 14.27387500
Au	 24.46950000	 16.31300000	 16.31300000
Au	 24.46950000	 18.35212500	 18.35212500
Au	 20.39125000	 12.23475000	 20.39125000
Au	 20.39125000	 14.27387500	 22.43037500
Au	 22.43037500	 14.27387500	 20.39125000
Au	 20.39125000	 16.31300000	 20.39125000
Au	 20.39125000	 18.35212500	 22.43037500
Au	 22.43037500	 16.31300000	 22.43037500
Au	 22.43037500	 18.35212500	 20.39125000
Au	 20.39125000	 16.31300000	 24.46950000
Au	 20.39125000	 18.35212500	 26.50862500
Au	 22.43037500	 16.31300000	 26.50862500
Au	 22.43037500	 18.35212500	 24.46950000
Au	 22.43037500	 18.35212500	 28.54775000
Au	 24.46950000	 16.31300000	 20.39125000
Au	 24.46950000	 18.35212500	 22.43037500
Au	 26.50862500	 16.31300000	 22.43037500
Au	 26.50862500	 18.35212500	 20.39125000
Au	 24.46950000	 16.31300000	 24.46950000
Au	 24.46950000	 18.35212500	 26.50862500
Au	 26.50862500	 18.35212500	 24.46950000
Au	 28.54775000	 18.35212500	 22.43037500
Au	 20.39125000	 20.39125000	 12.23475000
Au	 20.39125000	 22.43037500	 14.27387500
Au	 22.43037500	 20.39125000	 14.27387500
Au	 20.39125000	 20.39125000	 16.31300000
Au	 20.39125000	 22.43037500	 18.35212500
Au	 22.43037500	 20.39125000	 18.35212500
Au	 22.43037500	 22.43037500	 16.31300000
Au	 20.39125000	 24.46950000	 16.31300000
Au	 20.39125000	 26.50862500	 18.35212500
Au	 22.43037500	 24.46950000	 18.35212500
Au	 22.43037500	 26.50862500	 16.31300000
Au	 22.43037500	 28.54775000	 18.35212500
Au	 24.46950000	 20.39125000	 16.31300000
Au	 24.46950000	 22.43037500	 18.35212500
Au	 26.50862500	 20.39125000	 18.35212500
Au	 26.50862500	 22.43037500	 16.31300000
Au	 24.46950000	 24.46950000	 16.31300000
Au	 24.46950000	 26.50862500	 18.35212500
Au	 26.50862500	 24.46950000	 18.35212500
Au	 28.54775000	 22.43037500	 18.35212500
Au	 20.39125000	 20.39125000	 20.39125000
Au	 20.39125000	 22.43037500	 22.43037500
Au	 22.43037500	 20.39125000	 22.43037500
Au	 22.43037500	 22.43037500	 20.39125000
Au	 20.39125000	 20.39125000	 24.46950000
Au	 20.39125000	 22.43037500	 26.50862500
Au	 22.43037500	 20.39125000	 26.50862500
Au	 22.43037500	 22.43037500	 24.46950000
Au	 20.39125000	 20.39125000	 28.54775000
Au	 22.43037500	 22.43037500	 28.54775000
Au	 20.39125000	 24.46950000	 20.39125000
Au	 20.39125000	 26.50862500	 22.43037500
Au	 22.43037500	 24.46950000	 22.43037500
Au	 22.43037500	 26.50862500	 20.39125000
Au	 20.39125000	 24.46950000	 24.46950000
Au	 20.39125000	 26.50862500	 26.50862500
Au	 22.43037500	 24.46950000	 26.50862500
Au	 22.43037500	 26.50862500	 24.46950000
Au	 20.39125000	 24.46950000	 28.54775000
Au	 20.39125000	 26.50862500	 30.58687500
Au	 22.43037500	 24.46950000	 30.58687500
Au	 22.43037500	 26.50862500	 28.54775000
Au	 22.43037500	 26.50862500	 32.62600000
Au	 20.39125000	 28.54775000	 20.39125000
Au	 22.43037500	 28.54775000	 22.43037500
Au	 20.39125000	 28.54775000	 24.46950000
Au	 20.39125000	 30.58687500	 26.50862500
Au	 22.43037500	 28.54775000	 26.50862500
Au	 22.43037500	 30.58687500	 24.46950000
Au	 20.39125000	 28.54775000	 28.54775000
Au	 22.43037500	 28.54775000	 30.58687500
Au	 22.43037500	 30.58687500	 28.54775000
Au	 22.43037500	 32.62600000	 26.50862500
Au	 24.46950000	 20.39125000	 20.39125000
Au	 24.46950000	 22.43037500	 22.43037500
Au	 26.50862500	 20.39125000	 22.43037500
Au	 26.50862500	 22.43037500	 20.39125000
Au	 24.46950000	 20.39125000	 24.46950000
Au	 24.46950000	 22.43037500	 26.50862500
Au	 26.50862500	 20.39125000	 26.50862500
Au	 26.50862500	 22.43037500	 24.46950000
Au	 24.46950000	 20.39125000	 28.54775000
Au	 24.46950000	 22.43037500	 30.58687500
Au	 26.50862500	 20.39125000	 30.58687500
Au	 26.50862500	 22.43037500	 28.54775000
Au	 26.50862500	 22.43037500	 32.62600000
Au	 24.46950000	 24.46950000	 20.39125000
Au	 24.46950000	 26.50862500	 22.43037500
Au	 26.50862500	 24.46950000	 22.43037500
Au	 26.50862500	 26.50862500	 20.39125000
Au	 24.46950000	 24.46950000	 24.46950000
Au	 24.46950000	 26.50862500	 26.50862500
Au	 26.50862500	 24.46950000	 26.50862500
Au	 26.50862500	 26.50862500	 24.46950000
Au	 24.46950000	 24.46950000	 28.54775000
Au	 24.46950000	 26.50862500	 30.58687500
Au	 26.50862500	 24.46950000	 30.58687500
Au	 26.50862500	 26.50862500	 28.54775000
Au	 24.46950000	 24.46950000	 32.62600000
Au	 26.50862500	 26.50862500	 32.62600000
Au	 24.46950000	 28.54775000	 20.39125000
Au	 24.46950000	 30.58687500	 22.43037500
Au	 26.50862500	 28.54775000	 22.43037500
Au	 26.50862500	 30.58687500	 20.39125000
Au	 24.46950000	 28.54775000	 24.46950000
Au	 24.46950000	 30.58687500	 26.50862500
Au	 26.50862500	 28.54775000	 26.50862500
Au	 26.50862500	 30.58687500	 24.46950000
Au	 24.46950000	 28.54775000	 28.54775000
Au	 24.46950000	 30.58687500	 30.58687500
Au	 26.50862500	 28.54775000	 30.58687500
Au	 26.50862500	 30.58687500	 28.54775000
Au	 24.46950000	 28.54775000	 32.62600000
Au	 24.46950000	 30.58687500	 34.66512500
Au	 26.50862500	 28.54775000	 34.66512500
Au	 26.50862500	 30.58687500	 32.62600000
Au	 26.50862500	 30.58687500	 36.70425000
Au	 26.50862500	 32.62600000	 22.43037500
Au	 24.46950000	 32.62600000	 24.46950000
Au	 26.50862500	 32.62600000	 26.50862500
Au	 24.46950000	 32.62600000	 28.54775000
Au	 24.46950000	 34.66512500	 30.58687500
Au	 26.50862500	 32.62600000	 30.58687500
Au	 26.50862500	 34.66512500	 28.54775000
Au	 24.46950000	 32.62600000	 32.62600000
Au	 26.50862500	 32.62600000	 34.66512500
Au	 26.50862500	 34.66512500	 32.62600000
Au	 26.50862500	 36.70425000	 30.58687500
Au	 28.54775000	 20.39125000	 20.39125000
Au	 28.54775000	 22.43037500	 22.43037500
Au	 28.54775000	 20.39125000	 24.46950000
Au	 28.54775000	 22.43037500	 26.50862500
Au	 30.58687500	 20.39125000	 26.50862500
Au	 30.58687500	 22.43037500	 24.46950000
Au	 28.54775000	 20.39125000	 28.54775000
Au	 28.54775000	 22.43037500	 30.58687500
Au	 30.58687500	 22.43037500	 28.54775000
Au	 28.54775000	 24.46950000	 20.39125000
Au	 28.54775000	 26.50862500	 22.43037500
Au	 30.58687500	 24.46950000	 22.43037500
Au	 30.58687500	 26.50862500	 20.39125000
Au	 28.54775000	 24.46950000	 24.46950000
Au	 28.54775000	 26.50862500	 26.50862500
Au	 30.58687500	 24.46950000	 26.50862500
Au	 30.58687500	 26.50862500	 24.46950000
Au	 28.54775000	 24.46950000	 28.54775000
Au	 28.54775000	 26.50862500	 30.58687500
Au	 30.58687500	 24.46950000	 30.58687500
Au	 30.58687500	 26.50862500	 28.54775000
Au	 28.54775000	 24.46950000	 32.62600000
Au	 28.54775000	 26.50862500	 34.66512500
Au	 30.58687500	 24.46950000	 34.66512500
Au	 30.58687500	 26.50862500	 32.62600000
Au	 30.58687500	 26.50862500	 36.70425000
Au	 28.54775000	 28.54775000	 20.39125000
Au	 28.54775000	 30.58687500	 22.43037500
Au	 30.58687500	 28.54775000	 22.43037500
Au	 28.54775000	 28.54775000	 24.46950000
Au	 28.54775000	 30.58687500	 26.50862500
Au	 30.58687500	 28.54775000	 26.50862500
Au	 30.58687500	 30.58687500	 24.46950000
Au	 28.54775000	 28.54775000	 28.54775000
Au	 28.54775000	 30.58687500	 30.58687500
Au	 30.58687500	 28.54775000	 30.58687500
Au	 30.58687500	 30.58687500	 28.54775000
Au	 28.54775000	 28.54775000	 32.62600000
Au	 28.54775000	 30.58687500	 34.66512500
Au	 30.58687500	 28.54775000	 34.66512500
Au	 30.58687500	 30.58687500	 32.62600000
Au	 28.54775000	 28.54775000	 36.70425000
Au	 30.58687500	 30.58687500	 36.70425000
Au	 28.54775000	 32.62600000	 24.46950000
Au	 28.54775000	 34.66512500	 26.50862500
Au	 30.58687500	 32.62600000	 26.50862500
Au	 30.58687500	 34.66512500	 24.46950000
Au	 28.54775000	 32.62600000	 28.54775000
Au	 28.54775000	 34.66512500	 30.58687500
Au	 30.58687500	 32.62600000	 30.58687500
Au	 30.58687500	 34.66512500	 28.54775000
Au	 28.54775000	 32.62600000	 32.62600000
Au	 28.54775000	 34.66512500	 34.66512500
Au	 30.58687500	 32.62600000	 34.66512500
Au	 30.58687500	 34.66512500	 32.62600000
Au	 28.54775000	 32.62600000	 36.70425000
Au	 28.54775000	 34.66512500	 38.74337500
Au	 30.58687500	 32.62600000	 38.74337500
Au	 30.58687500	 34.66512500	 36.70425000
Au	 30.58687500	 36.70425000	 26.50862500
Au	 28.54775000	 36.70425000	 28.54775000
Au	 30.58687500	 36.70425000	 30.58687500
Au	 28.54775000	 36.70425000	 32.62600000
Au	 28.54775000	 38.74337500	 34.66512500
Au	 30.58687500	 36.70425000	 34.66512500
Au	 30.58687500	 38.74337500	 32.62600000
Au	 28.54775000	 36.70425000	 36.70425000
Au	 30.58687500	 36.70425000	 38.74337500
Au	 30.58687500	 38.74337500	 36.70425000
Au	 32.62600000	 22.43037500	 26.50862500
Au	 32.62600000	 26.50862500	 22.43037500
Au	 32.62600000	 24.46950000	 24.46950000
Au	 32.62600000	 26.50862500	 26.50862500
Au	 32.62600000	 24.46950000	 28.54775000
Au	 32.62600000	 26.50862500	 30.58687500
Au	 34.66512500	 24.46950000	 30.58687500
Au	 34.66512500	 26.50862500	 28.54775000
Au	 32.62600000	 24.46950000	 32.62600000
Au	 32.62600000	 26.50862500	 34.66512500
Au	 34.66512500	 26.50862500	 32.62600000
Au	 32.62600000	 28.54775000	 24.46950000
Au	 32.62600000	 30.58687500	 26.50862500
Au	 34.66512500	 28.54775000	 26.50862500
Au	 34.66512500	 30.58687500	 24.46950000
Au	 32.62600000	 28.54775000	 28.54775000
Au	 32.62600000	 30.58687500	 30.58687500
Au	 34.66512500	 28.54775000	 30.58687500
Au	 34.66512500	 30.58687500	 28.54775000
Au	 32.62600000	 28.54775000	 32.62600000
Au	 32.62600000	 30.58687500	 34.66512500
Au	 34.66512500	 28.54775000	 34.66512500
Au	 34.66512500	 30.58687500	 32.62600000
Au	 32.62600000	 28.54775000	 36.70425000
Au	 32.62600000	 30.58687500	 38.74337500
Au	 34.66512500	 28.54775000	 38.74337500
Au	 34.66512500	 30.58687500	 36.70425000
Au	 32.62600000	 32.62600000	 24.46950000
Au	 32.62600000	 34.66512500	 26.50862500
Au	 34.66512500	 32.62600000	 26.50862500
Au	 32.62600000	 32.62600000	 28.54775000
Au	 32.62600000	 34.66512500	 30.58687500
Au	 34.66512500	 32.62600000	 30.58687500
Au	 34.66512500	 34.66512500	 28.54775000
Au	 32.62600000	 32.62600000	 32.62600000
Au	 32.62600000	 34.66512500	 34.66512500
Au	 34.66512500	 32.62600000	 34.66512500
Au	 34.66512500	 34.66512500	 32.62600000
Au	 32.62600000	 32.62600000	 36.70425000
Au	 32.62600000	 34.66512500	 38.74337500
Au	 34.66512500	 32.62600000	 38.74337500
Au	 34.66512500	 34.66512500	 36.70425000
Au	 32.62600000	 36.70425000	 28.54775000
Au	 32.62600000	 38.74337500	 30.58687500
Au	 34.66512500	 36.70425000	 30.58687500
Au	 34.66512500	 38.74337500	 28.54775000
Au	 32.62600000	 36.70425000	 32.62600000
Au	 32.62600000	 38.74337500	 34.66512500
Au	 34.66512500	 36.70425000	 34.66512500
Au	 34.66512500	 38.74337500	 32.62600000
Au	 32.62600000	 36.70425000	 36.70425000
Au	 32.62600000	 38.74337500	 38.74337500
Au	 34.66512500	 36.70425000	 38.74337500
Au	 34.66512500	 38.74337500	 36.70425000
Au	 36.70425000	 26.50862500	 30.58687500
Au	 36.70425000	 30.58687500	 26.50862500
Au	 36.70425000	 28.54775000	 28.54775000
Au	 36.70425000	 30.58687500	 30.58687500
Au	 36.70425000	 28.54775000	 32.62600000
Au	 36.70425000	 30.58687500	 34.66512500
Au	 38.74337500	 28.54775000	 34.66512500
Au	 38.74337500	 30.58687500	 32.62600000
Au	 36.70425000	 28.54775000	 36.70425000
Au	 36.70425000	 30.58687500	 38.74337500
Au	 38.74337500	 30.58687500	 36.70425000
Au	 36.70425000	 32.62600000	 28.54775000
Au	 36.70425000	 34.66512500	 30.58687500
Au	 38.74337500	 32.62600000	 30.58687500
Au	 38.74337500	 34.66512500	 28.54775000
Au	 36.70425000	 32.62600000	 32.62600000
Au	 36.70425000	 34.66512500	 34.66512500
Au	 38.74337500	 32.62600000	 34.66512500
Au	 38.74337500	 34.66512500	 32.62600000
Au	 36.70425000	 32.62600000	 36.70425000
Au	 36.70425000	 34.66512500	 38.74337500
Au	 38.74337500	 32.62600000	 38.74337500
Au	 38.74337500	 34.66512500	 36.70425000
Au	 36.70425000	 36.70425000	 28.54775000
Au	 36.70425000	 38.74337500	 30.58687500
Au	 38.74337500	 36.70425000	 30.58687500
Au	 36.70425000	 36.70425000	 32.62600000
Au	 36.70425000	 38.74337500	 34.66512500
Au	 38.74337500	 36.70425000	 34.66512500
Au	 38.74337500	 38.74337500	 32.62600000
Au	 36.70425000	 36.70425000	 36.70425000
Au	 36.70425000	 38.74337500	 38.74337500
Au	 38.74337500	 36.70425000	 38.74337500
Au	 38.74337500	 38.74337500	 36.70425000
Au	 30.58687500	 34.66512500	 40.78250000
Au	 34.66512500	 30.58687500	 40.78250000
Au	 32.62600000	 32.62600000	 40.78250000
Au	 34.66512500	 34.66512500	 40.78250000
Au	 32.62600000	 36.70425000	 40.78250000
Au	 32.62600000	 38.74337500	 42.82162500
Au	 34.66512500	 36.70425000	 42.82162500
Au	 34.66512500	 38.74337500	 40.78250000
Au	 34.66512500	 38.74337500	 44.86075000
Au	 36.70425000	 32.62600000	 40.78250000
Au	 36.70425000	 34.66512500	 42.82162500
Au	 38.74337500	 32.62600000	 42.82162500
Au	 38.74337500	 34.66512500	 40.78250000
Au	 38.74337500	 34.66512500	 44.86075000
Au	 36.70425000	 36.70425000	 40.78250000
Au	 36.70425000	 38.74337500	 42.82162500
Au	 38.74337500	 36.70425000	 42.82162500
Au	 38.74337500	 38.74337500	 40.78250000
Au	 36.70425000	 36.70425000	 44.86075000
Au	 38.74337500	 38.74337500	 44.86075000
Au	 30.58687500	 40.78250000	 34.66512500
Au	 34.66512500	 40.78250000	 30.58687500
Au	 32.62600000	 40.78250000	 32.62600000
Au	 34.66512500	 40.78250000	 34.66512500
Au	 32.62600000	 40.78250000	 36.70425000
Au	 32.62600000	 42.82162500	 38.74337500
Au	 34.66512500	 40.78250000	 38.74337500
Au	 34.66512500	 42.82162500	 36.70425000
Au	 34.66512500	 44.86075000	 38.74337500
Au	 36.70425000	 40.78250000	 32.62600000
Au	 36.70425000	 42.82162500	 34.66512500
Au	 38.74337500	 40.78250000	 34.66512500
Au	 38.74337500	 42.82162500	 32.62600000
Au	 36.70425000	 40.78250000	 36.70425000
Au	 36.70425000	 42.82162500	 38.74337500
Au	 38.74337500	 40.78250000	 38.74337500
Au	 38.74337500	 42.82162500	 36.70425000
Au	 38.74337500	 44.86075000	 34.66512500
Au	 36.70425000	 44.86075000	 36.70425000
Au	 38.74337500	 44.86075000	 38.74337500
Au	 32.62600000	 40.78250000	 40.78250000
Au	 34.66512500	 40.78250000	 42.82162500
Au	 34.66512500	 42.82162500	 40.78250000
Au	 36.70425000	 40.78250000	 40.78250000
Au	 36.70425000	 42.82162500	 42.82162500
Au	 38.74337500	 40.78250000	 42.82162500
Au	 38.74337500	 42.82162500	 40.78250000
Au	 36.70425000	 40.78250000	 44.86075000
Au	 36.70425000	 42.82162500	 46.89987500
Au	 38.74337500	 40.78250000	 46.89987500
Au	 38.74337500	 42.82162500	 44.86075000
Au	 36.70425000	 44.86075000	 40.78250000
Au	 36.70425000	 46.89987500	 42.82162500
Au	 38.74337500	 44.86075000	 42.82162500
Au	 38.74337500	 46.89987500	 40.78250000
Au	 36.70425000	 44.86075000	 44.86075000
Au	 40.78250000	 30.58687500	 34.66512500
Au	 40.78250000	 34.66512500	 30.58687500
Au	 40.78250000	 32.62600000	 32.62600000
Au	 40.78250000	 34.66512500	 34.66512500
Au	 40.78250000	 32.62600000	 36.70425000
Au	 40.78250000	 34.66512500	 38.74337500
Au	 42.82162500	 32.62600000	 38.74337500
Au	 42.82162500	 34.66512500	 36.70425000
Au	 40.78250000	 36.70425000	 32.62600000
Au	 40.78250000	 38.74337500	 34.66512500
Au	 42.82162500	 36.70425000	 34.66512500
Au	 42.82162500	 38.74337500	 32.62600000
Au	 40.78250000	 36.70425000	 36.70425000
Au	 40.78250000	 38.74337500	 38.74337500
Au	 42.82162500	 36.70425000	 38.74337500
Au	 42.82162500	 38.74337500	 36.70425000
Au	 44.86075000	 34.66512500	 38.74337500
Au	 44.86075000	 38.74337500	 34.66512500
Au	 44.86075000	 36.70425000	 36.70425000
Au	 44.86075000	 38.74337500	 38.74337500
Au	 40.78250000	 32.62600000	 40.78250000
Au	 40.78250000	 34.66512500	 42.82162500
Au	 42.82162500	 34.66512500	 40.78250000
Au	 40.78250000	 36.70425000	 40.78250000
Au	 40.78250000	 38.74337500	 42.82162500
Au	 42.82162500	 36.70425000	 42.82162500
Au	 42.82162500	 38.74337500	 40.78250000
Au	 40.78250000	 36.70425000	 44.86075000
Au	 40.78250000	 38.74337500	 46.89987500
Au	 42.82162500	 36.70425000	 46.89987500
Au	 42.82162500	 38.74337500	 44.86075000
Au	 44.86075000	 36.70425000	 40.78250000
Au	 44.86075000	 38.74337500	 42.82162500
Au	 46.89987500	 36.70425000	 42.82162500
Au	 46.89987500	 38.74337500	 40.78250000
Au	 44.86075000	 36.70425000	 44.86075000
Au	 40.78250000	 40.78250000	 32.62600000
Au	 40.78250000	 42.82162500	 34.66512500
Au	 42.82162500	 40.78250000	 34.66512500
Au	 40.78250000	 40.78250000	 36.70425000
Au	 40.78250000	 42.82162500	 38.74337500
Au	 42.82162500	 40.78250000	 38.74337500
Au	 42.82162500	 42.82162500	 36.70425000
Au	 40.78250000	 44.86075000	 36.70425000
Au	 40.78250000	 46.89987500	 38.74337500
Au	 42.82162500	 44.86075000	 38.74337500
Au	 42.82162500	 46.89987500	 36.70425000
Au	 44.86075000	 40.78250000	 36.70425000
Au	 44.86075000	 42.82162500	 38.74337500
Au	 46.89987500	 40.78250000	 38.74337500
Au	 46.89987500	 42.82162500	 36.70425000
Au	 44.86075000	 44.86075000	 36.70425000
Au	 40.78250000	 40.78250000	 40.78250000
Au	 40.78250000	 42.82162500	 42.82162500
Au	 42.82162500	 40.78250000	 42.82162500
Au	 42.82162500	 42.82162500	 40.78250000
Au	 40.78250000	 40.78250000	 44.86075000
Au	 40.78250000	 44.86075000	 40.78250000
Au	 44.86075000	 40.78250000	 40.78250000
