5798 
{'Au': 743, 'No': 5055}
Au	 10.65950418	 10.92368563	 -103.30054462
Au	 0.19588867	 -15.25909447	 -93.96969382
Au	 -12.28738345	 9.96009395	 -84.46966999
Au	 14.88866422	 2.41692938	 -75.16090526
Au	 9.70826640	 8.54343290	 -102.45228545
Au	 8.57342348	 10.83608639	 -101.58864692
Au	 11.04397327	 10.15034416	 -100.74239558
Au	 -0.93895425	 -12.96644098	 -93.10605529
Au	 1.53159554	 -13.65218321	 -92.25980395
No	 -9.81683367	 9.27435172	 -83.62341865
Au	 8.75702863	 6.16318016	 -101.60402629
Au	 6.48734279	 10.74848714	 -99.87674923
Au	 11.42844237	 9.37700268	 -98.18424655
Au	 -2.07379717	 -10.67378748	 -92.24241676
Au	 2.86730240	 -12.04527195	 -90.54991408
No	 -7.34628388	 8.58860948	 -82.77716731
Au	 7.80579086	 3.78292742	 -100.75576713
Au	 4.40126210	 10.66088790	 -98.16485154
Au	 11.81291146	 8.60366120	 -95.62609752
Au	 -3.20864009	 -8.38113399	 -91.37877823
Au	 4.20300927	 -10.43836069	 -88.84002421
No	 -4.87573409	 7.90286725	 -81.93091597
Au	 6.85455308	 1.40267469	 -99.90750796
Au	 2.31518140	 10.57328866	 -96.45295385
Au	 12.19738056	 7.83031972	 -93.06794849
Au	 -4.34348301	 -6.08848050	 -90.51513970
Au	 5.53871614	 -8.83144943	 -87.13013434
No	 -2.40518430	 7.21712502	 -81.08466463
Au	 5.90331531	 -0.97757805	 -99.05924880
Au	 0.22910071	 10.48568941	 -94.74105615
Au	 12.58184965	 7.05697825	 -90.50979945
Au	 -5.47832593	 -3.79582701	 -89.65150117
Au	 6.87442301	 -7.22453817	 -85.42024447
No	 0.06536549	 6.53138278	 -80.23841329
Au	 4.95207754	 -3.35783079	 -98.21098964
Au	 -1.85697999	 10.39809017	 -93.02915846
Au	 12.96631875	 6.28363677	 -87.95165042
Au	 -6.61316885	 -1.50317351	 -88.78786264
Au	 8.21012988	 -5.61762691	 -83.71035460
No	 2.53591528	 5.84564055	 -79.39216195
Au	 4.00083976	 -5.73808352	 -97.36273047
Au	 -3.94306068	 10.31049092	 -91.31726077
Au	 13.35078784	 5.51029529	 -85.39350139
Au	 -7.74801177	 0.78947998	 -87.92422411
Au	 9.54583675	 -4.01071565	 -82.00046473
No	 5.00646507	 5.15989832	 -78.54591061
Au	 3.04960199	 -8.11833626	 -96.51447131
Au	 -6.02914137	 10.22289168	 -89.60536307
Au	 13.73525694	 4.73695381	 -82.83535235
Au	 -8.88285469	 3.08213347	 -87.06058558
Au	 10.88154362	 -2.40380439	 -80.29057486
No	 7.47701486	 4.47415608	 -77.69965928
Au	 2.09836421	 -10.49858900	 -95.66621215
Au	 -8.11522207	 10.13529244	 -87.89346538
Au	 14.11972603	 3.96361234	 -80.27720332
Au	 -10.01769761	 5.37478696	 -86.19694705
Au	 12.21725049	 -0.79689314	 -78.58068499
No	 9.94756465	 3.78841385	 -76.85340794
Au	 1.14712644	 -12.87884173	 -94.81795298
Au	 -10.20130276	 10.04769319	 -86.18156769
Au	 14.50419513	 3.19027086	 -77.71905429
Au	 -11.15254053	 7.66744046	 -85.33330852
Au	 13.55295735	 0.81001812	 -76.87079513
No	 12.41811443	 3.10267162	 -76.00715660
Au	 -9.06645984	 7.75503970	 -87.04520622
Au	 -6.98037915	 7.84263894	 -88.75710391
Au	 -7.93161692	 5.46238621	 -87.90884475
Au	 -4.89429845	 7.93023819	 -90.46900160
Au	 -5.84553623	 5.54998545	 -89.62074244
Au	 -6.79677400	 3.16973272	 -88.77248328
Au	 -2.80821776	 8.01783743	 -92.18089930
Au	 -3.75945553	 5.63758470	 -91.33264013
Au	 -4.71069331	 3.25733196	 -90.48438097
Au	 -5.66193108	 0.87707922	 -89.63612181
Au	 -0.72213707	 8.10543668	 -93.89279699
Au	 -1.67337484	 5.72518394	 -93.04453783
Au	 -2.62461261	 3.34493120	 -92.19627866
Au	 -3.57585039	 0.96467847	 -91.34801950
Au	 -4.52708816	 -1.41557427	 -90.49976033
Au	 1.36394363	 8.19303592	 -95.60469468
Au	 0.41270585	 5.81278318	 -94.75643552
Au	 -0.53853192	 3.43253045	 -93.90817635
Au	 -1.48976969	 1.05227771	 -93.05991719
Au	 -2.44100747	 -1.32797503	 -92.21165803
Au	 -3.39224524	 -3.70822776	 -91.36339886
Au	 3.45002432	 8.28063516	 -97.31659237
Au	 2.49878655	 5.90038243	 -96.46833321
Au	 1.54754877	 3.52012969	 -95.62007405
Au	 0.59631100	 1.13987695	 -94.77181488
Au	 -0.35492677	 -1.24037578	 -93.92355572
Au	 -1.30616455	 -3.62062852	 -93.07529656
Au	 -2.25740232	 -6.00088125	 -92.22703739
Au	 5.53610502	 8.36823441	 -99.02849007
Au	 4.58486724	 5.98798167	 -98.18023090
Au	 3.63362947	 3.60772894	 -97.33197174
Au	 2.68239170	 1.22747620	 -96.48371258
Au	 1.73115392	 -1.15277654	 -95.63545341
Au	 0.77991615	 -3.53302927	 -94.78719425
Au	 -0.17132163	 -5.91328201	 -93.93893509
Au	 -1.12255940	 -8.29353475	 -93.09067592
Au	 7.62218571	 8.45583365	 -100.74038776
Au	 6.67094794	 6.07558092	 -99.89212860
Au	 5.71971016	 3.69532818	 -99.04386943
Au	 4.76847239	 1.31507544	 -98.19561027
Au	 3.81723462	 -1.06517729	 -97.34735111
Au	 2.86599684	 -3.44543003	 -96.49909194
Au	 1.91475907	 -5.82568277	 -95.65083278
Au	 0.96352129	 -8.20593550	 -94.80257362
Au	 0.01228352	 -10.58618824	 -93.95431445
Au	 2.48283331	 -11.27193047	 -93.10806311
Au	 3.43407108	 -8.89167774	 -93.95632228
Au	 3.81854018	 -9.66501921	 -91.39817324
Au	 4.38530886	 -6.51142500	 -94.80458144
Au	 4.76977795	 -7.28476648	 -92.24643241
Au	 5.15424705	 -8.05810795	 -89.68828337
Au	 5.33654663	 -4.13117226	 -95.65284060
Au	 5.72101573	 -4.90451374	 -93.09469157
Au	 6.10548482	 -5.67785522	 -90.53654254
Au	 6.48995392	 -6.45119670	 -87.97839351
Au	 6.28778440	 -1.75091953	 -96.50109977
Au	 6.67225350	 -2.52426100	 -93.94295073
Au	 7.05672259	 -3.29760248	 -91.38480170
Au	 7.44119169	 -4.07094396	 -88.82665267
Au	 7.82566078	 -4.84428544	 -86.26850364
Au	 7.23902218	 0.62933321	 -97.34935893
Au	 7.62349127	 -0.14400827	 -94.79120990
Au	 8.00796037	 -0.91734975	 -92.23306087
Au	 8.39242946	 -1.69069122	 -89.67491183
Au	 8.77689856	 -2.46403270	 -87.11676280
Au	 9.16136765	 -3.23737418	 -84.55861377
Au	 8.19025995	 3.00958595	 -98.19761809
Au	 8.57472905	 2.23624447	 -95.63946906
Au	 8.95919814	 1.46290299	 -93.08132003
Au	 9.34366724	 0.68956151	 -90.52317100
Au	 9.72813633	 -0.08377996	 -87.96502196
Au	 10.11260543	 -0.85712144	 -85.40687293
Au	 10.49707452	 -1.63046292	 -82.84872390
Au	 9.14149773	 5.38983868	 -99.04587726
Au	 9.52596682	 4.61649721	 -96.48772822
Au	 9.91043592	 3.84315573	 -93.92957919
Au	 10.29490501	 3.06981425	 -91.37143016
Au	 10.67937411	 2.29647277	 -88.81328113
Au	 11.06384320	 1.52313130	 -86.25513209
Au	 11.44831230	 0.74978982	 -83.69698306
Au	 11.83278139	 -0.02355166	 -81.13883403
Au	 10.09273550	 7.77009142	 -99.89413642
Au	 10.47720459	 6.99674994	 -97.33598739
Au	 10.86167369	 6.22340846	 -94.77783836
Au	 11.24614278	 5.45006699	 -92.21968932
Au	 11.63061188	 4.67672551	 -89.66154029
Au	 12.01508097	 3.90338403	 -87.10339126
Au	 12.39955007	 3.13004256	 -84.54524222
Au	 12.78401916	 2.35670108	 -81.98709319
Au	 13.16848826	 1.58335960	 -79.42894416
No	 12.03364534	 3.87601309	 -78.56530563
No	 11.64917624	 4.64935457	 -81.12345466
No	 9.56309555	 4.56175533	 -79.41155697
No	 11.26470715	 5.42269605	 -83.68160369
No	 9.17862646	 5.33509680	 -81.96970600
No	 7.09254576	 5.24749756	 -80.25780831
No	 10.88023805	 6.19603753	 -86.23975273
No	 8.79415736	 6.10843828	 -84.52785503
No	 6.70807667	 6.02083904	 -82.81595734
No	 4.62199597	 5.93323979	 -81.10405965
No	 10.49576896	 6.96937900	 -88.79790176
No	 8.40968827	 6.88177976	 -87.08600407
No	 6.32360757	 6.79418051	 -85.37410637
No	 4.23752688	 6.70658127	 -83.66220868
No	 2.15144618	 6.61898203	 -81.95031099
No	 10.11129986	 7.74272048	 -91.35605079
No	 8.02521917	 7.65512124	 -89.64415310
No	 5.93913848	 7.56752199	 -87.93225541
No	 3.85305778	 7.47992275	 -86.22035771
No	 1.76697709	 7.39232350	 -84.50846002
No	 -0.31910360	 7.30472426	 -82.79656233
No	 9.72683077	 8.51606196	 -93.91419983
No	 7.64075008	 8.42846271	 -92.20230213
No	 5.55466938	 8.34086347	 -90.49040444
No	 3.46858869	 8.25326422	 -88.77850675
No	 1.38250799	 8.16566498	 -87.06660905
No	 -0.70357270	 8.07806574	 -85.35471136
No	 -2.78965339	 7.99046649	 -83.64281367
No	 9.34236167	 9.28940343	 -96.47234886
No	 7.25628098	 9.20180419	 -94.76045117
No	 5.17020029	 9.11420495	 -93.04855347
No	 3.08411959	 9.02660570	 -91.33665578
No	 0.99803890	 8.93900646	 -89.62475809
No	 -1.08804180	 8.85140721	 -87.91286039
No	 -3.17412249	 8.76380797	 -86.20096270
No	 -5.26020318	 8.67620873	 -84.48906501
No	 8.95789258	 10.06274491	 -99.03049789
No	 6.87181188	 9.97514567	 -97.31860020
No	 4.78573119	 9.88754642	 -95.60670251
No	 2.69965050	 9.79994718	 -93.89480481
No	 0.61356980	 9.71234794	 -92.18290712
No	 -1.47251089	 9.62474869	 -90.47100943
No	 -3.55859158	 9.53714945	 -88.75911173
No	 -5.64467228	 9.44955020	 -87.04721404
No	 -7.73075297	 9.36195096	 -85.33531635
No	 -8.68199075	 6.98169822	 -84.48705718
No	 -7.54714783	 4.68904473	 -85.35069571
No	 -6.21144096	 6.29595599	 -83.64080584
No	 -6.41230491	 2.39639124	 -86.21433424
No	 -5.07659804	 4.00330250	 -84.50444437
No	 -3.74089117	 5.61021376	 -82.79455450
No	 -5.27746198	 0.10373775	 -87.07797277
No	 -3.94175512	 1.71064900	 -85.36808290
No	 -2.60604825	 3.31756026	 -83.65819303
No	 -1.27034138	 4.92447152	 -81.94830316
No	 -4.14261906	 -2.18891575	 -87.94161130
No	 -2.80691220	 -0.58200449	 -86.23172143
No	 -1.47120533	 1.02490677	 -84.52183156
No	 -0.13549846	 2.63181803	 -82.81194169
No	 1.20020841	 4.23872929	 -81.10205182
No	 -3.00777614	 -4.48156924	 -88.80524983
No	 -1.67206928	 -2.87465798	 -87.09535996
No	 -0.33636241	 -1.26774672	 -85.38547009
No	 0.99934446	 0.33916454	 -83.67558022
No	 2.33505133	 1.94607580	 -81.96569035
No	 3.67075820	 3.55298706	 -80.25580048
No	 -1.87293322	 -6.77422273	 -89.66888836
No	 -0.53722636	 -5.16731147	 -87.95899849
No	 0.79848051	 -3.56040021	 -86.24910862
No	 2.13418738	 -1.95348895	 -84.53921875
No	 3.46989425	 -0.34657770	 -82.82932888
No	 4.80560112	 1.26033356	 -81.11943901
No	 6.14130799	 2.86724482	 -79.40954914
No	 -0.73809030	 -9.06687622	 -90.53252689
No	 0.59761656	 -7.45996497	 -88.82263702
No	 1.93332343	 -5.85305371	 -87.11274715
No	 3.26903030	 -4.24614245	 -85.40285728
No	 4.60473717	 -2.63923119	 -83.69296741
No	 5.94044404	 -1.03231993	 -81.98307754
No	 7.27615091	 0.57459133	 -80.27318767
No	 8.61185778	 2.18150259	 -78.56329780
No	 0.39675262	 -11.35952972	 -91.39616542
No	 1.73245948	 -9.75261846	 -89.68627555
No	 3.06816635	 -8.14570720	 -87.97638568
No	 4.40387322	 -6.53879594	 -86.26649581
No	 5.73958009	 -4.93188468	 -84.55660594
No	 7.07528696	 -3.32497342	 -82.84671607
No	 8.41099383	 -1.71806216	 -81.13682620
No	 9.74670070	 -0.11115090	 -79.42693633
No	 11.08240757	 1.49576036	 -77.71704646
No	 8.00665480	 7.68249217	 -98.18223873
No	 5.92057411	 7.59489293	 -96.47034103
No	 7.05541703	 5.30223944	 -97.33397956
No	 8.39112390	 6.90915070	 -95.62408970
No	 3.83449342	 7.50729369	 -94.75844334
No	 4.96933634	 5.21464019	 -95.62208187
No	 6.30504321	 6.82155145	 -93.91219200
No	 6.10417926	 2.92198670	 -96.48572040
No	 7.43988613	 4.52889796	 -94.77583053
No	 8.77559300	 6.13580922	 -93.06594066
No	 1.74841272	 7.41969444	 -93.04654565
No	 2.88325564	 5.12704095	 -93.91018418
No	 4.21896251	 6.73395221	 -92.20029431
No	 4.01809856	 2.83438746	 -94.77382271
No	 5.35380543	 4.44129872	 -93.06393284
No	 6.68951230	 6.04820998	 -91.35404297
No	 5.15294148	 0.54173397	 -95.63746124
No	 6.48864835	 2.14864522	 -93.92757137
No	 7.82435522	 3.75555648	 -92.21768150
No	 9.16006209	 5.36246774	 -90.50779163
No	 -0.33766797	 7.33209520	 -91.33464796
No	 0.79717495	 5.03944171	 -92.19828649
No	 2.13288182	 6.64635297	 -90.48839662
No	 1.93201787	 2.74678821	 -93.06192502
No	 3.26772474	 4.35369947	 -91.35203515
No	 4.60343161	 5.96061073	 -89.64214528
No	 3.06686079	 0.45413472	 -93.92556354
No	 4.40256766	 2.06104598	 -92.21567368
No	 5.73827453	 3.66795724	 -90.50578381
No	 7.07398140	 5.27486850	 -88.79589394
No	 4.20170371	 -1.83851877	 -94.78920207
No	 5.53741058	 -0.23160751	 -93.07931220
No	 6.87311745	 1.37530375	 -91.36942234
No	 8.20882432	 2.98221501	 -89.65953247
No	 9.54453119	 4.58912627	 -87.94964260
No	 -2.42374866	 7.24449596	 -89.62275026
No	 -1.28890574	 4.95184246	 -90.48638879
No	 0.04680112	 6.55875372	 -88.77649892
No	 -0.15406282	 2.65918897	 -91.35002732
No	 1.18164405	 4.26610023	 -89.64013745
No	 2.51735091	 5.87301149	 -87.93024758
No	 0.98078010	 0.36653548	 -92.21366585
No	 2.31648697	 1.97344674	 -90.50377598
No	 3.65219383	 3.58035800	 -88.79388611
No	 4.98790070	 5.18726926	 -87.08399624
No	 2.11562302	 -1.92611802	 -93.07730438
No	 3.45132989	 -0.31920676	 -91.36741451
No	 4.78703675	 1.28770450	 -89.65752464
No	 6.12274362	 2.89461576	 -87.94763477
No	 7.45845049	 4.50152702	 -86.23774490
No	 3.25046594	 -4.21877151	 -93.94094291
No	 4.58617281	 -2.61186025	 -92.23105304
No	 5.92187967	 -1.00494899	 -90.52116317
No	 7.25758654	 0.60196227	 -88.81127330
No	 8.59329341	 2.20887353	 -87.10138343
No	 9.92900028	 3.81578479	 -85.39149356
No	 -4.50982936	 7.15689671	 -87.91085257
No	 -3.37498644	 4.86424322	 -88.77449110
No	 -2.03927957	 6.47115448	 -87.06460123
No	 -2.24014352	 2.57158973	 -89.63812963
No	 -0.90443665	 4.17850099	 -87.92823976
No	 0.43127022	 5.78541224	 -86.21834989
No	 -1.10530060	 0.27893623	 -90.50176816
No	 0.23040627	 1.88584749	 -88.79187829
No	 1.56611314	 3.49275875	 -87.08198842
No	 2.90182001	 5.09967001	 -85.37209855
No	 0.02954232	 -2.01371726	 -91.36540669
No	 1.36524919	 -0.40680600	 -89.65551682
No	 2.70095606	 1.20010526	 -87.94562695
No	 4.03666293	 2.80701652	 -86.23573708
No	 5.37236980	 4.41392778	 -84.52584721
No	 1.16438524	 -4.30637075	 -92.22904522
No	 2.50009211	 -2.69945949	 -90.51915535
No	 3.83579898	 -1.09254823	 -88.80926548
No	 5.17150585	 0.51436303	 -87.09937561
No	 6.50721272	 2.12127429	 -85.38948574
No	 7.84291959	 3.72818554	 -83.67959587
No	 2.29922816	 -6.59902424	 -93.09268375
No	 3.63493503	 -4.99211298	 -91.38279388
No	 4.97064190	 -3.38520173	 -89.67290401
No	 6.30634877	 -1.77829047	 -87.96301414
No	 7.64205564	 -0.17137921	 -86.25312427
No	 8.97776251	 1.43553205	 -84.54323440
No	 10.31346938	 3.04244331	 -82.83334453
No	 -6.59591005	 7.06929747	 -86.19895488
No	 -5.46106713	 4.77664397	 -87.06259341
No	 -4.12536026	 6.38355523	 -85.35270354
No	 -4.32622421	 2.48399048	 -87.92623194
No	 -2.99051734	 4.09090174	 -86.21634207
No	 -1.65481047	 5.69781300	 -84.50645220
No	 -3.19138129	 0.19133699	 -88.78987047
No	 -1.85567442	 1.79824825	 -87.07998060
No	 -0.51996755	 3.40515951	 -85.37009073
No	 0.81573932	 5.01207077	 -83.66020086
No	 -2.05653837	 -2.10131650	 -89.65350900
No	 -0.72083150	 -0.49440524	 -87.94361913
No	 0.61487537	 1.11250602	 -86.23372926
No	 1.95058224	 2.71941727	 -84.52383939
No	 3.28628910	 4.32632853	 -82.81394952
No	 -0.92169545	 -4.39397000	 -90.51714752
No	 0.41401142	 -2.78705874	 -88.80725766
No	 1.74971829	 -1.18014748	 -87.09736779
No	 3.08542516	 0.42676378	 -85.38747792
No	 4.42113202	 2.03367504	 -83.67758805
No	 5.75683889	 3.64058630	 -81.96769818
No	 0.21314747	 -6.68662349	 -91.38078605
No	 1.54885434	 -5.07971223	 -89.67089618
No	 2.88456121	 -3.47280097	 -87.96100632
No	 4.22026808	 -1.86588971	 -86.25111645
No	 5.55597494	 -0.25897845	 -84.54122658
No	 6.89168181	 1.34793281	 -82.83133671
No	 8.22738868	 2.95484407	 -81.12144684
No	 1.34799039	 -8.97927698	 -92.24442458
No	 2.68369726	 -7.37236572	 -90.53453471
No	 4.01940413	 -5.76545446	 -88.82464485
No	 5.35511100	 -4.15854320	 -87.11475498
No	 6.69081786	 -2.55163194	 -85.40486511
No	 8.02652473	 -0.94472068	 -83.69497524
No	 9.36223160	 0.66219057	 -81.98508537
No	 10.69793847	 2.26910183	 -80.27519550
Au	 -8.79472455	 -12.84506639	 -65.76630143
Au	 -7.97739608	 -13.06452349	 -68.33024619
Au	 -9.11223900	 -10.77187000	 -67.46660766
No	 -6.64168921	 -11.45761223	 -66.62035632
Au	 -7.16006760	 -13.28398059	 -70.89419095
Au	 -9.42975344	 -8.69867360	 -69.16691390
No	 -4.48865387	 -10.07015807	 -67.47441122
Au	 -6.34273913	 -13.50343768	 -73.45813572
Au	 -9.74726789	 -6.62547721	 -70.86722013
No	 -2.33561852	 -8.68270391	 -68.32846611
Au	 -5.52541065	 -13.72289478	 -76.02208048
Au	 -10.06478234	 -4.55228081	 -72.56752636
No	 -0.18258318	 -7.29524975	 -69.18252100
Au	 -4.70808218	 -13.94235188	 -78.58602524
Au	 -10.38229678	 -2.47908442	 -74.26783259
No	 1.97045216	 -5.90779558	 -70.03657590
Au	 -3.89075371	 -14.16180898	 -81.14997001
Au	 -10.69981123	 -0.40588802	 -75.96813883
No	 4.12348751	 -4.52034142	 -70.89063079
Au	 -3.07342523	 -14.38126608	 -83.71391477
Au	 -11.01732567	 1.66730837	 -77.66844506
No	 6.27652285	 -3.13288726	 -71.74468568
Au	 -2.25609676	 -14.60072317	 -86.27785953
Au	 -11.33484012	 3.74050477	 -79.36875129
No	 8.42955819	 -1.74543310	 -72.59874058
Au	 -1.43876828	 -14.82018027	 -88.84180429
Au	 -11.65235456	 5.81370116	 -81.06905753
No	 10.58259354	 -0.35797894	 -73.45279547
Au	 -0.62143981	 -15.03963737	 -91.40574906
Au	 -11.96986901	 7.88689755	 -82.76936376
No	 12.73562888	 1.02947522	 -74.30685036
Au	 -10.83502609	 5.59424406	 -83.63300229
Au	 -10.51751164	 3.52104767	 -81.93269606
Au	 -9.70018317	 3.30159057	 -84.49664082
Au	 -10.19999720	 1.44785127	 -80.23238982
Au	 -9.38266872	 1.22839417	 -82.79633459
Au	 -8.56534025	 1.00893708	 -85.36027935
Au	 -9.88248275	 -0.62534512	 -78.53208359
Au	 -9.06515428	 -0.84480222	 -81.09602835
Au	 -8.24782580	 -1.06425932	 -83.65997312
Au	 -7.43049733	 -1.28371642	 -86.22391788
Au	 -9.56496831	 -2.69854152	 -76.83177736
Au	 -8.74763983	 -2.91799861	 -79.39572212
Au	 -7.93031136	 -3.13745571	 -81.95966688
Au	 -7.11298288	 -3.35691281	 -84.52361165
Au	 -6.29565441	 -3.57636991	 -87.08755641
Au	 -9.24745386	 -4.77173791	 -75.13147112
Au	 -8.43012539	 -4.99119501	 -77.69541589
Au	 -7.61279691	 -5.21065211	 -80.25936065
Au	 -6.79546844	 -5.43010920	 -82.82330541
Au	 -5.97813996	 -5.64956630	 -85.38725018
Au	 -5.16081149	 -5.86902340	 -87.95119494
Au	 -8.92993942	 -6.84493431	 -73.43116489
Au	 -8.11261094	 -7.06439140	 -75.99510965
Au	 -7.29528247	 -7.28384850	 -78.55905442
Au	 -6.47795399	 -7.50330560	 -81.12299918
Au	 -5.66062552	 -7.72276270	 -83.68694394
Au	 -4.84329704	 -7.94221980	 -86.25088871
Au	 -4.02596857	 -8.16167689	 -88.81483347
Au	 -8.61242497	 -8.91813070	 -71.73085866
Au	 -7.79509650	 -9.13758780	 -74.29480342
Au	 -6.97776802	 -9.35704490	 -76.85874818
Au	 -6.16043955	 -9.57650199	 -79.42269295
Au	 -5.34311107	 -9.79595909	 -81.98663771
Au	 -4.52578260	 -10.01541619	 -84.55058247
Au	 -3.70845412	 -10.23487329	 -87.11452723
Au	 -2.89112565	 -10.45433039	 -89.67847200
Au	 -8.29491052	 -10.99132709	 -70.03055242
Au	 -7.47758205	 -11.21078419	 -72.59449719
Au	 -6.66025357	 -11.43024129	 -75.15844195
Au	 -5.84292510	 -11.64969839	 -77.72238671
Au	 -5.02559663	 -11.86915549	 -80.28633148
Au	 -4.20826815	 -12.08861258	 -82.85027624
Au	 -3.39093968	 -12.30806968	 -85.41422100
Au	 -2.57361120	 -12.52752678	 -87.97816576
Au	 -1.75628273	 -12.74698388	 -90.54211053
No	 0.71426706	 -13.43272611	 -89.69585919
No	 -0.10306141	 -13.21326901	 -87.13191442
No	 2.04997393	 -11.82581485	 -87.98596932
No	 -0.92038989	 -12.99381192	 -84.56796966
No	 1.23264546	 -11.60635775	 -85.42202456
No	 3.38568080	 -10.21890359	 -86.27607945
No	 -1.73771836	 -12.77435482	 -82.00402490
No	 0.41531698	 -11.38690066	 -82.85807979
No	 2.56835232	 -9.99944650	 -83.71213469
No	 4.72138767	 -8.61199233	 -84.56618958
No	 -2.55504684	 -12.55489772	 -79.44008014
No	 -0.40201149	 -11.16744356	 -80.29413503
No	 1.75102385	 -9.77998940	 -81.14818992
No	 3.90405919	 -8.39253524	 -82.00224482
No	 6.05709454	 -7.00508107	 -82.85629971
No	 -3.37237531	 -12.33544062	 -76.87613537
No	 -1.21933997	 -10.94798646	 -77.73019027
No	 0.93369538	 -9.56053230	 -78.58424516
No	 3.08673072	 -8.17307814	 -79.43830005
No	 5.23976606	 -6.78562398	 -80.29235495
No	 7.39280141	 -5.39816982	 -81.14640984
No	 -4.18970379	 -12.11598352	 -74.31219061
No	 -2.03666844	 -10.72852936	 -75.16624550
No	 0.11636690	 -9.34107520	 -76.02030040
No	 2.26940224	 -7.95362104	 -76.87435529
No	 4.42243759	 -6.56616688	 -77.72841018
No	 6.57547293	 -5.17871272	 -78.58246508
No	 8.72850827	 -3.79125856	 -79.43651997
No	 -5.00703226	 -11.89652643	 -71.74824585
No	 -2.85399692	 -10.50907226	 -72.60230074
No	 -0.70096157	 -9.12161810	 -73.45635563
No	 1.45207377	 -7.73416394	 -74.31041053
No	 3.60510911	 -6.34670978	 -75.16446542
No	 5.75814446	 -4.95925562	 -76.01852031
No	 7.91117980	 -3.57180146	 -76.87257521
No	 10.06421514	 -2.18434730	 -77.72663010
No	 -5.82436074	 -11.67706933	 -69.18430108
No	 -3.67132539	 -10.28961517	 -70.03835598
No	 -1.51829005	 -8.90216101	 -70.89241087
No	 0.63474529	 -7.51470684	 -71.74646576
No	 2.78778064	 -6.12725268	 -72.60052066
No	 4.94081598	 -4.73979852	 -73.45457555
No	 7.09385132	 -3.35234436	 -74.30863045
No	 9.24688667	 -1.96489020	 -75.16268534
No	 11.39992201	 -0.57743604	 -76.01674023
No	 10.26507909	 1.71521745	 -75.15310170
No	 8.11204375	 0.32776329	 -74.29904681
No	 7.79452930	 2.40095969	 -75.99935304
No	 5.95900840	 -1.05969087	 -73.44499192
No	 5.64149396	 1.01350553	 -75.14529815
No	 5.32397951	 3.08670192	 -76.84560438
No	 3.80597306	 -2.44714503	 -72.59093702
No	 3.48845862	 -0.37394863	 -74.29124326
No	 3.17094417	 1.69924776	 -75.99154949
No	 2.85342972	 3.77244415	 -77.69185572
No	 1.65293772	 -3.83459919	 -71.73688213
No	 1.33542327	 -1.76140280	 -73.43718836
No	 1.01790883	 0.31179360	 -75.13749460
No	 0.70039438	 2.38498999	 -76.83780083
No	 0.38287994	 4.45818639	 -78.53810706
No	 -0.50009763	 -5.22205335	 -70.88282724
No	 -0.81761207	 -3.14885696	 -72.58313347
No	 -1.13512652	 -1.07566056	 -74.28343970
No	 -1.45264096	 0.99753583	 -75.98374593
No	 -1.77015541	 3.07073223	 -77.68405217
No	 -2.08766985	 5.14392862	 -79.38435840
No	 -2.65313297	 -6.60950751	 -70.02877234
No	 -2.97064741	 -4.53631112	 -71.72907858
No	 -3.28816186	 -2.46311472	 -73.42938481
No	 -3.60567631	 -0.38991833	 -75.12969104
No	 -3.92319075	 1.68327807	 -76.82999727
No	 -4.24070520	 3.75647446	 -78.53030351
No	 -4.55821964	 5.82967085	 -80.23060974
No	 -4.80616831	 -7.99696167	 -69.17471745
No	 -5.12368276	 -5.92376528	 -70.87502368
No	 -5.44119720	 -3.85056888	 -72.57532991
No	 -5.75871165	 -1.77737249	 -74.27563615
No	 -6.07622609	 0.29582390	 -75.97594238
No	 -6.39374054	 2.36902030	 -77.67624861
No	 -6.71125499	 4.44221669	 -79.37655485
No	 -7.02876943	 6.51541309	 -81.07686108
No	 -6.95920366	 -9.38441584	 -68.32066256
No	 -7.27671810	 -7.31121944	 -70.02096879
No	 -7.59423255	 -5.23802305	 -71.72127502
No	 -7.91174699	 -3.16482665	 -73.42158125
No	 -8.22926144	 -1.09163026	 -75.12188749
No	 -8.54677588	 0.98156614	 -76.82219372
No	 -8.86429033	 3.05476253	 -78.52249995
No	 -9.18180477	 5.12795893	 -80.22280619
No	 -9.49931922	 7.20115532	 -81.92311242
No	 -6.14187518	 -9.60387293	 -70.88460732
No	 -6.45938963	 -7.53067654	 -72.58491355
No	 -5.32454671	 -9.82333003	 -73.44855208
No	 -3.98883984	 -8.21641877	 -71.73866221
No	 -6.77690407	 -5.45748014	 -74.28521978
No	 -5.64206115	 -7.75013364	 -75.14885831
No	 -4.30635428	 -6.14322238	 -73.43896844
No	 -4.50721823	 -10.04278713	 -76.01249684
No	 -3.17151136	 -8.43587587	 -74.30260697
No	 -1.83580449	 -6.82896461	 -72.59271710
No	 -7.09441852	 -3.38428375	 -75.98552602
No	 -5.95957560	 -5.67693724	 -76.84916455
No	 -4.62386873	 -4.07002598	 -75.13927468
No	 -4.82473268	 -7.96959073	 -77.71280308
No	 -3.48902581	 -6.36267948	 -76.00291321
No	 -2.15331894	 -4.75576822	 -74.29302334
No	 -3.68988976	 -10.26224423	 -78.57644161
No	 -2.35418289	 -8.65533297	 -76.86655174
No	 -1.01847602	 -7.04842171	 -75.15666187
No	 0.31723085	 -5.44151045	 -73.44677200
No	 -7.41193296	 -1.31108736	 -77.68583225
No	 -6.27709004	 -3.60374085	 -78.54947078
No	 -4.94138317	 -1.99682959	 -76.83958091
No	 -5.14224712	 -5.89639434	 -79.41310931
No	 -3.80654025	 -4.28948308	 -77.70321944
No	 -2.47083339	 -2.68257182	 -75.99332957
No	 -4.00740420	 -8.18904783	 -80.27674784
No	 -2.67169733	 -6.58213657	 -78.56685797
No	 -1.33599047	 -4.97522531	 -76.85696810
No	 -0.00028360	 -3.36831405	 -75.14707823
No	 -2.87256128	 -10.48170133	 -81.14038637
No	 -1.53685441	 -8.87479007	 -79.43049650
No	 -0.20114754	 -7.26787881	 -77.72060663
No	 1.13455932	 -5.66096755	 -76.01071676
No	 2.47026619	 -4.05405629	 -74.30082689
No	 -7.72944741	 0.76210904	 -79.38613848
No	 -6.59460449	 -1.53054445	 -80.24977701
No	 -5.25889762	 0.07636681	 -78.53988714
No	 -5.45976157	 -3.82319795	 -81.11341554
No	 -4.12405470	 -2.21628669	 -79.40352567
No	 -2.78834783	 -0.60937543	 -77.69363580
No	 -4.32491865	 -6.11585144	 -81.97705407
No	 -2.98921178	 -4.50894018	 -80.26716420
No	 -1.65350491	 -2.90202892	 -78.55727433
No	 -0.31779804	 -1.29511766	 -76.84738446
No	 -3.19007573	 -8.40850493	 -82.84069260
No	 -1.85436886	 -6.80159367	 -81.13080273
No	 -0.51866199	 -5.19468241	 -79.42091286
No	 0.81704488	 -3.58777115	 -77.71102299
No	 2.15275175	 -1.98085989	 -76.00113312
No	 -2.05523281	 -10.70115842	 -83.70433113
No	 -0.71952594	 -9.09424716	 -81.99444126
No	 0.61618093	 -7.48733590	 -80.28455139
No	 1.95188780	 -5.88042465	 -78.57466152
No	 3.28759467	 -4.27351339	 -76.86477165
No	 4.62330154	 -2.66660213	 -75.15488178
No	 -8.04696185	 2.83530543	 -81.08644472
No	 -6.91211893	 0.54265194	 -81.95008325
No	 -5.57641207	 2.14956320	 -80.24019338
No	 -5.77727601	 -1.75000155	 -82.81372178
No	 -4.44156915	 -0.14309029	 -81.10383191
No	 -3.10586228	 1.46382097	 -79.39394204
No	 -4.64243309	 -4.04265504	 -83.67736031
No	 -3.30672622	 -2.43574378	 -81.96747044
No	 -1.97101936	 -0.82883253	 -80.25758057
No	 -0.63531249	 0.77807873	 -78.54769070
No	 -3.50759017	 -6.33530854	 -84.54099884
No	 -2.17188330	 -4.72839728	 -82.83110897
No	 -0.83617644	 -3.12148602	 -81.12121910
No	 0.49953043	 -1.51457476	 -79.41132923
No	 1.83523730	 0.09233650	 -77.70143936
No	 -2.37274725	 -8.62796203	 -85.40463737
No	 -1.03704038	 -7.02105077	 -83.69474750
No	 0.29866648	 -5.41413951	 -81.98485763
No	 1.63437335	 -3.80722825	 -80.27496776
No	 2.97008022	 -2.20031699	 -78.56507789
No	 4.30578709	 -0.59340573	 -76.85518802
No	 -1.23790433	 -10.92061552	 -86.26827589
No	 0.09780254	 -9.31370426	 -84.55838603
No	 1.43350940	 -7.70679300	 -82.84849616
No	 2.76921627	 -6.09988174	 -81.13860629
No	 4.10492314	 -4.49297048	 -79.42871642
No	 5.44063001	 -2.88605922	 -77.71882655
No	 6.77633688	 -1.27914797	 -76.00893668
No	 -8.36447630	 4.90850183	 -82.78675095
No	 -7.22963338	 2.61584834	 -83.65038948
No	 -5.89392651	 4.22275960	 -81.94049961
No	 -6.09479046	 0.32319484	 -84.51402801
No	 -4.75908359	 1.93010610	 -82.80413814
No	 -3.42337672	 3.53701736	 -81.09424827
No	 -4.95994754	 -1.96945865	 -85.37766654
No	 -3.62424067	 -0.36254739	 -83.66777667
No	 -2.28853380	 1.24436387	 -81.95788680
No	 -0.95282693	 2.85127513	 -80.24799693
No	 -3.82510462	 -4.26211214	 -86.24130507
No	 -2.48939775	 -2.65520088	 -84.53141520
No	 -1.15369088	 -1.04828962	 -82.82152533
No	 0.18201599	 0.55862164	 -81.11163546
No	 1.51772286	 2.16553290	 -79.40174559
No	 -2.69026170	 -6.55476563	 -87.10494360
No	 -1.35455483	 -4.94785437	 -85.39505373
No	 -0.01884796	 -3.34094312	 -83.68516386
No	 1.31685891	 -1.73403186	 -81.97527399
No	 2.65256578	 -0.12712060	 -80.26538412
No	 3.98827264	 1.47979066	 -78.55549425
No	 -1.55541878	 -8.84741913	 -87.96858213
No	 -0.21971191	 -7.24050787	 -86.25869226
No	 1.11599496	 -5.63359661	 -84.54880239
No	 2.45170183	 -4.02668535	 -82.83891252
No	 3.78740870	 -2.41977409	 -81.12902265
No	 5.12311556	 -0.81286283	 -79.41913278
No	 6.45882243	 0.79404843	 -77.70924291
No	 -0.42057586	 -11.14007262	 -88.83222066
No	 0.91513101	 -9.53316136	 -87.12233079
No	 2.25083788	 -7.92625010	 -85.41244092
No	 3.58654475	 -6.31933884	 -83.70255105
No	 4.92225162	 -4.71242758	 -81.99266118
No	 6.25795848	 -3.10551632	 -80.28277131
No	 7.59366535	 -1.49860506	 -78.57288144
No	 8.92937222	 0.10830620	 -76.86299157
Au	 -4.32485119	 14.94706576	 -56.29489063
No	 -8.38837243	 -10.31850892	 -64.90526408
Au	 -5.04871776	 14.49370469	 -58.85623421
Au	 -2.57816797	 13.80796246	 -58.00998287
No	 -7.98202031	 -7.79195145	 -64.04422674
Au	 -5.77258433	 14.04034361	 -61.41757779
Au	 -0.83148475	 12.66885915	 -59.72507511
No	 -7.57566818	 -5.26539399	 -63.18318939
Au	 -6.49645090	 13.58698254	 -63.97892137
Au	 0.91519847	 11.52975584	 -61.44016735
No	 -7.16931606	 -2.73883652	 -62.32215205
Au	 -7.22031747	 13.13362147	 -66.54026495
Au	 2.66188169	 10.39065253	 -63.15525959
No	 -6.76296393	 -0.21227905	 -61.46111470
Au	 -7.94418404	 12.68026039	 -69.10160852
Au	 4.40856491	 9.25154923	 -64.87035182
No	 -6.35661181	 2.31427842	 -60.60007736
Au	 -8.66805061	 12.22689932	 -71.66295210
Au	 6.15524813	 8.11244592	 -66.58544406
No	 -5.95025969	 4.84083589	 -59.73904001
Au	 -9.39191718	 11.77353824	 -74.22429568
Au	 7.90193135	 6.97334261	 -68.30053630
No	 -5.54390756	 7.36739336	 -58.87800267
Au	 -10.11578375	 11.32017717	 -76.78563926
Au	 9.64861457	 5.83423930	 -70.01562854
No	 -5.13755544	 9.89395083	 -58.01696532
Au	 -10.83965032	 10.86681610	 -79.34698284
Au	 11.39529778	 4.69513600	 -71.73072078
No	 -4.73120331	 12.42050829	 -57.15592798
Au	 -11.56351688	 10.41345502	 -81.90832642
Au	 13.14198100	 3.55603269	 -73.44581302
No	 -11.24600244	 8.34025863	 -80.20802018
No	 -10.92848799	 6.26706223	 -78.50771395
No	 -10.52213587	 8.79361970	 -77.64667660
No	 -10.61097355	 4.19386584	 -76.80740772
No	 -10.20462142	 6.72042331	 -75.94637037
No	 -9.79826930	 9.24698078	 -75.08533303
No	 -10.29345910	 2.12066944	 -75.10710148
No	 -9.88710698	 4.64722691	 -74.24606414
No	 -9.48075485	 7.17378438	 -73.38502679
No	 -9.07440273	 9.70034185	 -72.52398945
No	 -9.97594466	 0.04747305	 -73.40679525
No	 -9.56959253	 2.57403052	 -72.54575790
No	 -9.16324041	 5.10058799	 -71.68472056
No	 -8.75688829	 7.62714546	 -70.82368321
No	 -8.35053616	 10.15370292	 -69.96264587
No	 -9.65843021	 -2.02572334	 -71.70648902
No	 -9.25207809	 0.50083412	 -70.84545167
No	 -8.84572596	 3.02739159	 -69.98441433
No	 -8.43937384	 5.55394906	 -69.12337698
No	 -8.03302172	 8.08050653	 -68.26233964
No	 -7.62666959	 10.60706400	 -67.40130229
No	 -9.34091577	 -4.09891974	 -70.00618278
No	 -8.93456364	 -1.57236227	 -69.14514544
No	 -8.52821152	 0.95419520	 -68.28410809
No	 -8.12185939	 3.48075267	 -67.42307075
No	 -7.71550727	 6.00731014	 -66.56203340
No	 -7.30915515	 8.53386760	 -65.70099606
No	 -6.90280302	 11.06042507	 -64.83995871
No	 -9.02340132	 -6.17211613	 -68.30587655
No	 -8.61704920	 -3.64555866	 -67.44483920
No	 -8.21069707	 -1.11900120	 -66.58380186
No	 -7.80434495	 1.40755627	 -65.72276451
No	 -7.39799282	 3.93411374	 -64.86172717
No	 -6.99164070	 6.46067121	 -64.00068982
No	 -6.58528858	 8.98722868	 -63.13965248
No	 -6.17893645	 11.51378615	 -62.27861513
No	 -8.70588687	 -8.24531253	 -66.60557032
No	 -8.29953475	 -5.71875506	 -65.74453297
No	 -7.89318263	 -3.19219759	 -64.88349563
No	 -7.48683050	 -0.66564012	 -64.02245828
No	 -7.08047838	 1.86091735	 -63.16142094
No	 -6.67412626	 4.38747481	 -62.30038359
No	 -6.26777413	 6.91403228	 -61.43934625
No	 -5.86142201	 9.44058975	 -60.57830890
No	 -5.45506988	 11.96714722	 -59.71727156
No	 -2.98452009	 11.28140499	 -58.87102022
No	 -3.39087222	 8.75484752	 -59.73205756
No	 -1.23783687	 10.14230168	 -60.58611245
No	 -3.79722434	 6.22829005	 -60.59309491
No	 -1.64418900	 7.61574421	 -61.44714980
No	 0.50884634	 9.00319837	 -62.30120469
No	 -4.20357647	 3.70173258	 -61.45413225
No	 -2.05054112	 5.08918674	 -62.30818714
No	 0.10249422	 6.47664090	 -63.16224204
No	 2.25552956	 7.86409507	 -64.01629693
No	 -4.60992859	 1.17517511	 -62.31516960
No	 -2.45689325	 2.56262927	 -63.16922449
No	 -0.30385790	 3.95008344	 -64.02327938
No	 1.84917744	 5.33753760	 -64.87733428
No	 4.00221278	 6.72499176	 -65.73138917
No	 -5.01628071	 -1.35138236	 -63.17620694
No	 -2.86324537	 0.03607181	 -64.03026183
No	 -0.71021003	 1.42352597	 -64.88431673
No	 1.44282532	 2.81098013	 -65.73837162
No	 3.59586066	 4.19843429	 -66.59242651
No	 5.74889600	 5.58588845	 -67.44648141
No	 -5.42263284	 -3.87793982	 -64.03724429
No	 -3.26959749	 -2.49048566	 -64.89129918
No	 -1.11656215	 -1.10303150	 -65.74535407
No	 1.03647319	 0.28442266	 -66.59940897
No	 3.18950854	 1.67187682	 -67.45346386
No	 5.34254388	 3.05933098	 -68.30751875
No	 7.49557922	 4.44678514	 -69.16157365
No	 -5.82898496	 -6.40449729	 -64.89828163
No	 -3.67594962	 -5.01704313	 -65.75233653
No	 -1.52291428	 -3.62958897	 -66.60639142
No	 0.63012107	 -2.24213481	 -67.46044631
No	 2.78315641	 -0.85468065	 -68.31450121
No	 4.93619175	 0.53277351	 -69.16855610
No	 7.08922710	 1.92022767	 -70.02261099
No	 9.24226244	 3.30768184	 -70.87666589
No	 -6.23533709	 -8.93105476	 -65.75931898
No	 -4.08230174	 -7.54360060	 -66.61337387
No	 -1.92926640	 -6.15614644	 -67.46742876
No	 0.22376894	 -4.76869228	 -68.32148366
No	 2.37680429	 -3.38123812	 -69.17553855
No	 4.52983963	 -1.99378395	 -70.02959344
No	 6.68287497	 -0.60632979	 -70.88364834
No	 8.83591032	 0.78112437	 -71.73770323
No	 10.98894566	 2.16857853	 -72.59175812
No	 -9.09296710	 9.72771279	 -81.06207508
No	 -8.36910053	 10.18107386	 -78.50073150
No	 -6.62241731	 9.04197056	 -80.21582374
No	 -7.64523396	 10.63443494	 -75.93938792
No	 -5.89855074	 9.49533163	 -77.65448016
No	 -4.15186752	 8.35622832	 -79.36957240
No	 -6.92136739	 11.08779601	 -73.37804434
No	 -5.17468417	 9.94869270	 -75.09313658
No	 -3.42800095	 8.80958940	 -76.80822882
No	 -1.68131773	 7.67048609	 -78.52332106
No	 -6.19750082	 11.54115709	 -70.81670076
No	 -4.45081760	 10.40205378	 -72.53179300
No	 -2.70413438	 9.26295047	 -74.24688524
No	 -0.95745116	 8.12384716	 -75.96197748
No	 0.78923206	 6.98474386	 -77.67706972
No	 -5.47363425	 11.99451816	 -68.25535718
No	 -3.72695103	 10.85541485	 -69.97044942
No	 -1.98026781	 9.71631154	 -71.68554166
No	 -0.23358459	 8.57720824	 -73.40063390
No	 1.51309863	 7.43810493	 -75.11572614
No	 3.25978185	 6.29900162	 -76.83081838
No	 -4.74976768	 12.44787923	 -65.69401361
No	 -3.00308446	 11.30877593	 -67.40910584
No	 -1.25640124	 10.16967262	 -69.12419808
No	 0.49028198	 9.03056931	 -70.83929032
No	 2.23696520	 7.89146600	 -72.55438256
No	 3.98364842	 6.75236270	 -74.26947480
No	 5.73033164	 5.61325939	 -75.98456704
No	 -4.02590111	 12.90124031	 -63.13267003
No	 -2.27921789	 11.76213700	 -64.84776227
No	 -0.53253467	 10.62303369	 -66.56285450
No	 1.21414855	 9.48393039	 -68.27794674
No	 2.96083177	 8.34482708	 -69.99303898
No	 4.70751499	 7.20572377	 -71.70813122
No	 6.45419821	 6.06662046	 -73.42322346
No	 8.20088143	 4.92751716	 -75.13831570
No	 -3.30203454	 13.35460138	 -60.57132645
No	 -1.55535132	 12.21549807	 -62.28641869
No	 0.19133190	 11.07639477	 -64.00151093
No	 1.93801512	 9.93729146	 -65.71660316
No	 3.68469834	 8.79818815	 -67.43169540
No	 5.43138156	 7.65908485	 -69.14678764
No	 7.17806478	 6.51998154	 -70.86187988
No	 8.92474800	 5.38087823	 -72.57697212
No	 10.67143122	 4.24177492	 -74.29206436
No	 -6.55285153	 -6.85785837	 -67.45962521
No	 -6.87036598	 -4.78466197	 -69.15993144
No	 -6.14649941	 -4.33130090	 -66.59858786
No	 -4.39981619	 -5.47040421	 -68.31368010
No	 -7.18788042	 -2.71146558	 -70.86023768
No	 -6.46401385	 -2.25810450	 -68.29889410
No	 -4.71733063	 -3.39720781	 -70.01398634
No	 -5.74014728	 -1.80474343	 -65.73755052
No	 -3.99346406	 -2.94384674	 -67.45264276
No	 -2.24678084	 -4.08295004	 -69.16773500
No	 -7.50539487	 -0.63826918	 -72.56054391
No	 -6.78152830	 -0.18490811	 -69.99920033
No	 -5.03484508	 -1.32401142	 -71.71429257
No	 -6.05766173	 0.26845296	 -67.43785675
No	 -4.31097851	 -0.87065034	 -69.15294899
No	 -2.56429529	 -2.00975365	 -70.86804123
No	 -5.33379516	 0.72181404	 -64.87651317
No	 -3.58711194	 -0.41728927	 -66.59160541
No	 -1.84042872	 -1.55639258	 -68.30669765
No	 -0.09374550	 -2.69549588	 -70.02178989
No	 -7.82290931	 1.43492721	 -74.26085014
No	 -7.09904274	 1.88828829	 -71.69950656
No	 -5.35235952	 0.74918498	 -73.41459880
No	 -6.37517617	 2.34164936	 -69.13816299
No	 -4.62849296	 1.20254605	 -70.85325522
No	 -2.88180974	 0.06344274	 -72.56834746
No	 -5.65130961	 2.79501043	 -66.57681941
No	 -3.90462639	 1.65590713	 -68.29191165
No	 -2.15794317	 0.51680382	 -70.00700388
No	 -0.41125995	 -0.62229949	 -71.72209612
No	 -4.92744304	 3.24837151	 -64.01547583
No	 -3.18075982	 2.10926820	 -65.73056807
No	 -1.43407660	 0.97016489	 -67.44566031
No	 0.31260662	 -0.16893841	 -69.16075255
No	 2.05928984	 -1.30804172	 -70.87584478
No	 -8.14042376	 3.50812361	 -75.96115638
No	 -7.41655719	 3.96148468	 -73.39981280
No	 -5.66987397	 2.82238137	 -75.11490504
No	 -6.69269062	 4.41484575	 -70.83846922
No	 -4.94600740	 3.27574245	 -72.55356146
No	 -3.19932418	 2.13663914	 -74.26865370
No	 -5.96882405	 4.86820683	 -68.27712564
No	 -4.22214083	 3.72910352	 -69.99221788
No	 -2.47545761	 2.59000021	 -71.70731012
No	 -0.72877439	 1.45089691	 -73.42240236
No	 -5.24495748	 5.32156790	 -65.71578206
No	 -3.49827426	 4.18246459	 -67.43087430
No	 -1.75159104	 3.04336129	 -69.14596654
No	 -0.00490782	 1.90425798	 -70.86105878
No	 1.74177540	 0.76515467	 -72.57615102
No	 -4.52109091	 5.77492898	 -63.15443848
No	 -2.77440769	 4.63582567	 -64.86953072
No	 -1.02772447	 3.49672236	 -66.58462296
No	 0.71895875	 2.35761905	 -68.29971520
No	 2.46564197	 1.21851575	 -70.01480744
No	 4.21232519	 0.07941244	 -71.72989968
No	 -8.45793820	 5.58132000	 -77.66146261
No	 -7.73407164	 6.03468107	 -75.10011903
No	 -5.98738842	 4.89557777	 -76.81521127
No	 -7.01020507	 6.48804215	 -72.53877545
No	 -5.26352185	 5.34893884	 -74.25386769
No	 -3.51683863	 4.20983553	 -75.96895993
No	 -6.28633850	 6.94140322	 -69.97743187
No	 -4.53965528	 5.80229992	 -71.69252411
No	 -2.79297206	 4.66319661	 -73.40761635
No	 -1.04628884	 3.52409330	 -75.12270859
No	 -5.56247193	 7.39476430	 -67.41608830
No	 -3.81578871	 6.25566099	 -69.13118053
No	 -2.06910549	 5.11655768	 -70.84627277
No	 -0.32242227	 3.97745437	 -72.56136501
No	 1.42426095	 2.83835107	 -74.27645725
No	 -4.83860536	 7.84812537	 -64.85474472
No	 -3.09192214	 6.70902206	 -66.56983696
No	 -1.34523892	 5.56991876	 -68.28492919
No	 0.40144430	 4.43081545	 -70.00002143
No	 2.14812752	 3.29171214	 -71.71511367
No	 3.89481074	 2.15260883	 -73.43020591
No	 -4.11473879	 8.30148644	 -62.29340114
No	 -2.36805557	 7.16238314	 -64.00849338
No	 -0.62137235	 6.02327983	 -65.72358562
No	 1.12531087	 4.88417652	 -67.43867785
No	 2.87199409	 3.74507322	 -69.15377009
No	 4.61867731	 2.60596991	 -70.86886233
No	 6.36536053	 1.46686660	 -72.58395457
No	 -8.77545265	 7.65451639	 -79.36176884
No	 -8.05158608	 8.10787747	 -76.80042526
No	 -6.30490286	 6.96877416	 -78.51551750
No	 -7.32771951	 8.56123854	 -74.23908169
No	 -5.58103629	 7.42213524	 -75.95417392
No	 -3.83435307	 6.28303193	 -77.66926616
No	 -6.60385294	 9.01459962	 -71.67773811
No	 -4.85716972	 7.87549631	 -73.39283035
No	 -3.11048650	 6.73639300	 -75.10792258
No	 -1.36380328	 5.59728970	 -76.82301482
No	 -5.87998637	 9.46796069	 -69.11639453
No	 -4.13330315	 8.32885738	 -70.83148677
No	 -2.38661993	 7.18975408	 -72.54657901
No	 -0.63993671	 6.05065077	 -74.26167124
No	 1.10674651	 4.91154746	 -75.97676348
No	 -5.15611980	 9.92132176	 -66.55505095
No	 -3.40943658	 8.78221846	 -68.27014319
No	 -1.66275336	 7.64311515	 -69.98523543
No	 0.08392986	 6.50401184	 -71.70032767
No	 1.83061307	 5.36490854	 -73.41541990
No	 3.57729629	 4.22580523	 -75.13051214
No	 -4.43225323	 10.37468284	 -63.99370737
No	 -2.68557001	 9.23557953	 -65.70879961
No	 -0.93888679	 8.09647622	 -67.42389185
No	 0.80779642	 6.95737292	 -69.13898409
No	 2.55447964	 5.81826961	 -70.85407633
No	 4.30116286	 4.67916630	 -72.56916856
No	 6.04784608	 3.54006300	 -74.28426080
No	 -3.70838666	 10.82804391	 -61.43236379
No	 -1.96170344	 9.68894061	 -63.14745603
No	 -0.21502023	 8.54983730	 -64.86254827
No	 1.53166299	 7.41073399	 -66.57764051
No	 3.27834621	 6.27163068	 -68.29273275
No	 5.02502943	 5.13252738	 -70.00782499
No	 6.77171265	 3.99342407	 -71.72291723
No	 8.51839587	 2.85432076	 -73.43800946
Au	 13.46677577	 -6.94747478	 -47.01172822
Au	 -6.77095180	 -12.30892170	 -64.06134023
No	 -2.70743056	 12.95665299	 -55.45096678
Au	 13.59603836	 -6.09616531	 -49.57074431
Au	 -4.74717904	 -11.77277701	 -62.35637903
No	 -1.09000992	 10.96624021	 -54.60704292
Au	 13.72530095	 -5.24485584	 -52.12976041
Au	 -2.72340628	 -11.23663232	 -60.65141783
No	 0.52741071	 8.97582743	 -53.76311906
Au	 13.85456353	 -4.39354637	 -54.68877650
Au	 -0.69963352	 -10.70048762	 -58.94645662
No	 2.14483134	 6.98541466	 -52.91919521
Au	 13.98382612	 -3.54223690	 -57.24779259
Au	 1.32413923	 -10.16434293	 -57.24149542
No	 3.76225198	 4.99500188	 -52.07527135
Au	 14.11308871	 -2.69092743	 -59.80680869
Au	 3.34791199	 -9.62819824	 -55.53653422
No	 5.37967261	 3.00458910	 -51.23134750
Au	 14.24235129	 -1.83961796	 -62.36582478
Au	 5.37168475	 -9.09205355	 -53.83157302
No	 6.99709324	 1.01417633	 -50.38742364
Au	 14.37161388	 -0.98830849	 -64.92484088
Au	 7.39545750	 -8.55590886	 -52.12661182
No	 8.61451388	 -0.97623645	 -49.54349979
Au	 14.50087646	 -0.13699903	 -67.48385697
Au	 9.41923026	 -8.01976416	 -50.42165062
No	 10.23193451	 -2.96664923	 -48.69957593
Au	 14.63013905	 0.71431044	 -70.04287307
Au	 11.44300302	 -7.48361947	 -48.71668942
No	 11.84935514	 -4.95706200	 -47.85565207
Au	 14.75940164	 1.56561991	 -72.60188916
No	 9.82558238	 -5.49320669	 -49.56061327
No	 7.80180963	 -6.02935139	 -51.26557448
No	 8.20816175	 -3.50279392	 -50.40453713
No	 5.77803687	 -6.56549608	 -52.97053568
No	 6.18438899	 -4.03893861	 -52.10949833
No	 6.59074112	 -1.51238114	 -51.24846099
No	 3.75426411	 -7.10164077	 -54.67549688
No	 4.16061624	 -4.57508330	 -53.81445953
No	 4.56696836	 -2.04852583	 -52.95342219
No	 4.97332049	 0.47803163	 -52.09238484
No	 1.73049136	 -7.63778546	 -56.38045808
No	 2.13684348	 -5.11122799	 -55.51942073
No	 2.54319560	 -2.58467053	 -54.65838339
No	 2.94954773	 -0.05811306	 -53.79734604
No	 3.35589985	 2.46844441	 -52.93630870
No	 -0.29328140	 -8.17393015	 -58.08541928
No	 0.11307072	 -5.64737269	 -57.22438193
No	 0.51942285	 -3.12081522	 -56.36334459
No	 0.92577497	 -0.59425775	 -55.50230724
No	 1.33212709	 1.93229972	 -54.64126990
No	 1.73847922	 4.45885719	 -53.78023255
No	 -2.31705416	 -8.71007485	 -59.79038048
No	 -1.91070203	 -6.18351738	 -58.92934314
No	 -1.50434991	 -3.65695991	 -58.06830579
No	 -1.09799779	 -1.13040244	 -57.20726845
No	 -0.69164566	 1.39615503	 -56.34623110
No	 -0.28529354	 3.92271250	 -55.48519375
No	 0.12105859	 6.44926996	 -54.62415641
No	 -4.34082691	 -9.24621954	 -61.49534168
No	 -3.93447479	 -6.71966207	 -60.63430434
No	 -3.52812267	 -4.19310460	 -59.77326699
No	 -3.12177054	 -1.66654713	 -58.91222965
No	 -2.71541842	 0.86001034	 -58.05119230
No	 -2.30906630	 3.38656780	 -57.19015496
No	 -1.90271417	 5.91312527	 -56.32911761
No	 -1.49636205	 8.43968274	 -55.46808027
No	 -6.36459967	 -9.78236423	 -63.20030288
No	 -5.95824755	 -7.25580676	 -62.33926554
No	 -5.55189542	 -4.72924929	 -61.47822819
No	 -5.14554330	 -2.20269182	 -60.61719085
No	 -4.73919118	 0.32386564	 -59.75615350
No	 -4.33283905	 2.85042311	 -58.89511616
No	 -3.92648693	 5.37698058	 -58.03407881
No	 -3.52013480	 7.90353805	 -57.17304147
No	 -3.11378268	 10.43009552	 -56.31200412
No	 12.60636629	 0.17816575	 -71.74783427
No	 10.45333095	 -1.20928841	 -70.89377937
No	 12.47710371	 -0.67314372	 -69.18881817
No	 8.30029561	 -2.59674257	 -70.03972448
No	 10.32406836	 -2.06059788	 -68.33476328
No	 12.34784112	 -1.52445319	 -66.62980208
No	 6.14726026	 -3.98419673	 -69.18566959
No	 8.17103302	 -3.44805204	 -67.48070839
No	 10.19480578	 -2.91190735	 -65.77574719
No	 12.21857854	 -2.37576266	 -64.07078598
No	 3.99422492	 -5.37165089	 -68.33161469
No	 6.01799768	 -4.83550620	 -66.62665349
No	 8.04177043	 -4.29936151	 -64.92169229
No	 10.06554319	 -3.76321682	 -63.21673109
No	 12.08931595	 -3.22707212	 -61.51176989
No	 1.84118958	 -6.75910505	 -67.47755980
No	 3.86496233	 -6.22296036	 -65.77259860
No	 5.88873509	 -5.68681567	 -64.06763740
No	 7.91250785	 -5.15067098	 -62.36267620
No	 9.93628061	 -4.61452629	 -60.65771500
No	 11.96005336	 -4.07838159	 -58.95275380
No	 -0.31184577	 -8.14655922	 -66.62350491
No	 1.71192699	 -7.61041452	 -64.91854371
No	 3.73569975	 -7.07426983	 -63.21358251
No	 5.75947251	 -6.53812514	 -61.50862130
No	 7.78324526	 -6.00198045	 -59.80366010
No	 9.80701802	 -5.46583576	 -58.09869890
No	 11.83079078	 -4.92969106	 -56.39373770
No	 -2.46488111	 -9.53401338	 -65.76945001
No	 -0.44110835	 -8.99786868	 -64.06448881
No	 1.58266440	 -8.46172399	 -62.35952761
No	 3.60643716	 -7.92557930	 -60.65456641
No	 5.63020992	 -7.38943461	 -58.94960521
No	 7.65398268	 -6.85328992	 -57.24464401
No	 9.67775543	 -6.31714522	 -55.53968281
No	 11.70152819	 -5.78100053	 -53.83472161
No	 -4.61791645	 -10.92146754	 -64.91539512
No	 -2.59414370	 -10.38532285	 -63.21043392
No	 -0.57037094	 -9.84917815	 -61.50547272
No	 1.45340182	 -9.31303346	 -59.80051152
No	 3.47717458	 -8.77688877	 -58.09555032
No	 5.50094733	 -8.24074408	 -56.39058912
No	 7.52472009	 -7.70459939	 -54.68562791
No	 9.54849285	 -7.16845469	 -52.98066671
No	 11.57226560	 -6.63231000	 -51.27570551
No	 11.97861773	 -4.10575253	 -50.41466817
No	 10.36119709	 -2.11533976	 -51.25859202
No	 12.10788031	 -3.25444306	 -52.97368426
No	 8.74377646	 -0.12492698	 -52.10251588
No	 10.49045968	 -1.26403029	 -53.81760812
No	 12.23714290	 -2.40313359	 -55.53270036
No	 7.12635583	 1.86548580	 -52.94643974
No	 8.87303905	 0.72638249	 -54.66153197
No	 10.61972227	 -0.41272082	 -56.37662421
No	 12.36640549	 -1.55182413	 -58.09171645
No	 5.50893520	 3.85589857	 -53.79036359
No	 7.25561841	 2.71679527	 -55.50545583
No	 9.00230163	 1.57769196	 -57.22054807
No	 10.74898485	 0.43858865	 -58.93564031
No	 12.49566807	 -0.70051466	 -60.65073255
No	 3.89151456	 5.84631135	 -54.63428745
No	 5.63819778	 4.70720804	 -56.34937969
No	 7.38488100	 3.56810473	 -58.06447192
No	 9.13156422	 2.42900143	 -59.77956416
No	 10.87824744	 1.28989812	 -61.49465640
No	 12.62493066	 0.15079481	 -63.20974864
No	 2.27409393	 7.83672413	 -55.47821130
No	 4.02077715	 6.69762082	 -57.19330354
No	 5.76746037	 5.55851751	 -58.90839578
No	 7.51414359	 4.41941420	 -60.62348802
No	 9.26082681	 3.28031090	 -62.33858026
No	 11.00751003	 2.14120759	 -64.05367250
No	 12.75419325	 1.00210428	 -65.76876473
No	 0.65667330	 9.82713690	 -56.32213516
No	 2.40335652	 8.68803360	 -58.03722740
No	 4.15003973	 7.54893029	 -59.75231964
No	 5.89672295	 6.40982698	 -61.46741187
No	 7.64340617	 5.27072367	 -63.18250411
No	 9.39008939	 4.13162037	 -64.89759635
No	 11.13677261	 2.99251706	 -66.61268859
No	 12.88345583	 1.85341375	 -68.32778083
No	 -0.96074734	 11.81754968	 -57.16605901
No	 0.78593588	 10.67844637	 -58.88115125
No	 2.53261910	 9.53934306	 -60.59624349
No	 4.27930232	 8.40023976	 -62.31133573
No	 6.02598554	 7.26113645	 -64.02642797
No	 7.77266876	 6.12203314	 -65.74152021
No	 9.51935198	 4.98292984	 -67.45661245
No	 11.26603520	 3.84382653	 -69.17170468
No	 13.01271842	 2.70472322	 -70.88679692
No	 -4.21156433	 -8.39491007	 -64.05435778
No	 -2.18779157	 -7.85876538	 -62.34939657
No	 -3.80521220	 -5.86835260	 -63.19332043
No	 -2.05852899	 -7.00745591	 -64.90841267
No	 -0.16401881	 -7.32262069	 -60.64443537
No	 -1.78143945	 -5.33220791	 -61.48835923
No	 -0.03475623	 -6.47131122	 -63.20345147
No	 -3.39886008	 -3.34179513	 -62.33228309
No	 -1.65217686	 -4.48089844	 -64.04737532
No	 0.09450636	 -5.62000175	 -65.76246756
No	 1.85975394	 -6.78647599	 -58.93947417
No	 0.24233331	 -4.79606322	 -59.78339803
No	 1.98901653	 -5.93516652	 -61.49849027
No	 -1.37508732	 -2.80565044	 -60.62732188
No	 0.37159590	 -3.94475375	 -62.34241412
No	 2.11827911	 -5.08385705	 -64.05750636
No	 -2.99250796	 -0.81523766	 -61.47124574
No	 -1.24582474	 -1.95434097	 -63.18633798
No	 0.50085848	 -3.09344428	 -64.90143022
No	 2.24754170	 -4.23254759	 -66.61652246
No	 3.88352670	 -6.25033130	 -57.23451297
No	 2.26610607	 -4.25991852	 -58.07843683
No	 4.01278929	 -5.39902183	 -59.79352907
No	 0.64868543	 -2.26950575	 -58.92236068
No	 2.39536865	 -3.40860906	 -60.63745292
No	 4.14205187	 -4.54771236	 -62.35254516
No	 -0.96873520	 -0.27909297	 -59.76628454
No	 0.77794802	 -1.41819628	 -61.48137678
No	 2.52463124	 -2.55729959	 -63.19646902
No	 4.27131446	 -3.69640289	 -64.91156125
No	 -2.58615583	 1.71131980	 -60.61020840
No	 -0.83947261	 0.57221650	 -62.32530063
No	 0.90721061	 -0.56688681	 -64.04039287
No	 2.65389383	 -1.70599012	 -65.75548511
No	 4.40057704	 -2.84509342	 -67.47057735
No	 5.90729946	 -5.71418661	 -55.52955177
No	 4.28987882	 -3.72377383	 -56.37347563
No	 6.03656204	 -4.86287714	 -58.08856787
No	 2.67245819	 -1.73336106	 -57.21739948
No	 4.41914141	 -2.87246436	 -58.93249172
No	 6.16582463	 -4.01156767	 -60.64758396
No	 1.05503756	 0.25705172	 -58.06132334
No	 2.80172078	 -0.88205159	 -59.77641558
No	 4.54840400	 -2.02115489	 -61.49150782
No	 6.29508722	 -3.16025820	 -63.20660005
No	 -0.56238308	 2.24746450	 -58.90524719
No	 1.18430014	 1.10836119	 -60.62033943
No	 2.93098336	 -0.03074212	 -62.33543167
No	 4.67766658	 -1.16984543	 -64.05052391
No	 6.42434980	 -2.30894873	 -65.76561615
No	 -2.17980371	 4.23787727	 -59.74917105
No	 -0.43312049	 3.09877397	 -61.46426329
No	 1.31356273	 1.95967066	 -63.17935553
No	 3.06024595	 0.82056735	 -64.89444777
No	 4.80692917	 -0.31853596	 -66.60954000
No	 6.55361239	 -1.45763926	 -68.32463224
No	 7.93107221	 -5.17804192	 -53.82459057
No	 6.31365158	 -3.18762914	 -54.66851443
No	 8.06033480	 -4.32673245	 -56.38360666
No	 4.69623095	 -1.19721636	 -55.51243828
No	 6.44291417	 -2.33631967	 -57.22753052
No	 8.18959739	 -3.47542298	 -58.94262276
No	 3.07881031	 0.79319641	 -56.35636214
No	 4.82549353	 -0.34590690	 -58.07145438
No	 6.57217675	 -1.48501020	 -59.78654661
No	 8.31885997	 -2.62411351	 -61.50163885
No	 1.46138968	 2.78360919	 -57.20028599
No	 3.20807290	 1.64450588	 -58.91537823
No	 4.95475612	 0.50540257	 -60.63047047
No	 6.70143934	 -0.63370073	 -62.34556271
No	 8.44812256	 -1.77280404	 -64.06065495
No	 -0.15603095	 4.77402197	 -58.04420985
No	 1.59065227	 3.63491866	 -59.75930209
No	 3.33733549	 2.49581535	 -61.47439433
No	 5.08401871	 1.35671204	 -63.18948656
No	 6.83070193	 0.21760874	 -64.90457880
No	 8.57738514	 -0.92149457	 -66.61967104
No	 -1.77345159	 6.76443474	 -58.88813371
No	 -0.02676837	 5.62533143	 -60.60322594
No	 1.71991485	 4.48622813	 -62.31831818
No	 3.46659807	 3.34712482	 -64.03341042
No	 5.21328129	 2.20802151	 -65.74850266
No	 6.95996451	 1.06891821	 -67.46359490
No	 8.70664773	 -0.07018510	 -69.17868714
No	 9.95484497	 -4.64189723	 -52.11962937
No	 8.33742434	 -2.65148445	 -52.96355322
No	 10.08410756	 -3.79058776	 -54.67864546
No	 6.72000370	 -0.66107167	 -53.80747708
No	 8.46668692	 -1.80017498	 -55.52256932
No	 10.21337014	 -2.93927829	 -57.23766156
No	 5.10258307	 1.32934110	 -54.65140094
No	 6.84926629	 0.19023780	 -56.36649317
No	 8.59594951	 -0.94886551	 -58.08158541
No	 10.34263273	 -2.08796882	 -59.79667765
No	 3.48516244	 3.31975388	 -55.49532479
No	 5.23184566	 2.18065057	 -57.21041703
No	 6.97852888	 1.04154727	 -58.92550927
No	 8.72521210	 -0.09755604	 -60.64060151
No	 10.47189532	 -1.23665935	 -62.35569375
No	 1.86774181	 5.31016666	 -56.33924865
No	 3.61442502	 4.17106335	 -58.05434089
No	 5.36110824	 3.03196004	 -59.76943313
No	 7.10779146	 1.89285674	 -61.48452536
No	 8.85447468	 0.75375343	 -63.19961760
No	 10.60115790	 -0.38534988	 -64.91470984
No	 0.25032117	 7.30057943	 -57.18317250
No	 1.99700439	 6.16147613	 -58.89826474
No	 3.74368761	 5.02237282	 -60.61335698
No	 5.49037083	 3.88326951	 -62.32844922
No	 7.23705405	 2.74416620	 -64.04354146
No	 8.98373727	 1.60506290	 -65.75863370
No	 10.73042049	 0.46595959	 -67.47372594
No	 -1.36709946	 9.29099221	 -58.02709636
No	 0.37958376	 8.15188890	 -59.74218860
No	 2.12626698	 7.01278560	 -61.45728084
No	 3.87295020	 5.87368229	 -63.17237308
No	 5.61963342	 4.73457898	 -64.88746531
No	 7.36631664	 3.59547567	 -66.60255755
No	 9.11299986	 2.45637237	 -68.31764979
No	 10.85968307	 1.31726906	 -70.03274203
Au	 -14.65719754	 -5.64724632	 -37.55437493
Au	 -9.32767664	 -12.19071911	 -63.20158084
Au	 -5.26415540	 13.07485557	 -54.59120739
No	 10.91005093	 -6.82927219	 -46.15196883
Au	 -9.86062873	 -11.53637183	 -60.63686025
Au	 -6.20345962	 11.20264538	 -52.88752414
No	 8.35332608	 -6.71106961	 -45.29220944
Au	 -10.39358082	 -10.88202455	 -58.07213966
Au	 -7.14276383	 9.33043519	 -51.18384090
No	 5.79660124	 -6.59286702	 -44.43245005
Au	 -10.92653291	 -10.22767727	 -55.50741907
Au	 -8.08206804	 7.45822500	 -49.48015765
No	 3.23987639	 -6.47466443	 -43.57269066
Au	 -11.45948500	 -9.57333000	 -52.94269847
Au	 -9.02137226	 5.58601482	 -47.77647440
No	 0.68315154	 -6.35646184	 -42.71293127
Au	 -11.99243709	 -8.91898272	 -50.37797788
Au	 -9.96067647	 3.71380463	 -46.07279116
No	 -1.87357330	 -6.23825926	 -41.85317188
Au	 -12.52538918	 -8.26463544	 -47.81325729
Au	 -10.89998068	 1.84159444	 -44.36910791
No	 -4.43029815	 -6.12005667	 -40.99341249
Au	 -13.05834127	 -7.61028816	 -45.24853670
Au	 -11.83928490	 -0.03061575	 -42.66542467
No	 -6.98702300	 -6.00185408	 -40.13365310
Au	 -13.59129336	 -6.95594088	 -42.68381611
Au	 -12.77858911	 -1.90282594	 -40.96174142
No	 -9.54374784	 -5.88365150	 -39.27389371
Au	 -14.12424545	 -6.30159360	 -40.11909552
Au	 -13.71789332	 -3.77503613	 -39.25805818
No	 -12.10047269	 -5.76544891	 -38.41413432
No	 -5.67050753	 10.54829810	 -55.45224473
No	 -6.07685965	 8.02174064	 -56.31328208
No	 -6.60981174	 8.67608792	 -53.74856149
No	 -6.48321177	 5.49518317	 -57.17431942
No	 -7.01616386	 6.14953045	 -54.60959883
No	 -7.54911595	 6.80387773	 -52.04487824
No	 -6.88956390	 2.96862570	 -58.03535677
No	 -7.42251599	 3.62297298	 -55.47063618
No	 -7.95546808	 4.27732026	 -52.90591559
No	 -8.48842017	 4.93166754	 -50.34119499
No	 -7.29591602	 0.44206823	 -58.89639411
No	 -7.82886811	 1.09641551	 -56.33167352
No	 -8.36182020	 1.75076279	 -53.76695293
No	 -8.89477229	 2.40511007	 -51.20223234
No	 -9.42772438	 3.05945735	 -48.63751175
No	 -7.70226815	 -2.08448924	 -59.75743146
No	 -8.23522024	 -1.43014196	 -57.19271087
No	 -8.76817233	 -0.77579468	 -54.62799028
No	 -9.30112441	 -0.12144740	 -52.06326968
No	 -9.83407650	 0.53289988	 -49.49854909
No	 -10.36702859	 1.18724716	 -46.93382850
No	 -8.10862027	 -4.61104671	 -60.61846880
No	 -8.64157236	 -3.95669943	 -58.05374821
No	 -9.17452445	 -3.30235215	 -55.48902762
No	 -9.70747654	 -2.64800487	 -52.92430703
No	 -10.24042863	 -1.99365759	 -50.35958644
No	 -10.77338072	 -1.33931031	 -47.79486585
No	 -11.30633281	 -0.68496303	 -45.23014526
No	 -8.51497239	 -7.13760417	 -61.47950615
No	 -9.04792448	 -6.48325690	 -58.91478556
No	 -9.58087657	 -5.82890962	 -56.35006497
No	 -10.11382866	 -5.17456234	 -53.78534438
No	 -10.64678075	 -4.52021506	 -51.22062378
No	 -11.17973284	 -3.86586778	 -48.65590319
No	 -11.71268493	 -3.21152050	 -46.09118260
No	 -12.24563702	 -2.55717322	 -43.52646201
No	 -8.92132452	 -9.66416164	 -62.34054349
No	 -9.45427661	 -9.00981436	 -59.77582290
No	 -9.98722870	 -8.35546709	 -57.21110231
No	 -10.52018079	 -7.70111981	 -54.64638172
No	 -11.05313288	 -7.04677253	 -52.08166113
No	 -11.58608497	 -6.39242525	 -49.51694054
No	 -12.11903705	 -5.73807797	 -46.95221995
No	 -12.65198914	 -5.08373069	 -44.38749936
No	 -13.18494123	 -4.42938341	 -41.82277877
No	 -11.56752060	 -6.41979619	 -40.97885491
No	 -11.03456851	 -7.07414347	 -43.54357550
No	 -9.01079575	 -6.53799877	 -41.83861430
No	 -10.50161642	 -7.72849075	 -46.10829609
No	 -8.47784366	 -7.19234605	 -44.40333489
No	 -6.45407091	 -6.65620136	 -42.69837369
No	 -9.96866433	 -8.38283802	 -48.67301668
No	 -7.94489157	 -7.84669333	 -46.96805548
No	 -5.92111882	 -7.31054864	 -45.26309428
No	 -3.89734606	 -6.77440395	 -43.55813308
No	 -9.43571224	 -9.03718530	 -51.23773727
No	 -7.41193949	 -8.50104061	 -49.53277607
No	 -5.38816673	 -7.96489592	 -47.82781487
No	 -3.36439397	 -7.42875123	 -46.12285367
No	 -1.34062121	 -6.89260654	 -44.41789247
No	 -8.90276015	 -9.69153258	 -53.80245786
No	 -6.87898740	 -9.15538789	 -52.09749666
No	 -4.85521464	 -8.61924320	 -50.39253546
No	 -2.83144188	 -8.08309851	 -48.68757426
No	 -0.80766912	 -7.54695381	 -46.98261306
No	 1.21610363	 -7.01080912	 -45.27765186
No	 -8.36980806	 -10.34587986	 -56.36717846
No	 -6.34603531	 -9.80973517	 -54.66221725
No	 -4.32226255	 -9.27359048	 -52.95725605
No	 -2.29848979	 -8.73744579	 -51.25229485
No	 -0.27471704	 -8.20130109	 -49.54733365
No	 1.74905572	 -7.66515640	 -47.84237245
No	 3.77282848	 -7.12901171	 -46.13741125
No	 -7.83685597	 -11.00022714	 -58.93189905
No	 -5.81308322	 -10.46408245	 -57.22693785
No	 -3.78931046	 -9.92793776	 -55.52197664
No	 -1.76553770	 -9.39179306	 -53.81701544
No	 0.25823505	 -8.85564837	 -52.11205424
No	 2.28200781	 -8.31950368	 -50.40709304
No	 4.30578057	 -7.78335899	 -48.70213184
No	 6.32955332	 -7.24721430	 -46.99717064
No	 -7.30390389	 -11.65457442	 -61.49661964
No	 -5.28013113	 -11.11842973	 -59.79165844
No	 -3.25635837	 -10.58228504	 -58.08669723
No	 -1.23258561	 -10.04614034	 -56.38173603
No	 0.79118714	 -9.50999565	 -54.67677483
No	 2.81495990	 -8.97385096	 -52.97181363
No	 4.83873266	 -8.43770627	 -51.26685243
No	 6.86250541	 -7.90156158	 -49.56189123
No	 8.88627817	 -7.36541688	 -47.85693003
No	 9.29263030	 -4.83885942	 -46.99589268
No	 7.67520966	 -2.84844664	 -47.83981654
No	 6.73590545	 -4.72065683	 -46.13613329
No	 6.05778903	 -0.85803386	 -48.68374040
No	 5.11848482	 -2.73024405	 -46.98005715
No	 4.17918060	 -4.60245424	 -45.27637390
No	 4.44036840	 1.13237891	 -49.52766425
No	 3.50106418	 -0.73983128	 -47.82398101
No	 2.56175997	 -2.61204146	 -46.12029776
No	 1.62245576	 -4.48425165	 -44.41661451
No	 2.82294776	 3.12279169	 -50.37158811
No	 1.88364355	 1.25058150	 -48.66790486
No	 0.94433934	 -0.62162869	 -46.96422162
No	 0.00503512	 -2.49383888	 -45.26053837
No	 -0.93426909	 -4.36604907	 -43.55685512
No	 1.20552713	 5.11320447	 -51.21551196
No	 0.26622292	 3.24099428	 -49.51182872
No	 -0.67308130	 1.36878409	 -47.80814547
No	 -1.61238551	 -0.50342610	 -46.10446223
No	 -2.55168972	 -2.37563629	 -44.40077898
No	 -3.49099394	 -4.24784648	 -42.69709573
No	 -0.41189350	 7.10361724	 -52.05943582
No	 -1.35119772	 5.23140705	 -50.35575257
No	 -2.29050193	 3.35919686	 -48.65206933
No	 -3.22980614	 1.48698668	 -46.94838608
No	 -4.16911036	 -0.38522351	 -45.24470284
No	 -5.10841457	 -2.25743370	 -43.54101959
No	 -6.04771878	 -4.12964389	 -41.83733634
No	 -2.02931414	 9.09403002	 -52.90335967
No	 -2.96861835	 7.22181983	 -51.19967643
No	 -3.90792256	 5.34960964	 -49.49599318
No	 -4.84722678	 3.47739945	 -47.79230994
No	 -5.78653099	 1.60518926	 -46.08862669
No	 -6.72583520	 -0.26702093	 -44.38494345
No	 -7.66513942	 -2.13923112	 -42.68126020
No	 -8.60444363	 -4.01144131	 -40.97757696
No	 -3.64673477	 11.08444280	 -53.74728353
No	 -4.58603898	 9.21223261	 -52.04360029
No	 -5.52534320	 7.34002242	 -50.33991704
No	 -6.46464741	 5.46781223	 -48.63623379
No	 -7.40395162	 3.59560204	 -46.93255055
No	 -8.34325584	 1.72339185	 -45.22886730
No	 -9.28256005	 -0.14881834	 -43.52518406
No	 -10.22186426	 -2.02102853	 -41.82150081
No	 -11.16116848	 -3.89323872	 -40.11781757
No	 -6.89755176	 -9.12801695	 -60.63558229
No	 -4.87377900	 -8.59187226	 -58.93062109
No	 -6.49119964	 -6.60145948	 -59.77454495
No	 -7.43050385	 -8.47366967	 -58.07086170
No	 -2.85000625	 -8.05572757	 -57.22565989
No	 -4.46742688	 -6.06531479	 -58.06958375
No	 -5.40673109	 -7.93752498	 -56.36590050
No	 -6.08484751	 -4.07490201	 -58.91350760
No	 -7.02415173	 -5.94711220	 -57.20982436
No	 -7.96345594	 -7.81932239	 -55.50614111
No	 -0.82623349	 -7.51958288	 -55.52069869
No	 -2.44365412	 -5.52917010	 -56.36462254
No	 -3.38295834	 -7.40138029	 -54.66093930
No	 -4.06107476	 -3.53875732	 -57.20854640
No	 -5.00037897	 -5.41096751	 -55.50486315
No	 -5.93968318	 -7.28317770	 -53.80117991
No	 -5.67849539	 -1.54834455	 -58.05247026
No	 -6.61779960	 -3.42055474	 -56.34878701
No	 -7.55710382	 -5.29276492	 -54.64510377
No	 -8.49640803	 -7.16497511	 -52.94142052
No	 1.19753927	 -6.98343818	 -53.81573749
No	 -0.41988137	 -4.99302541	 -54.65966134
No	 -1.35918558	 -6.86523560	 -52.95597810
No	 -2.03730200	 -3.00261263	 -55.50358520
No	 -2.97660621	 -4.87482282	 -53.79990195
No	 -3.91591043	 -6.74703301	 -52.09621871
No	 -3.65472263	 -1.01219985	 -56.34750906
No	 -4.59402685	 -2.88441004	 -54.64382581
No	 -5.53333106	 -4.75662023	 -52.94014256
No	 -6.47263527	 -6.62883042	 -51.23645932
No	 -5.27214327	 0.97821292	 -57.19143291
No	 -6.21144748	 -0.89399727	 -55.48774967
No	 -7.15075169	 -2.76620746	 -53.78406642
No	 -8.09005591	 -4.63841765	 -52.08038317
No	 -9.02936012	 -6.51062784	 -50.37669993
No	 3.22131202	 -6.44729349	 -52.11077629
No	 1.60389139	 -4.45688071	 -52.95470014
No	 0.66458718	 -6.32909090	 -51.25101690
No	 -0.01352924	 -2.46646794	 -53.79862400
No	 -0.95283346	 -4.33867813	 -52.09494075
No	 -1.89213767	 -6.21088832	 -50.39125751
No	 -1.63094988	 -0.47605516	 -54.64254785
No	 -2.57025409	 -2.34826535	 -52.93886461
No	 -3.50955830	 -4.22047554	 -51.23518136
No	 -4.44886252	 -6.09268573	 -49.53149812
No	 -3.24837051	 1.51435761	 -55.48647171
No	 -4.18767472	 -0.35785257	 -53.78278846
No	 -5.12697894	 -2.23006276	 -52.07910522
No	 -6.06628315	 -4.10227295	 -50.37542197
No	 -7.00558736	 -5.97448314	 -48.67173873
No	 -4.86579114	 3.50477039	 -56.33039557
No	 -5.80509535	 1.63256020	 -54.62671232
No	 -6.74439957	 -0.23964999	 -52.92302907
No	 -7.68370378	 -2.11186018	 -51.21934583
No	 -8.62300799	 -3.98407037	 -49.51566258
No	 -9.56231221	 -5.85628056	 -47.81197934
No	 5.24508478	 -5.91114880	 -50.40581509
No	 3.62766415	 -3.92073602	 -51.24973894
No	 2.68835993	 -5.79294621	 -49.54605570
No	 2.01024351	 -1.93032325	 -52.09366280
No	 1.07093930	 -3.80253344	 -50.38997955
No	 0.13163509	 -5.67474363	 -48.68629631
No	 0.39282288	 0.06008953	 -52.93758665
No	 -0.54648133	 -1.81212066	 -51.23390341
No	 -1.48578554	 -3.68433085	 -49.53022016
No	 -2.42508976	 -5.55654104	 -47.82653692
No	 -1.22459775	 2.05050231	 -53.78151051
No	 -2.16390196	 0.17829212	 -52.07782726
No	 -3.10320618	 -1.69391807	 -50.37414402
No	 -4.04251039	 -3.56612826	 -48.67046077
No	 -4.98181460	 -5.43833845	 -46.96677753
No	 -2.84201838	 4.04091508	 -54.62543437
No	 -3.78132260	 2.16870489	 -52.92175112
No	 -4.72062681	 0.29649470	 -51.21806787
No	 -5.65993102	 -1.57571549	 -49.51438463
No	 -6.59923524	 -3.44792567	 -47.81070138
No	 -7.53853945	 -5.32013586	 -46.10701814
No	 -4.45943902	 6.03132786	 -55.46935822
No	 -5.39874323	 4.15911767	 -53.76567498
No	 -6.33804744	 2.28690748	 -52.06199173
No	 -7.27735166	 0.41469729	 -50.35830848
No	 -8.21665587	 -1.45751290	 -48.65462524
No	 -9.15596008	 -3.32972309	 -46.95094199
No	 -10.09526430	 -5.20193328	 -45.24725875
No	 7.26885754	 -5.37500411	 -48.70085388
No	 5.65143690	 -3.38459133	 -49.54477774
No	 4.71213269	 -5.25680152	 -47.84109449
No	 4.03401627	 -1.39417855	 -50.38870160
No	 3.09471206	 -3.26638874	 -48.68501835
No	 2.15540785	 -5.13859893	 -46.98133510
No	 2.41659564	 0.59623422	 -51.23262545
No	 1.47729143	 -1.27597597	 -49.52894221
No	 0.53798721	 -3.14818616	 -47.82525896
No	 -0.40131700	 -5.02039635	 -46.12157572
No	 0.79917501	 2.58664700	 -52.07654931
No	 -0.14012921	 0.71443681	 -50.37286606
No	 -1.07943342	 -1.15777338	 -48.66918282
No	 -2.01873763	 -3.02998357	 -46.96549957
No	 -2.95804185	 -4.90219376	 -45.26181633
No	 -0.81824563	 4.57705978	 -52.92047316
No	 -1.75754984	 2.70484959	 -51.21678992
No	 -2.69685405	 0.83263940	 -49.51310667
No	 -3.63615827	 -1.03957079	 -47.80942343
No	 -4.57546248	 -2.91178098	 -46.10574018
No	 -5.51476669	 -4.78399117	 -44.40205694
No	 -2.43566626	 6.56747255	 -53.76439702
No	 -3.37497047	 4.69526236	 -52.06071377
No	 -4.31427469	 2.82305217	 -50.35703053
No	 -5.25357890	 0.95084198	 -48.65334728
No	 -6.19288311	 -0.92136821	 -46.94966404
No	 -7.13218733	 -2.79357840	 -45.24598079
No	 -8.07149154	 -4.66578858	 -43.54229755
No	 -4.05308689	 8.55788533	 -54.60832088
No	 -4.99239111	 6.68567514	 -52.90463763
No	 -5.93169532	 4.81346495	 -51.20095438
No	 -6.87099953	 2.94125476	 -49.49727114
No	 -7.81030375	 1.06904457	 -47.79358789
No	 -8.74960796	 -0.80316562	 -46.08990465
No	 -9.68891217	 -2.67537581	 -44.38622140
No	 -10.62821639	 -4.54758600	 -42.68253816
Au	 5.11787592	 14.41329617	 -28.14102776
Au	 4.25944618	 14.46182067	 -30.70046984
Au	 5.87686682	 12.47140790	 -29.85654598
No	 3.32014197	 12.58961049	 -28.99678659
Au	 3.40101644	 14.51034518	 -33.25991192
Au	 6.63585771	 10.52951963	 -31.57206420
No	 1.52240802	 10.76592480	 -29.85254543
Au	 2.54258671	 14.55886969	 -35.81935400
Au	 7.39484861	 8.58763136	 -33.28758243
No	 -0.27532593	 8.94223912	 -30.70830426
Au	 1.68415697	 14.60739420	 -38.37879608
Au	 8.15383950	 6.64574309	 -35.00310065
No	 -2.07305988	 7.11855344	 -31.56406309
Au	 0.82572723	 14.65591871	 -40.93823816
Au	 8.91283040	 4.70385483	 -36.71861888
No	 -3.87079383	 5.29486776	 -32.41982193
Au	 -0.03270250	 14.70444322	 -43.49768023
Au	 9.67182129	 2.76196656	 -38.43413710
No	 -5.66852778	 3.47118208	 -33.27558076
Au	 -0.89113224	 14.75296773	 -46.05712231
Au	 10.43081219	 0.82007829	 -40.14965532
No	 -7.46626173	 1.64749640	 -34.13133959
Au	 -1.74956198	 14.80149224	 -48.61656439
Au	 11.18980309	 -1.12180998	 -41.86517355
No	 -9.26399568	 -0.17618928	 -34.98709843
Au	 -2.60799172	 14.85001674	 -51.17600647
Au	 11.94879398	 -3.06369824	 -43.58069177
No	 -11.06172963	 -1.99987496	 -35.84285726
Au	 -3.46642145	 14.89854125	 -53.73544855
Au	 12.70778488	 -5.00558651	 -45.29620999
No	 -12.85946359	 -3.82356064	 -36.69861610
No	 11.09036425	 -3.01517373	 -46.14013385
No	 10.33137335	 -1.07328547	 -44.42461563
No	 9.47294361	 -1.02476096	 -46.98405771
No	 9.57238245	 0.86860280	 -42.70909740
No	 8.71395272	 0.91712731	 -45.26853948
No	 7.85552298	 0.96565182	 -47.82798156
No	 8.81339156	 2.81049107	 -40.99357918
No	 7.95496182	 2.85901558	 -43.55302126
No	 7.09653208	 2.90754009	 -46.11246334
No	 6.23810235	 2.95606459	 -48.67190542
No	 8.05440066	 4.75237934	 -39.27806096
No	 7.19597092	 4.80090384	 -41.83750303
No	 6.33754119	 4.84942835	 -44.39694511
No	 5.47911145	 4.89795286	 -46.95638719
No	 4.62068171	 4.94647737	 -49.51582927
No	 7.29540977	 6.69426760	 -37.56254273
No	 6.43698003	 6.74279211	 -40.12198481
No	 5.57855029	 6.79131662	 -42.68142689
No	 4.72012055	 6.83984113	 -45.24086897
No	 3.86169082	 6.88836564	 -47.80031105
No	 3.00326108	 6.93689015	 -50.35975313
No	 6.53641887	 8.63615587	 -35.84702451
No	 5.67798913	 8.68468038	 -38.40646659
No	 4.81955940	 8.73320489	 -40.96590867
No	 3.96112966	 8.78172940	 -43.52535075
No	 3.10269992	 8.83025391	 -46.08479283
No	 2.24427018	 8.87877842	 -48.64423491
No	 1.38584045	 8.92730292	 -51.20367699
No	 5.77742797	 10.57804414	 -34.13150628
No	 4.91899824	 10.62656865	 -36.69094836
No	 4.06056850	 10.67509316	 -39.25039044
No	 3.20213876	 10.72361767	 -41.80983252
No	 2.34370903	 10.77214217	 -44.36927460
No	 1.48527929	 10.82066668	 -46.92871668
No	 0.62684955	 10.86919119	 -49.48815876
No	 -0.23158019	 10.91771570	 -52.04760084
No	 5.01843708	 12.51993241	 -32.41598806
No	 4.16000734	 12.56845692	 -34.97543014
No	 3.30157760	 12.61698142	 -37.53487222
No	 2.44314787	 12.66550593	 -40.09431430
No	 1.58471813	 12.71403044	 -42.65375638
No	 0.72628839	 12.76255495	 -45.21319846
No	 -0.13214135	 12.81107946	 -47.77264054
No	 -0.99057108	 12.85960397	 -50.33208262
No	 -1.84900082	 12.90812848	 -52.89152470
No	 -4.40572567	 13.02633106	 -52.03176531
No	 -3.54729593	 12.97780656	 -49.47232323
No	 -5.34502988	 11.15412087	 -50.32808206
No	 -2.68886619	 12.92928205	 -46.91288115
No	 -4.48660014	 11.10559637	 -47.76863998
No	 -6.28433409	 9.28191069	 -48.62439882
No	 -1.83043645	 12.88075754	 -44.35343907
No	 -3.62817040	 11.05707186	 -45.20919790
No	 -5.42590436	 9.23338618	 -46.06495674
No	 -7.22363831	 7.40970050	 -46.92071557
No	 -0.97200672	 12.83223303	 -41.79399699
No	 -2.76974067	 11.00854735	 -42.64975582
No	 -4.56747462	 9.18486167	 -43.50551466
No	 -6.36520857	 7.36117599	 -44.36127349
No	 -8.16294252	 5.53749031	 -45.21703232
No	 -0.11357698	 12.78370852	 -39.23455491
No	 -1.91131093	 10.96002284	 -40.09031374
No	 -3.70904488	 9.13633716	 -40.94607258
No	 -5.50677883	 7.31265148	 -41.80183141
No	 -7.30451278	 5.48896580	 -42.65759024
No	 -9.10224673	 3.66528012	 -43.51334908
No	 0.74485276	 12.73518401	 -36.67511283
No	 -1.05288119	 10.91149833	 -37.53087166
No	 -2.85061514	 9.08781265	 -38.38663050
No	 -4.64834909	 7.26412697	 -39.24238933
No	 -6.44608304	 5.44044129	 -40.09814817
No	 -8.24381699	 3.61675561	 -40.95390700
No	 -10.04155095	 1.79306993	 -41.80966583
No	 1.60328249	 12.68665950	 -34.11567075
No	 -0.19445146	 10.86297382	 -34.97142958
No	 -1.99218541	 9.03928814	 -35.82718842
No	 -3.78991936	 7.21560246	 -36.68294725
No	 -5.58765331	 5.39191678	 -37.53870609
No	 -7.38538726	 3.56823110	 -38.39446492
No	 -9.18312121	 1.74454542	 -39.25022375
No	 -10.98085516	 -0.07914026	 -40.10598259
No	 2.46171223	 12.63813499	 -31.55622867
No	 0.66397828	 10.81444931	 -32.41198750
No	 -1.13375567	 8.99076363	 -33.26774634
No	 -2.93148962	 7.16707795	 -34.12350517
No	 -4.72922357	 5.34339227	 -34.97926401
No	 -6.52695752	 3.51970659	 -35.83502284
No	 -8.32469147	 1.69602091	 -36.69078167
No	 -10.12242542	 -0.12766477	 -37.54654051
No	 -11.92015937	 -1.95135045	 -38.40229934
No	 -10.30273874	 -3.94176323	 -37.55837549
No	 -8.50500479	 -2.11807755	 -36.70261665
No	 -7.74601389	 -4.05996581	 -38.41813488
No	 -6.70727084	 -0.29439187	 -35.84685782
No	 -5.94827994	 -2.23628013	 -37.56237604
No	 -5.18928905	 -4.17816840	 -39.27789427
No	 -4.90953689	 1.52929381	 -34.99109898
No	 -4.15054599	 -0.41259445	 -36.70661721
No	 -3.39155510	 -2.35448272	 -38.42213543
No	 -2.63256420	 -4.29637099	 -40.13765366
No	 -3.11180294	 3.35297949	 -34.13534015
No	 -2.35281204	 1.41109123	 -35.85085837
No	 -1.59382115	 -0.53079704	 -37.56637660
No	 -0.83483025	 -2.47268531	 -39.28189482
No	 -0.07583935	 -4.41457358	 -40.99741304
No	 -1.31406899	 5.17666518	 -33.27958132
No	 -0.55507809	 3.23477691	 -34.99509954
No	 0.20391281	 1.29288864	 -36.71061776
No	 0.96290370	 -0.64899963	 -38.42613599
No	 1.72189460	 -2.59088790	 -40.14165421
No	 2.48088549	 -4.53277616	 -41.85717243
No	 0.48366496	 7.00035086	 -32.42382248
No	 1.24265586	 5.05846259	 -34.13934071
No	 2.00164676	 3.11657432	 -35.85485893
No	 2.76063765	 1.17468605	 -37.57037715
No	 3.51962855	 -0.76720221	 -39.28589538
No	 4.27861944	 -2.70909048	 -41.00141360
No	 5.03761034	 -4.65097875	 -42.71693182
No	 2.28139891	 8.82403654	 -31.56806365
No	 3.04038981	 6.88214827	 -33.28358187
No	 3.79938071	 4.94026000	 -34.99910010
No	 4.55837160	 2.99837173	 -36.71461832
No	 5.31736250	 1.05648347	 -38.43013654
No	 6.07635339	 -0.88540480	 -40.14565477
No	 6.83534429	 -2.82729307	 -41.86117299
No	 7.59433519	 -4.76918134	 -43.57669121
No	 4.07913286	 10.64772222	 -30.71230482
No	 4.83812376	 8.70583395	 -32.42782304
No	 5.59711466	 6.76394568	 -34.14334126
No	 6.35610555	 4.82205741	 -35.85885949
No	 7.11509645	 2.88016915	 -37.57437771
No	 7.87408734	 0.93828088	 -39.28989593
No	 8.63307824	 -1.00360739	 -41.00541416
No	 9.39206914	 -2.94549566	 -42.72093238
No	 10.15106003	 -4.88738392	 -44.43645060
No	 3.22070313	 10.69624673	 -33.27174689
No	 3.97969402	 8.75435846	 -34.98726512
No	 2.36227339	 10.74477124	 -35.83118897
No	 1.42296918	 8.87256105	 -34.12750573
No	 4.73868492	 6.81247019	 -36.70278334
No	 3.12126429	 8.80288297	 -37.54670720
No	 2.18196007	 6.93067278	 -35.84302395
No	 1.50384365	 10.79329574	 -38.39063105
No	 0.56453944	 8.92108555	 -36.68694781
No	 -0.37476477	 7.04887536	 -34.98326456
No	 5.49767582	 4.87058192	 -38.41830157
No	 3.88025518	 6.86099470	 -39.26222542
No	 2.94095097	 4.98878451	 -37.55854218
No	 2.26283455	 8.85140748	 -40.10614928
No	 1.32353034	 6.97919729	 -38.40246603
No	 0.38422612	 5.10698710	 -36.69878279
No	 0.64541392	 10.84182025	 -40.95007313
No	 -0.29389030	 8.96961006	 -39.24638989
No	 -1.23319451	 7.09739987	 -37.54270664
No	 -2.17249872	 5.22518968	 -35.83902340
No	 6.25666671	 2.92869366	 -40.13381979
No	 4.63924608	 4.91910643	 -40.97774364
No	 3.69994187	 3.04689624	 -39.27406040
No	 3.02182545	 6.90951921	 -41.82166750
No	 2.08252123	 5.03730902	 -40.11798426
No	 1.14321702	 3.16509883	 -38.41430101
No	 1.40440481	 8.89993198	 -42.66559136
No	 0.46510060	 7.02772180	 -40.96190811
No	 -0.47420361	 5.15551161	 -39.25822487
No	 -1.41350783	 3.28330142	 -37.55454162
No	 -0.21301582	 10.89034476	 -43.50951521
No	 -1.15232003	 9.01813457	 -41.80583197
No	 -2.09162425	 7.14592438	 -40.10214872
No	 -3.03092846	 5.27371419	 -38.39846548
No	 -3.97023267	 3.40150400	 -36.69478223
No	 7.01565761	 0.98680539	 -41.84933801
No	 5.39823697	 2.97721816	 -42.69326187
No	 4.45893276	 1.10500797	 -40.98957862
No	 3.78081634	 4.96763094	 -43.53718572
No	 2.84151213	 3.09542075	 -41.83350248
No	 1.90220791	 1.22321056	 -40.12981923
No	 2.16339571	 6.95804372	 -44.38110958
No	 1.22409149	 5.08583353	 -42.67742633
No	 0.28478728	 3.21362334	 -40.97374309
No	 -0.65451693	 1.34141315	 -39.27005984
No	 0.54597507	 8.94845649	 -45.22503344
No	 -0.39332914	 7.07624630	 -43.52135019
No	 -1.33263335	 5.20403611	 -41.81766694
No	 -2.27193756	 3.33182593	 -40.11398370
No	 -3.21124178	 1.45961574	 -38.41030045
No	 -1.07144556	 10.93886927	 -46.06895729
No	 -2.01074977	 9.06665908	 -44.36527405
No	 -2.95005398	 7.19444889	 -42.66159080
No	 -3.88935820	 5.32223870	 -40.95790756
No	 -4.82866241	 3.45002851	 -39.25422431
No	 -5.76796662	 1.57781832	 -37.55054106
No	 7.77464850	 -0.95508288	 -43.56485624
No	 6.15722787	 1.03532990	 -44.40878009
No	 5.21792366	 -0.83688029	 -42.70509685
No	 4.53980724	 3.02574267	 -45.25270395
No	 3.60050302	 1.15353248	 -43.54902070
No	 2.66119881	 -0.71867771	 -41.84533746
No	 2.92238660	 5.01615545	 -46.09662780
No	 1.98308239	 3.14394526	 -44.39294456
No	 1.04377818	 1.27173507	 -42.68926131
No	 0.10447396	 -0.60047512	 -40.98557807
No	 1.30496597	 7.00656823	 -46.94055166
No	 0.36566176	 5.13435804	 -45.23686841
No	 -0.57364246	 3.26214785	 -43.53318517
No	 -1.51294667	 1.38993766	 -41.82950192
No	 -2.45225088	 -0.48227253	 -40.12581868
No	 -0.31245466	 8.99698100	 -47.78447552
No	 -1.25175888	 7.12477081	 -46.08079227
No	 -2.19106309	 5.25256062	 -44.37710902
No	 -3.13036730	 3.38035043	 -42.67342578
No	 -4.06967152	 1.50814024	 -40.96974253
No	 -5.00897573	 -0.36406994	 -39.26605929
No	 -1.92987530	 10.98739378	 -48.62839937
No	 -2.86917951	 9.11518359	 -46.92471613
No	 -3.80848372	 7.24297340	 -45.22103288
No	 -4.74778794	 5.37076321	 -43.51734963
No	 -5.68709215	 3.49855302	 -41.81366639
No	 -6.62639636	 1.62634283	 -40.10998314
No	 -7.56570058	 -0.24586736	 -38.40629990
No	 8.53363940	 -2.89697115	 -45.28037446
No	 6.91621877	 -0.90655837	 -46.12429832
No	 5.97691455	 -2.77876856	 -44.42061507
No	 5.29879813	 1.08385441	 -46.96822217
No	 4.35949392	 -0.78835578	 -45.26453893
No	 3.42018971	 -2.66056597	 -43.56085568
No	 3.68137750	 3.07426718	 -47.81214603
No	 2.74207329	 1.20205699	 -46.10846278
No	 1.80276907	 -0.67015320	 -44.40477954
No	 0.86346486	 -2.54236339	 -42.70109629
No	 2.06395687	 5.06467996	 -48.65606988
No	 1.12465265	 3.19246977	 -46.95238664
No	 0.18534844	 1.32025958	 -45.24870339
No	 -0.75395577	 -0.55195061	 -43.54502015
No	 -1.69325999	 -2.42416080	 -41.84133690
No	 0.44653623	 7.05509273	 -49.49999374
No	 -0.49276798	 5.18288255	 -47.79631049
No	 -1.43207219	 3.31067236	 -46.09262725
No	 -2.37137641	 1.43846217	 -44.38894400
No	 -3.31068062	 -0.43374802	 -42.68526076
No	 -4.24998483	 -2.30595821	 -40.98157751
No	 -1.17088440	 9.04550551	 -50.34391760
No	 -2.11018861	 7.17329532	 -48.64023435
No	 -3.04949283	 5.30108513	 -46.93655110
No	 -3.98879704	 3.42887494	 -45.23286786
No	 -4.92810125	 1.55666475	 -43.52918461
No	 -5.86740547	 -0.31554544	 -41.82550137
No	 -6.80670968	 -2.18775563	 -40.12181812
No	 -2.78830503	 11.03591829	 -51.18784145
No	 -3.72760925	 9.16370810	 -49.48415821
No	 -4.66691346	 7.29149791	 -47.78047496
No	 -5.60621767	 5.41928772	 -46.07679171
No	 -6.54552189	 3.54707753	 -44.37310847
No	 -7.48482610	 1.67486734	 -42.66942522
No	 -8.42413031	 -0.19734285	 -40.96574198
No	 -9.36343453	 -2.06955304	 -39.26205873
Au	 6.94315396	 -13.73468239	 -18.84319664
No	 5.28381029	 11.85438902	 -27.29577038
Au	 7.53621049	 -13.11766351	 -21.40397224
Au	 4.97948564	 -12.99946093	 -20.54421285
No	 5.44974465	 9.29548188	 -26.45051301
Au	 8.12926702	 -12.50064464	 -23.96474783
Au	 3.01581733	 -12.26423946	 -22.24522905
No	 5.61567902	 6.73657474	 -25.60525563
Au	 8.72232355	 -11.88362577	 -26.52552343
Au	 1.05214901	 -11.52901800	 -23.94624526
No	 5.78161339	 4.17766760	 -24.75999826
Au	 9.31538008	 -11.26660689	 -29.08629903
Au	 -0.91151931	 -10.79379654	 -25.64726147
No	 5.94754776	 1.61876046	 -23.91474088
Au	 9.90843660	 -10.64958802	 -31.64707463
Au	 -2.87518763	 -10.05857508	 -27.34827768
No	 6.11348212	 -0.94014668	 -23.06948351
Au	 10.50149313	 -10.03256915	 -34.20785023
Au	 -4.83885595	 -9.32335362	 -29.04929389
No	 6.27941649	 -3.49905382	 -22.22422614
Au	 11.09454966	 -9.41555027	 -36.76862582
Au	 -6.80252426	 -8.58813216	 -30.75031010
No	 6.44535086	 -6.05796096	 -21.37896876
Au	 11.68760619	 -8.79853140	 -39.32940142
Au	 -8.76619258	 -7.85291070	 -32.45132630
No	 6.61128523	 -8.61686810	 -20.53371139
Au	 12.28066272	 -8.18151253	 -41.89017702
Au	 -10.72986090	 -7.11768924	 -34.15234251
No	 6.77721959	 -11.17577524	 -19.68845401
Au	 12.87371925	 -7.56449365	 -44.45095262
Au	 -12.69352922	 -6.38246778	 -35.85335872
No	 12.11472835	 -5.62260538	 -42.73543440
No	 11.35573745	 -3.68071712	 -41.01991617
No	 11.52167182	 -6.23962426	 -40.17465880
No	 10.59674656	 -1.73882885	 -39.30439795
No	 10.76268093	 -4.29773599	 -38.45914057
No	 10.92861529	 -6.85664313	 -37.61388320
No	 9.83775566	 0.20305942	 -37.58887972
No	 10.00369003	 -2.35584772	 -36.74362235
No	 10.16962440	 -4.91475486	 -35.89836498
No	 10.33555877	 -7.47366200	 -35.05310760
No	 9.07876477	 2.14494769	 -35.87336150
No	 9.24469913	 -0.41395945	 -35.02810413
No	 9.41063350	 -2.97286660	 -34.18284675
No	 9.57656787	 -5.53177374	 -33.33758938
No	 9.74250224	 -8.09068088	 -32.49233200
No	 8.31977387	 4.08683595	 -34.15784328
No	 8.48570824	 1.52792881	 -33.31258590
No	 8.65164261	 -1.03097833	 -32.46732853
No	 8.81757697	 -3.58988547	 -31.62207115
No	 8.98351134	 -6.14879261	 -30.77681378
No	 9.14944571	 -8.70769975	 -29.93155640
No	 7.56078297	 6.02872422	 -32.44232505
No	 7.72671734	 3.46981708	 -31.59706768
No	 7.89265171	 0.91090994	 -30.75181030
No	 8.05858608	 -1.64799720	 -29.90655293
No	 8.22452044	 -4.20690434	 -29.06129556
No	 8.39045481	 -6.76581148	 -28.21603818
No	 8.55638918	 -9.32471862	 -27.37078081
No	 6.80179208	 7.97061249	 -30.72680683
No	 6.96772645	 5.41170535	 -29.88154946
No	 7.13366081	 2.85279821	 -29.03629208
No	 7.29959518	 0.29389107	 -28.19103471
No	 7.46552955	 -2.26501607	 -27.34577733
No	 7.63146392	 -4.82392322	 -26.50051996
No	 7.79739828	 -7.38283036	 -25.65526258
No	 7.96333265	 -9.94173750	 -24.81000521
No	 6.04280118	 9.91250076	 -29.01128861
No	 6.20873555	 7.35359362	 -28.16603123
No	 6.37466992	 4.79468647	 -27.32077386
No	 6.54060429	 2.23577933	 -26.47551648
No	 6.70653865	 -0.32312781	 -25.63025911
No	 6.87247302	 -2.88203495	 -24.78500173
No	 7.03840739	 -5.44094209	 -23.93974436
No	 7.20434176	 -7.99984923	 -23.09448698
No	 7.37027612	 -10.55875637	 -22.24922961
No	 4.81355128	 -10.44055378	 -21.38947022
No	 4.64761691	 -7.88164664	 -22.23472760
No	 2.84988296	 -9.70533232	 -23.09048643
No	 4.48168254	 -5.32273950	 -23.07998497
No	 2.68394859	 -7.14642518	 -23.93574380
No	 0.88621464	 -8.97011086	 -24.79150264
No	 4.31574817	 -2.76383236	 -23.92524234
No	 2.51801422	 -4.58751804	 -24.78100118
No	 0.72028027	 -6.41120372	 -25.63676001
No	 -1.07745368	 -8.23488940	 -26.49251885
No	 4.14981381	 -0.20492522	 -24.77049972
No	 2.35207986	 -2.02861090	 -25.62625855
No	 0.55434591	 -3.85229658	 -26.48201739
No	 -1.24338804	 -5.67598226	 -27.33777622
No	 -3.04112200	 -7.49966794	 -28.19353505
No	 3.98387944	 2.35398192	 -25.61575709
No	 2.18614549	 0.53029624	 -26.47151593
No	 0.38841154	 -1.29338944	 -27.32727476
No	 -1.40932241	 -3.11707512	 -28.18303359
No	 -3.20705636	 -4.94076080	 -29.03879243
No	 -5.00479031	 -6.76444648	 -29.89455126
No	 3.81794507	 4.91288906	 -26.46101447
No	 2.02021112	 3.08920338	 -27.31677330
No	 0.22247717	 1.26551770	 -28.17253214
No	 -1.57525678	 -0.55816798	 -29.02829097
No	 -3.37299073	 -2.38185366	 -29.88404980
No	 -5.17072468	 -4.20553934	 -30.73980864
No	 -6.96845863	 -6.02922502	 -31.59556747
No	 3.65201070	 7.47179620	 -27.30627184
No	 1.85427675	 5.64811052	 -28.16203068
No	 0.05654280	 3.82442484	 -29.01778951
No	 -1.74119115	 2.00073916	 -29.87354834
No	 -3.53892510	 0.17705348	 -30.72930718
No	 -5.33665905	 -1.64663220	 -31.58506601
No	 -7.13439300	 -3.47031788	 -32.44082485
No	 -8.93212695	 -5.29400356	 -33.29658368
No	 3.48607634	 10.03070334	 -28.15152922
No	 1.68834239	 8.20701766	 -29.00728805
No	 -0.10939156	 6.38333198	 -29.86304688
No	 -1.90712551	 4.55964630	 -30.71880572
No	 -3.70485947	 2.73596062	 -31.57456455
No	 -5.50259342	 0.91227494	 -32.43032339
No	 -7.30032737	 -0.91141074	 -33.28608222
No	 -9.09806132	 -2.73509642	 -34.14184105
No	 -10.89579527	 -4.55878210	 -34.99759989
No	 10.31699440	 -7.44629107	 -43.59119323
No	 9.72393787	 -8.06330994	 -41.03041763
No	 7.76026955	 -7.32808848	 -42.73143384
No	 9.13088134	 -8.68032881	 -38.46964203
No	 7.16721303	 -7.94510735	 -40.17065824
No	 5.20354471	 -7.20988589	 -41.87167445
No	 8.53782481	 -9.29734769	 -35.90886644
No	 6.57415650	 -8.56212622	 -37.60988264
No	 4.61048818	 -7.82690476	 -39.31089885
No	 2.64681986	 -7.09168330	 -41.01191506
No	 7.94476829	 -9.91436656	 -33.34809084
No	 5.98109997	 -9.17914510	 -35.04910705
No	 4.01743165	 -8.44392364	 -36.75012325
No	 2.05376333	 -7.70870218	 -38.45113946
No	 0.09009501	 -6.97348072	 -40.15215567
No	 7.35171176	 -10.53138543	 -30.78731524
No	 5.38804344	 -9.79616397	 -32.48833145
No	 3.42437512	 -9.06094251	 -34.18934766
No	 1.46070680	 -8.32572105	 -35.89036386
No	 -0.50296151	 -7.59049959	 -37.59138007
No	 -2.46662983	 -6.85527813	 -39.29239628
No	 6.75865523	 -11.14840431	 -28.22653964
No	 4.79498691	 -10.41318284	 -29.92755585
No	 2.83131859	 -9.67796138	 -31.62857206
No	 0.86765028	 -8.94273992	 -33.32958827
No	 -1.09601804	 -8.20751846	 -35.03060447
No	 -3.05968636	 -7.47229700	 -36.73162068
No	 -5.02335468	 -6.73707554	 -38.43263689
No	 6.16559870	 -11.76542318	 -25.66576404
No	 4.20193038	 -11.03020172	 -27.36678025
No	 2.23826207	 -10.29498026	 -29.06779646
No	 0.27459375	 -9.55975880	 -30.76881267
No	 -1.68907457	 -8.82453734	 -32.46982888
No	 -3.65274289	 -8.08931588	 -34.17084508
No	 -5.61641121	 -7.35409442	 -35.87186129
No	 -7.58007952	 -6.61887296	 -37.57287750
No	 5.57254217	 -12.38244205	 -23.10498844
No	 3.60887385	 -11.64722059	 -24.80600465
No	 1.64520554	 -10.91199913	 -26.50702086
No	 -0.31846278	 -10.17677767	 -28.20803707
No	 -2.28213110	 -9.44155621	 -29.90905328
No	 -4.24579942	 -8.70633475	 -31.61006949
No	 -6.20946774	 -7.97111329	 -33.31108569
No	 -8.17313605	 -7.23589183	 -35.01210190
No	 -10.13680437	 -6.50067037	 -36.71311811
No	 4.24506723	 8.08881508	 -29.86704744
No	 5.00405813	 6.14692681	 -31.58256566
No	 4.41100160	 5.52990794	 -29.02179007
No	 2.44733328	 6.26512940	 -30.72280627
No	 5.76304902	 4.20503854	 -33.29808389
No	 5.16999250	 3.58801967	 -30.73730829
No	 3.20632418	 4.32324113	 -32.43832450
No	 4.57693597	 2.97100079	 -28.17653269
No	 2.61326765	 3.70622225	 -29.87754890
No	 0.64959933	 4.44144372	 -31.57856511
No	 6.52203992	 2.26315027	 -35.01360211
No	 5.92898339	 1.64613140	 -32.45282651
No	 3.96531507	 2.38135286	 -34.15384272
No	 5.33592686	 1.02911253	 -29.89205092
No	 3.37225855	 1.76433399	 -31.59306712
No	 1.40859023	 2.49955545	 -33.29408333
No	 4.74287033	 0.41209365	 -27.33127532
No	 2.77920202	 1.14731511	 -29.03229153
No	 0.81553370	 1.88253657	 -30.73330773
No	 -1.14813462	 2.61775803	 -32.43432394
No	 7.28103082	 0.32126201	 -36.72912034
No	 6.68797429	 -0.29575687	 -34.16834474
No	 4.72430597	 0.43946459	 -35.86936095
No	 6.09491776	 -0.91277574	 -31.60756914
No	 4.13124944	 -0.17755428	 -33.30858535
No	 2.16758112	 0.55766718	 -35.00960156
No	 5.50186123	 -1.52979461	 -29.04679354
No	 3.53819291	 -0.79457315	 -30.74780975
No	 1.57452459	 -0.05935169	 -32.44882596
No	 -0.38914372	 0.67586977	 -34.14984217
No	 4.90880470	 -2.14681349	 -26.48601794
No	 2.94513638	 -1.41159203	 -28.18703415
No	 0.98146807	 -0.67637057	 -29.88805036
No	 -0.98220025	 0.05885089	 -31.58906657
No	 -2.94586857	 0.79407235	 -33.29008278
No	 8.04002171	 -1.62062626	 -38.44463856
No	 7.44696518	 -2.23764514	 -35.88386296
No	 5.48329687	 -1.50242368	 -37.58487917
No	 6.85390866	 -2.85466401	 -33.32308736
No	 4.89024034	 -2.11944255	 -35.02410357
No	 2.92657202	 -1.38422109	 -36.72511978
No	 6.26085213	 -3.47168288	 -30.76231176
No	 4.29718381	 -2.73646142	 -32.46332797
No	 2.33351549	 -2.00123996	 -34.16434418
No	 0.36984717	 -1.26601850	 -35.86536039
No	 5.66779560	 -4.08870176	 -28.20153617
No	 3.70412728	 -3.35348030	 -29.90255237
No	 1.74045896	 -2.61825883	 -31.60356858
No	 -0.22320936	 -1.88303737	 -33.30458479
No	 -2.18687767	 -1.14781591	 -35.00560100
No	 5.07473907	 -4.70572063	 -25.64076057
No	 3.11107075	 -3.97049917	 -27.34177678
No	 1.14740243	 -3.23527771	 -29.04279298
No	 -0.81626588	 -2.50005625	 -30.74380919
No	 -2.77993420	 -1.76483479	 -32.44482540
No	 -4.74360252	 -1.02961333	 -34.14584161
No	 8.79901261	 -3.56251453	 -40.16015678
No	 8.20595608	 -4.17953340	 -37.59938118
No	 6.24228776	 -3.44431194	 -39.30039739
No	 7.61289955	 -4.79655228	 -35.03860559
No	 5.64923123	 -4.06133082	 -36.73962179
No	 3.68556292	 -3.32610936	 -38.44063800
No	 7.01984302	 -5.41357115	 -32.47782999
No	 5.05617470	 -4.67834969	 -34.17884620
No	 3.09250639	 -3.94312823	 -35.87986240
No	 1.12883807	 -3.20790677	 -37.58087861
No	 6.42678649	 -6.03059002	 -29.91705439
No	 4.46311818	 -5.29536856	 -31.61807060
No	 2.49944986	 -4.56014710	 -33.31908681
No	 0.53578154	 -3.82492564	 -35.02010301
No	 -1.42788678	 -3.08970418	 -36.72111922
No	 5.83372997	 -6.64760890	 -27.35627879
No	 3.87006165	 -5.91238744	 -29.05729500
No	 1.90639333	 -5.17716598	 -30.75831121
No	 -0.05727499	 -4.44194452	 -32.45932742
No	 -2.02094331	 -3.70672305	 -34.16034363
No	 -3.98461162	 -2.97150159	 -35.86135983
No	 5.24067344	 -7.26462777	 -24.79550319
No	 3.27700512	 -6.52940631	 -26.49651940
No	 1.31333680	 -5.79418485	 -28.19753561
No	 -0.65033152	 -5.05896339	 -29.89855182
No	 -2.61399983	 -4.32374193	 -31.59956803
No	 -4.57766815	 -3.58852047	 -33.30058424
No	 -6.54133647	 -2.85329901	 -35.00160044
No	 9.55800350	 -5.50440280	 -41.87567501
No	 8.96494698	 -6.12142167	 -39.31489941
No	 7.00127866	 -5.38620021	 -41.01591562
No	 8.37189045	 -6.73844054	 -36.75412381
No	 6.40822213	 -6.00321908	 -38.45514002
No	 4.44455381	 -5.26799762	 -40.15615623
No	 7.77883392	 -7.35545942	 -34.19334821
No	 5.81516560	 -6.62023796	 -35.89436442
No	 3.85149728	 -5.88501650	 -37.59538063
No	 1.88782896	 -5.14979504	 -39.29639684
No	 7.18577739	 -7.97247829	 -31.63257261
No	 5.22210907	 -7.23725683	 -33.33358882
No	 3.25844075	 -6.50203537	 -35.03460503
No	 1.29477244	 -5.76681391	 -36.73562124
No	 -0.66889588	 -5.03159245	 -38.43663745
No	 6.59272086	 -8.58949716	 -29.07179702
No	 4.62905254	 -7.85427570	 -30.77281322
No	 2.66538423	 -7.11905424	 -32.47382943
No	 0.70171591	 -6.38383278	 -34.17484564
No	 -1.26195241	 -5.64861132	 -35.87586185
No	 -3.22562073	 -4.91338986	 -37.57687806
No	 5.99966433	 -9.20651604	 -26.51102142
No	 4.03599602	 -8.47129458	 -28.21203763
No	 2.07232770	 -7.73607312	 -29.91305383
No	 0.10865938	 -7.00085166	 -31.61407004
No	 -1.85500894	 -6.26563020	 -33.31508625
No	 -3.81867726	 -5.53040874	 -35.01610246
No	 -5.78234557	 -4.79518728	 -36.71711867
No	 5.40660781	 -9.82353491	 -23.95024582
No	 3.44293949	 -9.08831345	 -25.65126203
No	 1.47927117	 -8.35309199	 -27.35227824
No	 -0.48439715	 -7.61787053	 -29.05329444
No	 -2.44806547	 -6.88264907	 -30.75431065
No	 -4.41173378	 -6.14742761	 -32.45532686
No	 -6.37540210	 -5.41220615	 -34.15634307
No	 -8.33907042	 -4.67698469	 -35.85735928
Au	 -15.19755421	 3.63505309	 -9.34733800
Au	 3.27101863	 13.43345589	 -26.43251051
No	 4.93036231	 -12.15561552	 -17.97993676
Au	 -15.14843088	 2.79120768	 -11.91161408
Au	 1.42416135	 12.45361561	 -24.72399326
No	 2.91757066	 -10.57654866	 -17.11667689
Au	 -15.09930754	 1.94736228	 -14.47589017
Au	 -0.42269593	 11.47377533	 -23.01547601
No	 0.90477901	 -8.99748180	 -16.25341701
Au	 -15.05018421	 1.10351688	 -17.04016625
Au	 -2.26955322	 10.49393505	 -21.30695875
No	 -1.10801265	 -7.41841494	 -15.39015713
Au	 -15.00106087	 0.25967148	 -19.60444234
Au	 -4.11641050	 9.51409477	 -19.59844150
No	 -3.12080430	 -5.83934808	 -14.52689726
Au	 -14.95193754	 -0.58417392	 -22.16871842
Au	 -5.96326779	 8.53425449	 -17.88992425
No	 -5.13359595	 -4.26028122	 -13.66363738
Au	 -14.90281421	 -1.42801932	 -24.73299451
Au	 -7.81012507	 7.55441421	 -16.18140700
No	 -7.14638760	 -2.68121436	 -12.80037750
Au	 -14.85369087	 -2.27186472	 -27.29727059
Au	 -9.65698236	 6.57457393	 -14.47288975
No	 -9.15917925	 -1.10214750	 -11.93711763
Au	 -14.80456754	 -3.11571012	 -29.86154668
Au	 -11.50383964	 5.59473365	 -12.76437250
No	 -11.17197091	 0.47691936	 -11.07385775
Au	 -14.75544420	 -3.95955552	 -32.42582276
Au	 -13.35069693	 4.61489337	 -11.05585525
No	 -13.18476256	 2.05598622	 -10.21059788
Au	 -14.70632087	 -4.80340092	 -34.99009885
No	 -11.33790527	 3.03582650	 -11.91911513
No	 -9.49104799	 4.01566678	 -13.62763238
No	 -9.32511362	 1.45675964	 -12.78237500
No	 -7.64419071	 4.99550706	 -15.33614963
No	 -7.47825634	 2.43659992	 -14.49089225
No	 -7.31232197	 -0.12230722	 -13.64563488
No	 -5.79733342	 5.97534734	 -17.04466688
No	 -5.63139905	 3.41644020	 -16.19940950
No	 -5.46546469	 0.85753306	 -15.35415213
No	 -5.29953032	 -1.70137408	 -14.50889476
No	 -3.95047614	 6.95518762	 -18.75318413
No	 -3.78454177	 4.39628048	 -17.90792675
No	 -3.61860740	 1.83737334	 -17.06266938
No	 -3.45267303	 -0.72153380	 -16.21741201
No	 -3.28673867	 -3.28044094	 -15.37215463
No	 -2.10361885	 7.93502790	 -20.46170138
No	 -1.93768448	 5.37612076	 -19.61644401
No	 -1.77175012	 2.81721362	 -18.77118663
No	 -1.60581575	 0.25830648	 -17.92592926
No	 -1.43988138	 -2.30060066	 -17.08067188
No	 -1.27394701	 -4.85950780	 -16.23541451
No	 -0.25676157	 8.91486818	 -22.17021863
No	 -0.09082720	 6.35596104	 -21.32496126
No	 0.07510717	 3.79705390	 -20.47970388
No	 0.24104154	 1.23814676	 -19.63444651
No	 0.40697590	 -1.32076038	 -18.78918913
No	 0.57291027	 -3.87966752	 -17.94393176
No	 0.73884464	 -6.43857466	 -17.09867438
No	 1.59009572	 9.89470846	 -23.87873588
No	 1.75603009	 7.33580132	 -23.03347851
No	 1.92196445	 4.77689418	 -22.18822113
No	 2.08789882	 2.21798704	 -21.34296376
No	 2.25383319	 -0.34092010	 -20.49770638
No	 2.41976756	 -2.89982724	 -19.65244901
No	 2.58570192	 -5.45873438	 -18.80719163
No	 2.75163629	 -8.01764152	 -17.96193426
No	 3.43695300	 10.87454874	 -25.58725313
No	 3.60288737	 8.31564160	 -24.74199576
No	 3.76882174	 5.75673446	 -23.89673838
No	 3.93475610	 3.19782732	 -23.05148101
No	 4.10069047	 0.63892018	 -22.20622363
No	 4.26662484	 -1.91998696	 -21.36096626
No	 4.43255921	 -4.47889410	 -20.51570889
No	 4.59849357	 -7.03780124	 -19.67045151
No	 4.76442794	 -9.59670838	 -18.82519414
No	 -12.90858692	 -2.97971524	 -34.13434001
No	 -11.11085297	 -1.15602956	 -33.27858118
No	 -12.95771025	 -2.13586984	 -31.57006393
No	 -9.31311902	 0.66765612	 -32.42282234
No	 -11.15997630	 -0.31218416	 -30.71430509
No	 -13.00683359	 -1.29202444	 -29.00578784
No	 -7.51538507	 2.49134180	 -31.56706351
No	 -9.36224235	 1.51150152	 -29.85854626
No	 -11.20909964	 0.53166124	 -28.15002901
No	 -13.05595692	 -0.44817904	 -26.44151176
No	 -5.71765112	 4.31502748	 -30.71130468
No	 -7.56450840	 3.33518720	 -29.00278743
No	 -9.41136569	 2.35534692	 -27.29427017
No	 -11.25822297	 1.37550664	 -25.58575292
No	 -13.10508026	 0.39566636	 -23.87723567
No	 -3.91991717	 6.13871316	 -29.85554584
No	 -5.76677445	 5.15887288	 -28.14702859
No	 -7.61363174	 4.17903260	 -26.43851134
No	 -9.46048902	 3.19919232	 -24.72999409
No	 -11.30734631	 2.21935204	 -23.02147684
No	 -13.15420359	 1.23951176	 -21.31295959
No	 -2.12218322	 7.96239884	 -28.99978701
No	 -3.96904050	 6.98255856	 -27.29126976
No	 -5.81589779	 6.00271828	 -25.58275251
No	 -7.66275507	 5.02287800	 -23.87423526
No	 -9.50961235	 4.04303772	 -22.16571801
No	 -11.35646964	 3.06319744	 -20.45720075
No	 -13.20332692	 2.08335716	 -18.74868350
No	 -0.32444927	 9.78608452	 -28.14402817
No	 -2.17130655	 8.80624424	 -26.43551092
No	 -4.01816384	 7.82640396	 -24.72699367
No	 -5.86502112	 6.84656368	 -23.01847642
No	 -7.71187840	 5.86672340	 -21.30995917
No	 -9.55873569	 4.88688312	 -19.60144192
No	 -11.40559297	 3.90704284	 -17.89292467
No	 -13.25245026	 2.92720256	 -16.18440742
No	 1.47328468	 11.60977021	 -27.28826934
No	 -0.37357260	 10.62992993	 -25.57975209
No	 -2.22042988	 9.65008964	 -23.87123484
No	 -4.06728717	 8.67024936	 -22.16271759
No	 -5.91414445	 7.69040908	 -20.45420034
No	 -7.76100174	 6.71056880	 -18.74568309
No	 -9.60785902	 5.73072852	 -17.03716584
No	 -11.45471631	 4.75088824	 -15.32864859
No	 -13.30157359	 3.77104796	 -13.62013133
No	 -13.13563922	 1.21214082	 -12.77487396
No	 -11.12284757	 -0.36692604	 -13.63813384
No	 -13.08651589	 0.36829542	 -15.33915004
No	 -9.11005592	 -1.94599290	 -14.50139371
No	 -11.07372424	 -1.21077144	 -16.20240992
No	 -13.03739256	 -0.47554998	 -17.90342613
No	 -7.09726427	 -3.52505976	 -15.36465359
No	 -9.06093259	 -2.78983830	 -17.06566980
No	 -11.02460090	 -2.05461684	 -18.76668601
No	 -12.98826922	 -1.31939538	 -20.46770221
No	 -5.08447262	 -5.10412662	 -16.22791347
No	 -7.04814093	 -4.36890516	 -17.92892967
No	 -9.01180925	 -3.63368370	 -19.62994588
No	 -10.97547757	 -2.89846224	 -21.33096209
No	 -12.93914589	 -2.16324078	 -23.03197830
No	 -3.07168096	 -6.68319348	 -17.09117334
No	 -5.03534928	 -5.94797202	 -18.79218955
No	 -6.99901760	 -5.21275056	 -20.49320576
No	 -8.96268592	 -4.47752910	 -22.19422197
No	 -10.92635424	 -3.74230764	 -23.89523817
No	 -12.89002255	 -3.00708618	 -25.59625438
No	 -1.05888931	 -8.26226034	 -17.95443322
No	 -3.02255763	 -7.52703888	 -19.65544943
No	 -4.98622595	 -6.79181742	 -21.35646563
No	 -6.94989427	 -6.05659596	 -23.05748184
No	 -8.91356258	 -5.32137450	 -24.75849805
No	 -10.87723090	 -4.58615304	 -26.45951426
No	 -12.84089922	 -3.85093158	 -28.16053047
No	 0.95390234	 -9.84132720	 -18.81769309
No	 -1.00976598	 -9.10610574	 -20.51870930
No	 -2.97343430	 -8.37088428	 -22.21972551
No	 -4.93710261	 -7.63566282	 -23.92074172
No	 -6.90077093	 -6.90044136	 -25.62175793
No	 -8.86443925	 -6.16521990	 -27.32277414
No	 -10.82810757	 -5.42999844	 -29.02379034
No	 -12.79177589	 -4.69477698	 -30.72480655
No	 2.96669399	 -11.42039406	 -19.68095297
No	 1.00302567	 -10.68517260	 -21.38196918
No	 -0.96064264	 -9.94995114	 -23.08298539
No	 -2.92431096	 -9.21472968	 -24.78400160
No	 -4.88797928	 -8.47950822	 -26.48501780
No	 -6.85164760	 -7.74428676	 -28.18603401
No	 -8.81531592	 -7.00906530	 -29.88705022
No	 -10.77898423	 -6.27384384	 -31.58806643
No	 -12.74265255	 -5.53862238	 -33.28908264
No	 1.63921905	 9.05086306	 -26.44301197
No	 -0.20763823	 8.07102278	 -24.73449472
No	 1.80515342	 6.49195592	 -25.59775459
No	 -0.15851490	 7.22717738	 -27.29877080
No	 -2.05449552	 7.09118250	 -23.02597746
No	 -0.04170387	 5.51211564	 -23.88923734
No	 -2.00537218	 6.24733710	 -25.59025355
No	 1.97108779	 3.93304878	 -24.75249722
No	 0.00741947	 4.66827024	 -26.45351343
No	 -1.95624885	 5.40349170	 -28.15452963
No	 -3.90135280	 6.11134222	 -21.31746021
No	 -1.88856115	 4.53227536	 -22.18072009
No	 -3.85222947	 5.26749682	 -23.88173630
No	 0.12423050	 2.95320850	 -23.04397997
No	 -1.83943782	 3.68842996	 -24.74499617
No	 -3.80310613	 4.42365142	 -26.44601238
No	 2.13702215	 1.37414164	 -23.90723984
No	 0.17335384	 2.10936310	 -25.60825605
No	 -1.79031448	 2.84458456	 -27.30927226
No	 -3.75398280	 3.57980602	 -29.01028847
No	 -5.74821009	 5.13150194	 -19.60894296
No	 -3.73541843	 3.55243508	 -20.47220284
No	 -5.69908675	 4.28765654	 -22.17321905
No	 -1.72262678	 1.97336822	 -21.33546272
No	 -3.68629510	 2.70858968	 -23.03647892
No	 -5.64996342	 3.44381114	 -24.73749513
No	 0.29016487	 0.39430136	 -22.19872259
No	 -1.67350345	 1.12952282	 -23.89973880
No	 -3.63717177	 1.86474428	 -25.60075501
No	 -5.60084008	 2.59996574	 -27.30177122
No	 2.30295652	 -1.18476550	 -23.06198247
No	 0.33928820	 -0.44954404	 -24.76299868
No	 -1.62438011	 0.28567742	 -26.46401488
No	 -3.58804843	 1.02089888	 -28.16503109
No	 -5.55171675	 1.75612034	 -29.86604730
No	 -7.59506737	 4.15166166	 -17.90042571
No	 -5.58227572	 2.57259480	 -18.76368559
No	 -7.54594404	 3.30781626	 -20.46470180
No	 -3.56948407	 0.99352794	 -19.62694546
No	 -5.53315238	 1.72874940	 -21.32796167
No	 -7.49682070	 2.46397086	 -23.02897788
No	 -1.55669241	 -0.58553892	 -20.49020534
No	 -3.52036073	 0.14968254	 -22.19122155
No	 -5.48402905	 0.88490400	 -23.89223776
No	 -7.44769737	 1.62012546	 -25.59325397
No	 0.45609924	 -2.16460578	 -21.35346522
No	 -1.50756908	 -1.42938432	 -23.05448143
No	 -3.47123740	 -0.69416286	 -24.75549763
No	 -5.43490572	 0.04105860	 -26.45651384
No	 -7.39857403	 0.77628006	 -28.15753005
No	 2.46889089	 -3.74367264	 -22.21672509
No	 0.50522257	 -3.00845118	 -23.91774130
No	 -1.45844575	 -2.27322972	 -25.61875751
No	 -3.42211406	 -1.53800826	 -27.31977372
No	 -5.38578238	 -0.80278680	 -29.02078993
No	 -7.34945070	 -0.06756534	 -30.72180614
No	 -9.44192466	 3.17182138	 -16.19190846
No	 -7.42913300	 1.59275452	 -17.05516834
No	 -9.39280132	 2.32797598	 -18.75618455
No	 -5.41634135	 0.01368766	 -17.91842821
No	 -7.38000967	 0.74890912	 -19.61944442
No	 -9.34367799	 1.48413058	 -21.32046063
No	 -3.40354970	 -1.56537920	 -18.78168809
No	 -5.36721802	 -0.83015774	 -20.48270430
No	 -7.33088634	 -0.09493628	 -22.18372051
No	 -9.29455465	 0.64028518	 -23.88473672
No	 -1.39075805	 -3.14444606	 -19.64494797
No	 -3.35442637	 -2.40922460	 -21.34596417
No	 -5.31809468	 -1.67400314	 -23.04698038
No	 -7.28176300	 -0.93878168	 -24.74799659
No	 -9.24543132	 -0.20356022	 -26.44901280
No	 0.62203360	 -4.72351292	 -20.50820784
No	 -1.34163471	 -3.98829146	 -22.20922405
No	 -3.30530303	 -3.25307000	 -23.91024026
No	 -5.26897135	 -2.51784854	 -25.61125647
No	 -7.23263967	 -1.78262708	 -27.31227268
No	 -9.19630798	 -1.04740562	 -29.01328888
No	 2.63482526	 -6.30257978	 -21.37146772
No	 0.67115694	 -5.56735832	 -23.07248393
No	 -1.29251138	 -4.83213686	 -24.77350014
No	 -3.25617970	 -4.09691540	 -26.47451634
No	 -5.21984801	 -3.36169394	 -28.17553255
No	 -7.18351633	 -2.62647248	 -29.87654876
No	 -9.14718465	 -1.89125102	 -31.57756497
No	 -11.28878194	 2.19198110	 -14.48339121
No	 -9.27599029	 0.61291424	 -15.34665109
No	 -11.23965861	 1.34813570	 -17.04766730
No	 -7.26319864	 -0.96615262	 -16.20991096
No	 -9.22686695	 -0.23093116	 -17.91092717
No	 -11.19053527	 0.50429030	 -19.61194338
No	 -5.25040698	 -2.54521948	 -17.07317084
No	 -7.21407530	 -1.80999802	 -18.77418705
No	 -9.17774362	 -1.07477656	 -20.47520326
No	 -11.14141194	 -0.33955510	 -22.17621946
No	 -3.23761533	 -4.12428634	 -17.93643072
No	 -5.20128365	 -3.38906488	 -19.63744692
No	 -7.16495197	 -2.65384342	 -21.33846313
No	 -9.12862029	 -1.91862196	 -23.03947934
No	 -11.09228860	 -1.18340050	 -24.74049555
No	 -1.22482368	 -5.70335320	 -18.79969059
No	 -3.18849200	 -4.96813174	 -20.50070680
No	 -5.15216032	 -4.23291028	 -22.20172301
No	 -7.11582863	 -3.49768882	 -23.90273922
No	 -9.07949695	 -2.76246736	 -25.60375543
No	 -11.04316527	 -2.02724590	 -27.30477163
No	 0.78796797	 -7.28242006	 -19.66295047
No	 -1.17570035	 -6.54719860	 -21.36396668
No	 -3.13936866	 -5.81197714	 -23.06498289
No	 -5.10303698	 -5.07675568	 -24.76599909
No	 -7.06670530	 -4.34153422	 -26.46701530
No	 -9.03037362	 -3.60631276	 -28.16803151
No	 -10.99404194	 -2.87109130	 -29.86904772
No	 2.80075962	 -8.86148692	 -20.52621034
No	 0.83709131	 -8.12626546	 -22.22722655
No	 -1.12657701	 -7.39104400	 -23.92824276
No	 -3.09024533	 -6.65582254	 -25.62925897
No	 -5.05391365	 -5.92060108	 -27.33027518
No	 -7.01758197	 -5.18537962	 -29.03129139
No	 -8.98125028	 -4.45015816	 -30.73230759
No	 -10.94491860	 -3.71493670	 -32.43332380
Au	 12.56618132	 8.52302423	 0.00000000
Au	 5.79499459	 13.87781690	 -25.58275251
Au	 7.45433827	 -11.71125451	 -17.13017876
No	 -12.67357825	 4.07941410	 -8.49758000
Au	 6.47211326	 13.34233763	 -23.02447726
Au	 7.96552257	 -9.68782664	 -15.41716089
No	 -10.14960230	 4.52377511	 -7.64782200
Au	 7.14923194	 12.80685837	 -20.46620201
Au	 8.47670688	 -7.66439876	 -13.70414301
No	 -7.62562634	 4.96813613	 -6.79806400
Au	 7.82635061	 12.27137910	 -17.90792675
Au	 8.98789118	 -5.64097089	 -11.99112513
No	 -5.10165038	 5.41249714	 -5.94830600
Au	 8.50346928	 11.73589983	 -15.34965150
Au	 9.49907549	 -3.61754301	 -10.27810726
No	 -2.57767443	 5.85685815	 -5.09854800
Au	 9.18058795	 11.20042057	 -12.79137625
Au	 10.01025979	 -1.59411514	 -8.56508938
No	 -0.05369847	 6.30121916	 -4.24879000
Au	 9.85770663	 10.66494130	 -10.23310100
Au	 10.52144410	 0.42931273	 -6.85207150
No	 2.47027749	 6.74558018	 -3.39903200
Au	 10.53482530	 10.12946203	 -7.67482575
Au	 11.03262840	 2.45274061	 -5.13905363
No	 4.99425345	 7.18994119	 -2.54927400
Au	 11.21194397	 9.59398276	 -5.11655050
Au	 11.54381271	 4.47616848	 -3.42603575
No	 7.51822940	 7.63430220	 -1.69951600
Au	 11.88906264	 9.05850350	 -2.55827525
Au	 12.05499701	 6.49959636	 -1.71301788
No	 10.04220536	 8.07866322	 -0.84975800
No	 7.28840390	 -9.15234737	 -17.97543614
No	 7.12246953	 -6.59344023	 -18.82069351
No	 7.79958820	 -7.12891950	 -16.26241826
No	 6.95653516	 -4.03453309	 -19.66595089
No	 7.63365384	 -4.57001236	 -17.10767563
No	 8.31077251	 -5.10549162	 -14.54940038
No	 6.79060080	 -1.47562595	 -20.51120826
No	 7.46771947	 -2.01110521	 -17.95293301
No	 8.14483814	 -2.54658448	 -15.39465776
No	 8.82195681	 -3.08206375	 -12.83638251
No	 6.62466643	 1.08328119	 -21.35646563
No	 7.30178510	 0.54780193	 -18.79819038
No	 7.97890377	 0.01232266	 -16.23991513
No	 8.65602245	 -0.52315661	 -13.68163988
No	 9.33314112	 -1.05863587	 -11.12336463
No	 6.45873206	 3.64218833	 -22.20172301
No	 7.13585073	 3.10670907	 -19.64344776
No	 7.81296941	 2.57122980	 -17.08517251
No	 8.49008808	 2.03575053	 -14.52689726
No	 9.16720675	 1.50027127	 -11.96862201
No	 9.84432542	 0.96479200	 -9.41034676
No	 6.29279769	 6.20109548	 -23.04698038
No	 6.96991637	 5.66561621	 -20.48870513
No	 7.64703504	 5.13013694	 -17.93042988
No	 8.32415371	 4.59465768	 -15.37215463
No	 9.00127238	 4.05917841	 -12.81387938
No	 9.67839106	 3.52369914	 -10.25560413
No	 10.35550973	 2.98821988	 -7.69732888
No	 6.12686333	 8.76000262	 -23.89223776
No	 6.80398200	 8.22452335	 -21.33396251
No	 7.48110067	 7.68904408	 -18.77568726
No	 8.15821934	 7.15356482	 -16.21741201
No	 8.83533802	 6.61808555	 -13.65913676
No	 9.51245669	 6.08260628	 -11.10086150
No	 10.18957536	 5.54712702	 -8.54258625
No	 10.86669403	 5.01164775	 -5.98431100
No	 5.96092896	 11.31890976	 -24.73749513
No	 6.63804763	 10.78343049	 -22.17921988
No	 7.31516630	 10.24795122	 -19.62094463
No	 7.99228498	 9.71247196	 -17.06266938
No	 8.66940365	 9.17699269	 -14.50439413
No	 9.34652232	 8.64151342	 -11.94611888
No	 10.02364099	 8.10603416	 -9.38784363
No	 10.70075967	 7.57055489	 -6.82956838
No	 11.37787834	 7.03507562	 -4.27129313
No	 9.36508669	 8.61414248	 -3.40803325
No	 8.68796801	 9.14962175	 -5.96630850
No	 6.84111073	 8.16978147	 -4.25779125
No	 8.01084934	 9.68510102	 -8.52458375
No	 6.16399206	 8.70526074	 -6.81606650
No	 4.31713477	 7.72542046	 -5.10754925
No	 7.33373067	 10.22058029	 -11.08285900
No	 5.48687338	 9.24074001	 -9.37434175
No	 3.64001610	 8.26089973	 -7.66582450
No	 1.79315882	 7.28105944	 -5.95730725
No	 6.65661200	 10.75605955	 -13.64113425
No	 4.80975471	 9.77621927	 -11.93261700
No	 2.96289743	 8.79637899	 -10.22409975
No	 1.11604014	 7.81653871	 -8.51558250
No	 -0.73081714	 6.83669843	 -6.80706525
No	 5.97949332	 11.29153882	 -16.19940950
No	 4.13263604	 10.31169854	 -14.49089225
No	 2.28577876	 9.33185826	 -12.78237500
No	 0.43892147	 8.35201798	 -11.07385775
No	 -1.40793581	 7.37217770	 -9.36534050
No	 -3.25479310	 6.39233742	 -7.65682325
No	 5.30237465	 11.82701809	 -18.75768475
No	 3.45551737	 10.84717781	 -17.04916750
No	 1.60866008	 9.86733753	 -15.34065025
No	 -0.23819720	 8.88749725	 -13.63213300
No	 -2.08505449	 7.90765697	 -11.92361575
No	 -3.93191177	 6.92781669	 -10.21509850
No	 -5.77876906	 5.94797641	 -8.50658125
No	 4.62525598	 12.36249735	 -21.31596001
No	 2.77839870	 11.38265707	 -19.60744275
No	 0.93154141	 10.40281679	 -17.89892550
No	 -0.91531587	 9.42297651	 -16.19040825
No	 -2.76217316	 8.44313623	 -14.48189100
No	 -4.60903044	 7.46329595	 -12.77337375
No	 -6.45588773	 6.48345567	 -11.06485650
No	 -8.30274501	 5.50361539	 -9.35633925
No	 3.94813731	 12.89797662	 -23.87423526
No	 2.10128002	 11.91813634	 -22.16571801
No	 0.25442274	 10.93829606	 -20.45720075
No	 -1.59243455	 9.95845578	 -18.74868350
No	 -3.43929183	 8.97861550	 -17.04016625
No	 -5.28614912	 7.99877522	 -15.33164900
No	 -7.13300640	 7.01893494	 -13.62313175
No	 -8.97986368	 6.03909466	 -11.91461450
No	 -10.82672097	 5.05925438	 -10.20609725
No	 -10.66078660	 2.50034724	 -9.36083988
No	 -8.64799495	 0.92128038	 -10.22409975
No	 -8.13681064	 2.94470825	 -8.51108188
No	 -6.63520330	 -0.65778648	 -11.08735963
No	 -6.12401899	 1.36564139	 -9.37434175
No	 -5.61283469	 3.38906926	 -7.66132388
No	 -4.62241165	 -2.23685335	 -11.95061950
No	 -4.11122734	 -0.21342547	 -10.23760163
No	 -3.60004304	 1.81000240	 -8.52458375
No	 -3.08885873	 3.83343028	 -6.81156588
No	 -2.60961999	 -3.81592021	 -12.81387938
No	 -2.09843569	 -1.79249233	 -11.10086150
No	 -1.58725138	 0.23093554	 -9.38784363
No	 -1.07606708	 2.25436342	 -7.67482575
No	 -0.56488277	 4.27779129	 -5.96180788
No	 -0.59682834	 -5.39498707	 -13.67713926
No	 -0.08564404	 -3.37155919	 -11.96412138
No	 0.42554027	 -1.34813132	 -10.25110350
No	 0.93672457	 0.67529656	 -8.53808563
No	 1.44790888	 2.69872443	 -6.82506775
No	 1.95909318	 4.72215230	 -5.11204988
No	 1.41596331	 -6.97405393	 -14.54039913
No	 1.92714762	 -4.95062605	 -12.82738126
No	 2.43833192	 -2.92719818	 -11.11436338
No	 2.94951623	 -0.90377031	 -9.40134550
No	 3.46070053	 1.11965757	 -7.68832763
No	 3.97188484	 3.14308544	 -5.97530975
No	 4.48306914	 5.16651332	 -4.26229188
No	 3.42875496	 -8.55312079	 -15.40365901
No	 3.93993927	 -6.52969292	 -13.69064113
No	 4.45112357	 -4.50626504	 -11.97762326
No	 4.96230788	 -2.48283717	 -10.26460538
No	 5.47349218	 -0.45940929	 -8.55158750
No	 5.98467649	 1.56401858	 -6.83856963
No	 6.49586079	 3.58744646	 -5.12555175
No	 7.00704510	 5.61087433	 -3.41253388
No	 5.44154661	 -10.13218765	 -16.26691889
No	 5.95273092	 -8.10875978	 -14.55390101
No	 6.46391522	 -6.08533190	 -12.84088313
No	 6.97509953	 -4.06190403	 -11.12786526
No	 7.48628383	 -2.03847615	 -9.41484738
No	 7.99746814	 -0.01504828	 -7.70182950
No	 8.50865244	 2.00837960	 -5.98881163
No	 9.01983675	 4.03180747	 -4.27579375
No	 9.53102105	 6.05523534	 -2.56277588
No	 4.11407167	 10.33906948	 -23.02897788
No	 2.26721439	 9.35922920	 -21.32046063
No	 4.28000604	 7.78016234	 -22.18372051
No	 4.79119035	 9.80359021	 -20.47070263
No	 0.42035711	 8.37938892	 -19.61194338
No	 2.43314876	 6.80032206	 -20.47520326
No	 2.94433306	 8.82374993	 -18.76218538
No	 4.44594041	 5.22125520	 -21.33846313
No	 4.95712471	 7.24468307	 -19.62544526
No	 5.46830902	 9.26811094	 -17.91242738
No	 -1.42650018	 7.39954864	 -17.90342613
No	 0.58629147	 5.82048178	 -18.76668601
No	 1.09747578	 7.84390965	 -17.05366813
No	 2.59908313	 4.24141492	 -19.62994588
No	 3.11026743	 6.26484279	 -17.91692801
No	 3.62145173	 8.28827066	 -16.20391013
No	 4.61187478	 2.66234805	 -20.49320576
No	 5.12305908	 4.68577593	 -18.78018788
No	 5.63424339	 6.70920380	 -17.06717001
No	 6.14542769	 8.73263168	 -15.35415213
No	 -3.27335746	 6.41970836	 -16.19490888
No	 -1.26056581	 4.84064150	 -17.05816875
No	 -0.74938151	 6.86406937	 -15.34515088
No	 0.75222584	 3.26157464	 -17.92142863
No	 1.26341015	 5.28500251	 -16.20841075
No	 1.77459445	 7.30843038	 -14.49539288
No	 2.76501749	 1.68250777	 -18.78468851
No	 3.27620180	 3.70593565	 -17.07167063
No	 3.78738610	 5.72936352	 -15.35865276
No	 4.29857041	 7.75279140	 -13.64563488
No	 4.77780914	 0.10344091	 -19.64794838
No	 5.28899345	 2.12686879	 -17.93493051
No	 5.80017775	 4.15029666	 -16.22191263
No	 6.31136206	 6.17372454	 -14.50889476
No	 6.82254636	 8.19715241	 -12.79587688
No	 -5.12021475	 5.43986808	 -14.48639163
No	 -3.10742310	 3.86080122	 -15.34965150
No	 -2.59623879	 5.88422909	 -13.63663363
No	 -1.09463144	 2.28173436	 -16.21291138
No	 -0.58344714	 4.30516223	 -14.49989350
No	 -0.07226283	 6.32859010	 -12.78687563
No	 0.91816021	 0.70266749	 -17.07617126
No	 1.42934451	 2.72609537	 -15.36315338
No	 1.94052882	 4.74952324	 -13.65013550
No	 2.45171312	 6.77295112	 -11.93711763
No	 2.93095186	 -0.87639937	 -17.93943113
No	 3.44213617	 1.14702851	 -16.22641326
No	 3.95332047	 3.17045638	 -14.51339538
No	 4.46450477	 5.19388426	 -12.80037750
No	 4.97568908	 7.21731213	 -11.08735963
No	 4.94374351	 -2.45546623	 -18.80269101
No	 5.45492782	 -0.43203835	 -17.08967313
No	 5.96611212	 1.59138952	 -15.37665526
No	 6.47729643	 3.61481740	 -13.66363738
No	 6.98848073	 5.63824527	 -11.95061950
No	 7.49966504	 7.66167314	 -10.23760163
No	 -6.96707203	 4.46002780	 -12.77787438
No	 -4.95428038	 2.88096094	 -13.64113425
No	 -4.44309608	 4.90438881	 -11.92811638
No	 -2.94148873	 1.30189408	 -14.50439413
No	 -2.43030442	 3.32532195	 -12.79137625
No	 -1.91912012	 5.34874982	 -11.07835838
No	 -0.92869708	 -0.27717279	 -15.36765401
No	 -0.41751277	 1.74625509	 -13.65463613
No	 0.09367153	 3.76968296	 -11.94161825
No	 0.60485584	 5.79311084	 -10.22860038
No	 1.08409458	 -1.85623965	 -16.23091388
No	 1.59527888	 0.16718823	 -14.51789601
No	 2.10646319	 2.19061610	 -12.80487813
No	 2.61764749	 4.21404398	 -11.09186025
No	 3.12883180	 6.23747185	 -9.37884238
No	 3.09688623	 -3.43530651	 -17.09417376
No	 3.60807053	 -1.41187863	 -15.38115588
No	 4.11925484	 0.61154924	 -13.66813801
No	 4.63043914	 2.63497712	 -11.95512013
No	 5.14162345	 4.65840499	 -10.24210225
No	 5.65280775	 6.68183286	 -8.52908438
No	 5.10967788	 -5.01437337	 -17.95743363
No	 5.62086218	 -2.99094549	 -16.24441576
No	 6.13204649	 -0.96751762	 -14.53139788
No	 6.64323079	 1.05591025	 -12.81838001
No	 7.15441510	 3.07933813	 -11.10536213
No	 7.66559940	 5.10276600	 -9.39234425
No	 8.17678371	 7.12619388	 -7.67932638
No	 -8.81392932	 3.48018752	 -11.06935713
No	 -6.80113767	 1.90112066	 -11.93261700
No	 -6.28995336	 3.92454853	 -10.21959913
No	 -4.78834601	 0.32205380	 -12.79587688
No	 -4.27716171	 2.34548167	 -11.08285900
No	 -3.76597740	 4.36890954	 -9.36984113
No	 -2.77555436	 -1.25701307	 -13.65913676
No	 -2.26437006	 0.76641481	 -11.94611888
No	 -1.75318575	 2.78984268	 -10.23310100
No	 -1.24200145	 4.81327056	 -8.52008313
No	 -0.76276271	 -2.83607993	 -14.52239663
No	 -0.25157840	 -0.81265205	 -12.80937876
No	 0.25960590	 1.21077582	 -11.09636088
No	 0.77079021	 3.23420370	 -9.38334300
No	 1.28197451	 5.25763157	 -7.67032513
No	 1.25002894	 -4.41514679	 -15.38565651
No	 1.76121325	 -2.39171891	 -13.67263863
No	 2.27239755	 -0.36829104	 -11.95962076
No	 2.78358186	 1.65513684	 -10.24660288
No	 3.29476616	 3.67856471	 -8.53358500
No	 3.80595047	 5.70199258	 -6.82056713
No	 3.26282060	 -5.99421365	 -16.24891638
No	 3.77400490	 -3.97078577	 -14.53589851
No	 4.28518921	 -1.94735790	 -12.82288063
No	 4.79637351	 0.07606997	 -11.10986276
No	 5.30755781	 2.09949785	 -9.39684488
No	 5.81874212	 4.12292572	 -7.68382700
No	 6.32992642	 6.14635360	 -5.97080913
No	 5.27561225	 -7.57328051	 -17.11217626
No	 5.78679655	 -5.54985264	 -15.39915838
No	 6.29798086	 -3.52642476	 -13.68614051
No	 6.80916516	 -1.50299689	 -11.97312263
No	 7.32034947	 0.52043099	 -10.26010476
No	 7.83153377	 2.54385886	 -8.54708688
No	 8.34271808	 4.56728674	 -6.83406900
No	 8.85390238	 6.59071461	 -5.12105113
Au	 -2.24335521	 -15.46436621	 9.34733800
Au	 -1.40821801	 -15.30712223	 6.78456212
Au	 -3.42100966	 -13.72805537	 7.64782200
No	 -0.89703371	 -13.28369435	 8.49758000
Au	 -0.57308081	 -15.14987824	 4.22178625
Au	 -4.59866412	 -11.99174452	 5.94830600
No	 0.44928780	 -11.10302249	 7.64782200
Au	 0.26205638	 -14.99263426	 1.65901037
Au	 -5.77631857	 -10.25543368	 4.24879000
No	 1.79560930	 -8.92235064	 6.79806400
Au	 1.09719358	 -14.83539028	 -0.90376550
Au	 -6.95397303	 -8.51912283	 2.54927400
No	 3.14193080	 -6.74167878	 5.94830600
Au	 1.93233078	 -14.67814629	 -3.46654138
Au	 -8.13162748	 -6.78281199	 0.84975800
No	 4.48825230	 -4.56100692	 5.09854800
Au	 2.76746798	 -14.52090231	 -6.02931726
Au	 -9.30928194	 -5.04650114	 -0.84975800
No	 5.83457381	 -2.38033506	 4.24879000
Au	 3.60260517	 -14.36365832	 -8.59209313
Au	 -10.48693639	 -3.31019030	 -2.54927400
No	 7.18089531	 -0.19966320	 3.39903200
Au	 4.43774237	 -14.20641434	 -11.15486901
Au	 -11.66459085	 -1.57387945	 -4.24879000
No	 8.52721681	 1.98100866	 2.54927400
Au	 5.27287957	 -14.04917035	 -13.71764489
Au	 -12.84224530	 0.16243139	 -5.94830600
No	 9.87353831	 4.16168051	 1.69951600
Au	 6.10801676	 -13.89192637	 -16.28042076
Au	 -14.01989976	 1.89874224	 -7.64782200
No	 11.21985981	 6.34235237	 0.84975800
No	 -12.00710810	 0.31967538	 -8.51108188
No	 -10.82945365	 -1.41663547	 -6.81156588
No	 -9.99431645	 -1.25939148	 -9.37434175
No	 -9.65179919	 -3.15294631	 -5.11204988
No	 -8.81666200	 -2.99570233	 -7.67482575
No	 -7.98152480	 -2.83845834	 -10.23760163
No	 -8.47414474	 -4.88925716	 -3.41253388
No	 -7.63900754	 -4.73201317	 -5.97530975
No	 -6.80387034	 -4.57476919	 -8.53808563
No	 -5.96873315	 -4.41752520	 -11.10086150
No	 -7.29649028	 -6.62556800	 -1.71301788
No	 -6.46135309	 -6.46832402	 -4.27579375
No	 -5.62621589	 -6.31108003	 -6.83856963
No	 -4.79107869	 -6.15383605	 -9.40134550
No	 -3.95594150	 -5.99659206	 -11.96412138
No	 -6.11883583	 -8.36187885	 -0.01350188
No	 -5.28369863	 -8.20463486	 -2.57627775
No	 -4.44856144	 -8.04739088	 -5.13905363
No	 -3.61342424	 -7.89014689	 -7.70182950
No	 -2.77828704	 -7.73290291	 -10.26460538
No	 -1.94314984	 -7.57565893	 -12.82738126
No	 -4.94118137	 -10.09818969	 1.68601412
No	 -4.10604418	 -9.94094571	 -0.87676175
No	 -3.27090698	 -9.78370172	 -3.43953763
No	 -2.43576978	 -9.62645774	 -6.00231350
No	 -1.60063259	 -9.46921376	 -8.56508938
No	 -0.76549539	 -9.31196977	 -11.12786526
No	 0.06964181	 -9.15472579	 -13.69064113
No	 -3.76352692	 -11.83450054	 3.38553012
No	 -2.92838972	 -11.67725655	 0.82275425
No	 -2.09325253	 -11.52001257	 -1.74002163
No	 -1.25811533	 -11.36276858	 -4.30279750
No	 -0.42297813	 -11.20552460	 -6.86557338
No	 0.41215907	 -11.04828062	 -9.42834926
No	 1.24729626	 -10.89103663	 -11.99112513
No	 2.08243346	 -10.73379265	 -14.55390101
No	 -2.58587247	 -13.57081138	 5.08504612
No	 -1.75073527	 -13.41356740	 2.52227025
No	 -0.91559807	 -13.25632341	 -0.04050563
No	 -0.08046087	 -13.09907943	 -2.60328150
No	 0.75467632	 -12.94183545	 -5.16605738
No	 1.58981352	 -12.78459146	 -7.72883326
No	 2.42495072	 -12.62734748	 -10.29160913
No	 3.26008792	 -12.47010349	 -12.85438501
No	 4.09522511	 -12.31285951	 -15.41716089
No	 6.61920107	 -11.86849850	 -14.56740289
No	 5.78406387	 -12.02574248	 -12.00462701
No	 7.13038537	 -9.84507062	 -12.85438501
No	 4.94892668	 -12.18298646	 -9.44185113
No	 6.29524818	 -10.00231461	 -10.29160913
No	 7.64156968	 -7.82164275	 -11.14136713
No	 4.11378948	 -12.34023045	 -6.87907526
No	 5.46011098	 -10.15955859	 -7.72883326
No	 6.80643248	 -7.97888673	 -8.57859126
No	 8.15275398	 -5.79821487	 -9.42834926
No	 3.27865228	 -12.49747443	 -4.31629938
No	 4.62497378	 -10.31680257	 -5.16605738
No	 5.97129528	 -8.13613072	 -6.01581538
No	 7.31761679	 -5.95545886	 -6.86557338
No	 8.66393829	 -3.77478700	 -7.71533138
No	 2.44351508	 -12.65471842	 -1.75352350
No	 3.78983659	 -10.47404656	 -2.60328150
No	 5.13615809	 -8.29337470	 -3.45303950
No	 6.48247959	 -6.11270284	 -4.30279750
No	 7.82880109	 -3.93203098	 -5.15255550
No	 9.17512259	 -1.75135912	 -6.00231350
No	 1.60837789	 -12.81196240	 0.80925237
No	 2.95469939	 -10.63129054	 -0.04050563
No	 4.30102089	 -8.45061868	 -0.89026363
No	 5.64734239	 -6.26994683	 -1.74002163
No	 6.99366389	 -4.08927497	 -2.58977963
No	 8.33998540	 -1.90860311	 -3.43953763
No	 9.68630690	 0.27206875	 -4.28929563
No	 0.77324069	 -12.96920638	 3.37202825
No	 2.11956219	 -10.78853453	 2.52227025
No	 3.46588369	 -8.60786267	 1.67251225
No	 4.81220520	 -6.42719081	 0.82275425
No	 6.15852670	 -4.24651895	 -0.02700375
No	 7.50484820	 -2.06584709	 -0.87676175
No	 8.85116970	 0.11482477	 -1.72651975
No	 10.19749120	 2.29549662	 -2.57627775
No	 -0.06189651	 -13.12645037	 5.93480412
No	 1.28442499	 -10.94577851	 5.08504612
No	 2.63074650	 -8.76510665	 4.23528812
No	 3.97706800	 -6.58443479	 3.38553012
No	 5.32338950	 -4.40376294	 2.53577212
No	 6.66971100	 -2.22309108	 1.68601412
No	 8.01603250	 -0.04241922	 0.83625612
No	 9.36235401	 2.13825264	 -0.01350188
No	 10.70867551	 4.31892450	 -0.86325988
No	 8.69588386	 5.89799136	 0.00000000
No	 7.34956235	 3.71731950	 0.84975800
No	 6.17190790	 5.45363035	 -0.84975800
No	 6.00324085	 1.53664764	 1.69951600
No	 4.82558640	 3.27295849	 0.00000000
No	 3.64793194	 5.00926933	 -1.69951600
No	 4.65691935	 -0.64402422	 2.54927400
No	 3.47926490	 1.09228663	 0.84975800
No	 2.30161044	 2.82859747	 -0.84975800
No	 1.12395599	 4.56490832	 -2.54927400
No	 3.31059785	 -2.82469607	 3.39903200
No	 2.13294339	 -1.08838523	 1.69951600
No	 0.95528894	 0.64792562	 0.00000000
No	 -0.22236552	 2.38423646	 -1.69951600
No	 -1.40001997	 4.12054731	 -3.39903200
No	 1.96427635	 -5.00536793	 4.24879000
No	 0.78662189	 -3.26905709	 2.54927400
No	 -0.39103256	 -1.53274624	 0.84975800
No	 -1.56868702	 0.20356460	 -0.84975800
No	 -2.74634147	 1.93987545	 -2.54927400
No	 -3.92399593	 3.67618629	 -4.24879000
No	 0.61795484	 -7.18603979	 5.09854800
No	 -0.55969961	 -5.44972895	 3.39903200
No	 -1.73735407	 -3.71341810	 1.69951600
No	 -2.91500852	 -1.97710726	 0.00000000
No	 -4.09266298	 -0.24079641	 -1.69951600
No	 -5.27031743	 1.49551443	 -3.39903200
No	 -6.44797189	 3.23182528	 -5.09854800
No	 -0.72836666	 -9.36671165	 5.94830600
No	 -1.90602111	 -7.63040080	 4.24879000
No	 -3.08367557	 -5.89408996	 2.54927400
No	 -4.26133002	 -4.15777911	 0.84975800
No	 -5.43898448	 -2.42146827	 -0.84975800
No	 -6.61663893	 -0.68515742	 -2.54927400
No	 -7.79429339	 1.05115342	 -4.24879000
No	 -8.97194784	 2.78746427	 -5.94830600
No	 -2.07468816	 -11.54738351	 6.79806400
No	 -3.25234262	 -9.81107266	 5.09854800
No	 -4.42999707	 -8.07476182	 3.39903200
No	 -5.60765152	 -6.33845097	 1.69951600
No	 -6.78530598	 -4.60214013	 0.00000000
No	 -7.96296043	 -2.86582928	 -1.69951600
No	 -9.14061489	 -1.12951844	 -3.39903200
No	 -10.31826934	 0.60679241	 -5.09854800
No	 -11.49592380	 2.34310325	 -6.79806400
No	 -1.23955096	 -11.39013952	 4.23528812
No	 -2.41720542	 -9.65382868	 2.53577212
No	 -0.40441377	 -11.23289554	 1.67251225
No	 0.10677054	 -9.20946767	 3.38553012
No	 -3.59485987	 -7.91751783	 0.83625612
No	 -1.58206822	 -9.49658469	 -0.02700375
No	 -1.07088392	 -7.47315682	 1.68601412
No	 0.43072343	 -11.07565156	 -0.89026363
No	 0.94190774	 -9.05222368	 0.82275425
No	 1.45309204	 -7.02879581	 2.53577212
No	 -4.77251433	 -6.18120699	 -0.86325988
No	 -2.75972268	 -7.76027385	 -1.72651975
No	 -2.24853837	 -5.73684598	 -0.01350188
No	 -0.74693102	 -9.33934071	 -2.58977963
No	 -0.23574672	 -7.31591284	 -0.87676175
No	 0.27543759	 -5.29248496	 0.83625612
No	 1.26586063	 -10.91840757	 -3.45303950
No	 1.77704493	 -8.89497970	 -1.74002163
No	 2.28822924	 -6.87155182	 -0.02700375
No	 2.79941354	 -4.84812395	 1.68601412
No	 -5.95016878	 -4.44489614	 -2.56277588
No	 -3.93737713	 -6.02396300	 -3.42603575
No	 -3.42619283	 -4.00053513	 -1.71301788
No	 -1.92458548	 -7.60302987	 -4.28929563
No	 -1.41340117	 -5.57960199	 -2.57627775
No	 -0.90221687	 -3.55617412	 -0.86325988
No	 0.08820617	 -9.18209673	 -5.15255550
No	 0.59939048	 -7.15866885	 -3.43953763
No	 1.11057478	 -5.13524098	 -1.72651975
No	 1.62175909	 -3.11181310	 -0.01350188
No	 2.10099783	 -10.76116359	 -6.01581538
No	 2.61218213	 -8.73773571	 -4.30279750
No	 3.12336644	 -6.71430784	 -2.58977963
No	 3.63455074	 -4.69087996	 -0.87676175
No	 4.14573505	 -2.66745209	 0.83625612
No	 -7.12782324	 -2.70858530	 -4.26229188
No	 -5.11503159	 -4.28765216	 -5.12555175
No	 -4.60384728	 -2.26422428	 -3.41253388
No	 -3.10223993	 -5.86671902	 -5.98881163
No	 -2.59105563	 -3.84329115	 -4.27579375
No	 -2.07987132	 -1.81986327	 -2.56277588
No	 -1.08944828	 -7.44578588	 -6.85207150
No	 -0.57826398	 -5.42235801	 -5.13905363
No	 -0.06707967	 -3.39893013	 -3.42603575
No	 0.44410463	 -1.37550226	 -1.71301788
No	 0.92334337	 -9.02485274	 -7.71533138
No	 1.43452768	 -7.00142487	 -6.00231350
No	 1.94571198	 -4.97799699	 -4.28929563
No	 2.45689629	 -2.95456912	 -2.57627775
No	 2.96808059	 -0.93114124	 -0.86325988
No	 2.93613502	 -10.60391960	 -8.57859126
No	 3.44731933	 -8.58049173	 -6.86557338
No	 3.95850363	 -6.55706385	 -5.15255550
No	 4.46968794	 -4.53363598	 -3.43953763
No	 4.98087224	 -2.51020811	 -1.72651975
No	 5.49205655	 -0.48678023	 -0.01350188
No	 -8.30547769	 -0.97227445	 -5.96180788
No	 -6.29268604	 -2.55134131	 -6.82506775
No	 -5.78150174	 -0.52791344	 -5.11204988
No	 -4.27989439	 -4.13040817	 -7.68832763
No	 -3.76871008	 -2.10698030	 -5.97530975
No	 -3.25752578	 -0.08355243	 -4.26229188
No	 -2.26710274	 -5.70947504	 -8.55158750
No	 -1.75591843	 -3.68604716	 -6.83856963
No	 -1.24473413	 -1.66261929	 -5.12555175
No	 -0.73354982	 0.36080859	 -3.41253388
No	 -0.25431108	 -7.28854190	 -9.41484738
No	 0.25687322	 -5.26511402	 -7.70182950
No	 0.76805753	 -3.24168615	 -5.98881163
No	 1.27924183	 -1.21825827	 -4.27579375
No	 1.79042614	 0.80516960	 -2.56277588
No	 1.75848057	 -8.86760876	 -10.27810726
No	 2.26966487	 -6.84418088	 -8.56508938
No	 2.78084918	 -4.82075301	 -6.85207150
No	 3.29203348	 -2.79732513	 -5.13905363
No	 3.80321779	 -0.77389726	 -3.42603575
No	 4.31440209	 1.24953061	 -1.71301788
No	 3.77127222	 -10.44667562	 -11.14136713
No	 4.28245653	 -8.42324774	 -9.42834926
No	 4.79364083	 -6.39981987	 -7.71533138
No	 5.30482514	 -4.37639200	 -6.00231350
No	 5.81600944	 -2.35296412	 -4.28929563
No	 6.32719374	 -0.32953625	 -2.57627775
No	 6.83837805	 1.69389163	 -0.86325988
No	 -9.48313215	 0.76403639	 -7.66132388
No	 -7.47034049	 -0.81503047	 -8.52458375
No	 -6.95915619	 1.20839741	 -6.81156588
No	 -5.45754884	 -2.39409733	 -9.38784363
No	 -4.94636454	 -0.37066946	 -7.67482575
No	 -4.43518023	 1.65275842	 -5.96180788
No	 -3.44475719	 -3.97316419	 -10.25110350
No	 -2.93357289	 -1.94973632	 -8.53808563
No	 -2.42238858	 0.07369156	 -6.82506775
No	 -1.91120428	 2.09711943	 -5.11204988
No	 -1.43196554	 -5.55223105	 -11.11436338
No	 -0.92078123	 -3.52880318	 -9.40134550
No	 -0.40959693	 -1.50537530	 -7.68832763
No	 0.10158738	 0.51805257	 -5.97530975
No	 0.61277168	 2.54148045	 -4.26229188
No	 0.58082611	 -7.13129791	 -11.97762326
No	 1.09201042	 -5.10787004	 -10.26460538
No	 1.60319472	 -3.08444216	 -8.55158750
No	 2.11437903	 -1.06101429	 -6.83856963
No	 2.62556333	 0.96241358	 -5.12555175
No	 3.13674764	 2.98584146	 -3.41253388
No	 2.59361777	 -8.71036477	 -12.84088313
No	 3.10480207	 -6.68693690	 -11.12786526
No	 3.61598638	 -4.66350903	 -9.41484738
No	 4.12717068	 -2.64008115	 -7.70182950
No	 4.63835499	 -0.61665328	 -5.98881163
No	 5.14953929	 1.40677460	 -4.27579375
No	 5.66072359	 3.43020247	 -2.56277588
No	 4.60640942	 -10.28943163	 -13.70414301
No	 5.11759372	 -8.26600376	 -11.99112513
No	 5.62877803	 -6.24257589	 -10.27810726
No	 6.13996233	 -4.21914801	 -8.56508938
No	 6.65114664	 -2.19572014	 -6.85207150
No	 7.16233094	 -0.17229226	 -5.13905363
No	 7.67351525	 1.85113561	 -3.42603575
No	 8.18469955	 3.87456349	 -1.71301788
Au	 -10.19297270	 11.53048979	 18.84319664
No	 -2.96604771	 -13.01028839	 10.21059788
Au	 -10.64793465	 10.81272282	 16.28042076
Au	 -8.12395870	 11.25708383	 17.13017876
No	 -3.68874021	 -10.55621058	 11.07385775
Au	 -11.10289661	 10.09495584	 13.71764489
Au	 -6.05494469	 10.98367787	 15.41716089
No	 -4.41143270	 -8.10213276	 11.93711763
Au	 -11.55785856	 9.37718887	 11.15486901
Au	 -3.98593069	 10.71027191	 13.70414301
No	 -5.13412520	 -5.64805494	 12.80037750
Au	 -12.01282052	 8.65942190	 8.59209313
Au	 -1.91691669	 10.43686595	 11.99112513
No	 -5.85681770	 -3.19397712	 13.66363738
Au	 -12.46778248	 7.94165492	 6.02931726
Au	 0.15209731	 10.16345999	 10.27810726
No	 -6.57951020	 -0.73989930	 14.52689726
Au	 -12.92274443	 7.22388795	 3.46654138
Au	 2.22111131	 9.89005403	 8.56508938
No	 -7.30220270	 1.71417852	 15.39015713
Au	 -13.37770639	 6.50612098	 0.90376550
Au	 4.29012531	 9.61664807	 6.85207150
No	 -8.02489520	 4.16825633	 16.25341701
Au	 -13.83266834	 5.78835400	 -1.65901037
Au	 6.35913931	 9.34324211	 5.13905363
No	 -8.74758770	 6.62233415	 17.11667689
Au	 -14.28763030	 5.07058703	 -4.22178625
Au	 8.42815331	 9.06983615	 3.42603575
No	 -9.47028020	 9.07641197	 17.97993676
Au	 -14.74259225	 4.35282006	 -6.78456212
Au	 10.49716731	 8.79643019	 1.71301788
No	 -13.56493780	 2.61650921	 -5.08504612
No	 -12.38728335	 0.88019837	 -3.38553012
No	 -13.10997584	 3.33427619	 -2.52227025
No	 -11.20962889	 -0.85611248	 -1.68601412
No	 -11.93232139	 1.59796534	 -0.82275425
No	 -12.65501389	 4.05204316	 0.04050563
No	 -10.03197444	 -2.59242332	 0.01350188
No	 -10.75466693	 -0.13834550	 0.87676175
No	 -11.47735943	 2.31573231	 1.74002163
No	 -12.20005193	 4.76981013	 2.60328150
No	 -8.85431998	 -4.32873417	 1.71301788
No	 -9.57701248	 -1.87465635	 2.57627775
No	 -10.29970498	 0.57942147	 3.43953763
No	 -11.02239748	 3.03349929	 4.30279750
No	 -11.74508998	 5.48757711	 5.16605738
No	 -7.67666553	 -6.06504501	 3.41253388
No	 -8.39935803	 -3.61096719	 4.27579375
No	 -9.12205052	 -1.15688938	 5.13905363
No	 -9.84474302	 1.29718844	 6.00231350
No	 -10.56743552	 3.75126626	 6.86557338
No	 -11.29012802	 6.20534408	 7.72883326
No	 -6.49901107	 -7.80135586	 5.11204988
No	 -7.22170357	 -5.34727804	 5.97530975
No	 -7.94439607	 -2.89320022	 6.83856963
No	 -8.66708857	 -0.43912240	 7.70182950
No	 -9.38978107	 2.01495541	 8.56508938
No	 -10.11247357	 4.46903323	 9.42834926
No	 -10.83516607	 6.92311105	 10.29160913
No	 -5.32135662	 -9.53766670	 6.81156588
No	 -6.04404912	 -7.08358888	 7.67482575
No	 -6.76674161	 -4.62951107	 8.53808563
No	 -7.48943411	 -2.17543325	 9.40134550
No	 -8.21212661	 0.27864457	 10.26460538
No	 -8.93481911	 2.73272239	 11.12786526
No	 -9.65751161	 5.18680021	 11.99112513
No	 -10.38020411	 7.64087802	 12.85438501
No	 -4.14370216	 -11.27397755	 8.51108188
No	 -4.86639466	 -8.81989973	 9.37434175
No	 -5.58908716	 -6.36582191	 10.23760163
No	 -6.31177966	 -3.91174409	 11.10086150
No	 -7.03447216	 -1.45766628	 11.96412138
No	 -7.75716466	 0.99641154	 12.82738126
No	 -8.47985716	 3.45048936	 13.69064113
No	 -9.20254965	 5.90456718	 14.55390101
No	 -9.92524215	 8.35864500	 15.41716089
No	 -7.40126620	 8.80300601	 16.26691889
No	 -6.67857370	 6.34892819	 15.40365901
No	 -5.33225220	 8.52960005	 14.55390101
No	 -5.95588120	 3.89485037	 14.54039913
No	 -4.60955970	 6.07552223	 13.69064113
No	 -3.26323819	 8.25619409	 12.84088313
No	 -5.23318870	 1.44077256	 13.67713926
No	 -3.88686720	 3.62144441	 12.82738126
No	 -2.54054570	 5.80211627	 11.97762326
No	 -1.19422419	 7.98278813	 11.12786526
No	 -4.51049620	 -1.01330526	 12.81387938
No	 -3.16417470	 1.16736660	 11.96412138
No	 -1.81785320	 3.34803845	 11.11436338
No	 -0.47153169	 5.52871031	 10.26460538
No	 0.87478981	 7.70938217	 9.41484738
No	 -3.78780370	 -3.46738308	 11.95061950
No	 -2.44148220	 -1.28671122	 11.10086150
No	 -1.09516070	 0.89396064	 10.25110350
No	 0.25116080	 3.07463250	 9.40134550
No	 1.59748231	 5.25530435	 8.55158750
No	 2.94380381	 7.43597621	 7.70182950
No	 -3.06511120	 -5.92146090	 11.08735963
No	 -1.71878970	 -3.74078904	 10.23760163
No	 -0.37246820	 -1.56011718	 9.38784363
No	 0.97385330	 0.62055468	 8.53808563
No	 2.32017481	 2.80122654	 7.68832763
No	 3.66649631	 4.98189839	 6.83856963
No	 5.01281781	 7.16257025	 5.98881163
No	 -2.34241870	 -8.37553872	 10.22409975
No	 -0.99609720	 -6.19486686	 9.37434175
No	 0.35022430	 -4.01419500	 8.52458375
No	 1.69654580	 -1.83352314	 7.67482575
No	 3.04286730	 0.34714872	 6.82506775
No	 4.38918881	 2.52782058	 5.97530975
No	 5.73551031	 4.70849243	 5.12555175
No	 7.08183181	 6.88916429	 4.27579375
No	 -1.61972620	 -10.82961654	 9.36083988
No	 -0.27340470	 -8.64894468	 8.51108188
No	 1.07291680	 -6.46827282	 7.66132388
No	 2.41923830	 -4.28760096	 6.81156588
No	 3.76555980	 -2.10692910	 5.96180788
No	 5.11188131	 0.07374276	 5.11204988
No	 6.45820281	 2.25441462	 4.26229188
No	 7.80452431	 4.43508647	 3.41253388
No	 9.15084581	 6.61575833	 2.56277588
No	 -12.21861630	 4.79718107	 -5.93480412
No	 -11.76365434	 5.51494804	 -3.37202825
No	 -9.69464034	 5.24154208	 -5.08504612
No	 -11.30869239	 6.23271502	 -0.80925237
No	 -9.23967839	 5.95930906	 -2.52227025
No	 -7.17066438	 5.68590310	 -4.23528812
No	 -10.85373043	 6.95048199	 1.75352350
No	 -8.78471643	 6.67707603	 0.04050563
No	 -6.71570243	 6.40367007	 -1.67251225
No	 -4.64668843	 6.13026411	 -3.38553012
No	 -10.39876847	 7.66824896	 4.31629938
No	 -8.32975447	 7.39484300	 2.60328150
No	 -6.26074047	 7.12143704	 0.89026363
No	 -4.19172647	 6.84803108	 -0.82275425
No	 -2.12271247	 6.57462512	 -2.53577212
No	 -9.94380652	 8.38601594	 6.87907526
No	 -7.87479252	 8.11260998	 5.16605738
No	 -5.80577852	 7.83920402	 3.45303950
No	 -3.73676452	 7.56579806	 1.74002163
No	 -1.66775051	 7.29239210	 0.02700375
No	 0.40126349	 7.01898614	 -1.68601412
No	 -9.48884456	 9.10378291	 9.44185113
No	 -7.41983056	 8.83037695	 7.72883326
No	 -5.35081656	 8.55697099	 6.01581538
No	 -3.28180256	 8.28356503	 4.30279750
No	 -1.21278856	 8.01015907	 2.58977963
No	 0.85622544	 7.73675311	 0.87676175
No	 2.92523944	 7.46334715	 -0.83625612
No	 -9.03388261	 9.82154988	 12.00462701
No	 -6.96486861	 9.54814392	 10.29160913
No	 -4.89585461	 9.27473796	 8.57859126
No	 -2.82684060	 9.00133200	 6.86557338
No	 -0.75782660	 8.72792604	 5.15255550
No	 1.31118740	 8.45452008	 3.43953763
No	 3.38020140	 8.18111412	 1.72651975
No	 5.44921540	 7.90770816	 0.01350188
No	 -8.57892065	 10.53931686	 14.56740289
No	 -6.50990665	 10.26591090	 12.85438501
No	 -4.44089265	 9.99250494	 11.14136713
No	 -2.37187865	 9.71909898	 9.42834926
No	 -0.30286465	 9.44569302	 7.71533138
No	 1.76614935	 9.17228706	 6.00231350
No	 3.83516336	 8.89888110	 4.28929563
No	 5.90417736	 8.62547514	 2.57627775
No	 7.97319136	 8.35206918	 0.86325988
No	 -2.79738066	 -9.09330569	 7.66132388
No	 -3.97503511	 -7.35699484	 5.96180788
No	 -3.52007316	 -6.63922787	 8.52458375
No	 -1.45105916	 -6.91263383	 6.81156588
No	 -5.15268957	 -5.62068400	 4.26229188
No	 -4.69772761	 -4.90291703	 6.82506775
No	 -2.62871361	 -5.17632299	 5.11204988
No	 -4.24276566	 -4.18515005	 9.38784363
No	 -2.17375166	 -4.45855601	 7.67482575
No	 -0.10473766	 -4.73196197	 5.96180788
No	 -6.33034402	 -3.88437315	 2.56277588
No	 -5.87538207	 -3.16660618	 5.12555175
No	 -3.80636807	 -3.44001214	 3.41253388
No	 -5.42042011	 -2.44883921	 7.68832763
No	 -3.35140611	 -2.72224517	 5.97530975
No	 -1.28239211	 -2.99565113	 4.26229188
No	 -4.96545816	 -1.73107224	 10.25110350
No	 -2.89644416	 -2.00447819	 8.53808563
No	 -0.82743015	 -2.27788415	 6.82506775
No	 1.24158385	 -2.55129011	 5.11204988
No	 -7.50799848	 -2.14806231	 0.86325988
No	 -7.05303652	 -1.43029534	 3.42603575
No	 -4.98402252	 -1.70370130	 1.71301788
No	 -6.59807457	 -0.71252836	 5.98881163
No	 -4.52906057	 -0.98593432	 4.27579375
No	 -2.46004656	 -1.25934028	 2.56277588
No	 -6.14311261	 0.00523861	 8.55158750
No	 -4.07409861	 -0.26816735	 6.83856963
No	 -2.00508461	 -0.54157331	 5.12555175
No	 0.06392939	 -0.81497927	 3.41253388
No	 -5.68815066	 0.72300558	 11.11436338
No	 -3.61913665	 0.44959962	 9.40134550
No	 -1.55012265	 0.17619366	 7.68832763
No	 0.51889135	 -0.09721230	 5.97530975
No	 2.58790535	 -0.37061826	 4.26229188
No	 -8.68565293	 -0.41175146	 -0.83625612
No	 -8.23069098	 0.30601551	 1.72651975
No	 -6.16167698	 0.03260955	 0.01350188
No	 -7.77572902	 1.02378248	 4.28929563
No	 -5.70671502	 0.75037652	 2.57627775
No	 -3.63770102	 0.47697056	 0.86325988
No	 -7.32076707	 1.74154946	 6.85207150
No	 -5.25175307	 1.46814350	 5.13905363
No	 -3.18273906	 1.19473754	 3.42603575
No	 -1.11372506	 0.92133158	 1.71301788
No	 -6.86580511	 2.45931643	 9.41484738
No	 -4.79679111	 2.18591047	 7.70182950
No	 -2.72777711	 1.91250451	 5.98881163
No	 -0.65876311	 1.63909855	 4.27579375
No	 1.41025089	 1.36569259	 2.56277588
No	 -6.41084315	 3.17708340	 11.97762326
No	 -4.34182915	 2.90367744	 10.26460538
No	 -2.27281515	 2.63027148	 8.55158750
No	 -0.20380115	 2.35686552	 6.83856963
No	 1.86521285	 2.08345956	 5.12555175
No	 3.93422685	 1.81005360	 3.41253388
No	 -9.86330739	 1.32455938	 -2.53577212
No	 -9.40834543	 2.04232635	 0.02700375
No	 -7.33933143	 1.76892039	 -1.68601412
No	 -8.95338348	 2.76009333	 2.58977963
No	 -6.88436948	 2.48668737	 0.87676175
No	 -4.81535547	 2.21328141	 -0.83625612
No	 -8.49842152	 3.47786030	 5.15255550
No	 -6.42940752	 3.20445434	 3.43953763
No	 -4.36039352	 2.93104838	 1.72651975
No	 -2.29137952	 2.65764242	 0.01350188
No	 -8.04345957	 4.19562727	 7.71533138
No	 -5.97444556	 3.92222131	 6.00231350
No	 -3.90543156	 3.64881535	 4.28929563
No	 -1.83641756	 3.37540939	 2.57627775
No	 0.23259644	 3.10200343	 0.86325988
No	 -7.58849761	 4.91339425	 10.27810726
No	 -5.51948361	 4.63998829	 8.56508938
No	 -3.45046961	 4.36658233	 6.85207150
No	 -1.38145561	 4.09317637	 5.13905363
No	 0.68755840	 3.81977041	 3.42603575
No	 2.75657240	 3.54636445	 1.71301788
No	 -7.13353565	 5.63116122	 12.84088313
No	 -5.06452165	 5.35775526	 11.12786526
No	 -2.99550765	 5.08434930	 9.41484738
No	 -0.92649365	 4.81094334	 7.70182950
No	 1.14252035	 4.53753738	 5.98881163
No	 3.21153435	 4.26413142	 4.27579375
No	 5.28054835	 3.99072546	 2.56277588
No	 -11.04096184	 3.06087023	 -4.23528812
No	 -10.58599989	 3.77863720	 -1.67251225
No	 -8.51698589	 3.50523124	 -3.38553012
No	 -10.13103793	 4.49640417	 0.89026363
No	 -8.06202393	 4.22299821	 -0.82275425
No	 -5.99300993	 3.94959225	 -2.53577212
No	 -9.67607598	 5.21417115	 3.45303950
No	 -7.60706197	 4.94076519	 1.74002163
No	 -5.53804797	 4.66735923	 0.02700375
No	 -3.46903397	 4.39395327	 -1.68601412
No	 -9.22111402	 5.93193812	 6.01581538
No	 -7.15210002	 5.65853216	 4.30279750
No	 -5.08308602	 5.38512620	 2.58977963
No	 -3.01407202	 5.11172024	 0.87676175
No	 -0.94505802	 4.83831428	 -0.83625612
No	 -8.76615206	 6.64970509	 8.57859126
No	 -6.69713806	 6.37629913	 6.86557338
No	 -4.62812406	 6.10289317	 5.15255550
No	 -2.55911006	 5.82948721	 3.43953763
No	 -0.49009606	 5.55608125	 1.72651975
No	 1.57891794	 5.28267529	 0.01350188
No	 -8.31119011	 7.36747206	 11.14136713
No	 -6.24217611	 7.09406610	 9.42834926
No	 -4.17316211	 6.82066015	 7.71533138
No	 -2.10414810	 6.54725419	 6.00231350
No	 -0.03513410	 6.27384823	 4.28929563
No	 2.03387990	 6.00044227	 2.57627775
No	 4.10289390	 5.72703631	 0.86325988
No	 -7.85622815	 8.08523904	 13.70414301
No	 -5.78721415	 7.81183308	 11.99112513
No	 -3.71820015	 7.53842712	 10.27810726
No	 -1.64918615	 7.26502116	 8.56508938
No	 0.41982785	 6.99161520	 6.85207150
No	 2.48884185	 6.71820924	 5.13905363
No	 4.55785585	 6.44480328	 3.42603575
No	 6.62686986	 6.17139732	 1.71301788
Au	 15.28412315	 -0.57562121	 28.14102776
Au	 -0.64994808	 -14.11084394	 11.05585525
No	 -7.87687307	 10.42993424	 19.68845401
Au	 15.03703753	 0.25152837	 25.58275251
Au	 0.94345904	 -12.75732167	 12.76437250
No	 -5.56077345	 9.32937870	 20.53371139
Au	 14.78995191	 1.07867796	 23.02447726
Au	 2.53686616	 -11.40379939	 14.47288975
No	 -3.24467383	 8.22882315	 21.37896876
Au	 14.54286629	 1.90582754	 20.46620201
Au	 4.13027329	 -10.05027712	 16.18140700
No	 -0.92857421	 7.12826761	 22.22422614
Au	 14.29578067	 2.73297713	 17.90792675
Au	 5.72368041	 -8.69675485	 17.88992425
No	 1.38752542	 6.02771206	 23.06948351
Au	 14.04869504	 3.56012672	 15.34965150
Au	 7.31708753	 -7.34323258	 19.59844150
No	 3.70362504	 4.92715652	 23.91474088
Au	 13.80160942	 4.38727630	 12.79137625
Au	 8.91049466	 -5.98971030	 21.30695875
No	 6.01972466	 3.82660097	 24.75999826
Au	 13.55452380	 5.21442589	 10.23310100
Au	 10.50390178	 -4.63618803	 23.01547601
No	 8.33582428	 2.72604542	 25.60525563
Au	 13.30743818	 6.04157547	 7.67482575
Au	 12.09730890	 -3.28266576	 24.72399326
No	 10.65192391	 1.62548988	 26.45051301
Au	 13.06035256	 6.86872506	 5.11655050
Au	 13.69071603	 -1.92914349	 26.43251051
No	 12.96802353	 0.52493433	 27.29577038
Au	 12.81326694	 7.69587465	 2.55827525
No	 11.37461641	 -0.82858794	 25.58725313
No	 9.78120928	 -2.18211021	 23.87873588
No	 9.05851678	 0.27196761	 24.74199576
No	 8.18780216	 -3.53563249	 22.17021863
No	 7.46510966	 -1.08155467	 23.03347851
No	 6.74241716	 1.37252315	 23.89673838
No	 6.59439503	 -4.88915476	 20.46170138
No	 5.87170254	 -2.43507694	 21.32496126
No	 5.14901004	 0.01900088	 22.18822113
No	 4.42631754	 2.47307870	 23.05148101
No	 5.00098791	 -6.24267703	 18.75318413
No	 4.27829541	 -3.78859921	 19.61644401
No	 3.55560291	 -1.33452139	 20.47970388
No	 2.83291041	 1.11955642	 21.34296376
No	 2.11021791	 3.57363424	 22.20622363
No	 3.40758079	 -7.59619930	 17.04466688
No	 2.68488829	 -5.14212148	 17.90792675
No	 1.96219579	 -2.68804367	 18.77118663
No	 1.23950329	 -0.23396585	 19.63444651
No	 0.51681079	 2.22011197	 20.49770638
No	 -0.20588171	 4.67418979	 21.36096626
No	 1.81417366	 -8.94972158	 15.33614963
No	 1.09148116	 -6.49564376	 16.19940950
No	 0.36878867	 -4.04156594	 17.06266938
No	 -0.35390383	 -1.58748812	 17.92592926
No	 -1.07659633	 0.86658970	 18.78918913
No	 -1.79928883	 3.32066752	 19.65244901
No	 -2.52198133	 5.77474533	 20.51570889
No	 0.22076654	 -10.30324385	 13.62763238
No	 -0.50192596	 -7.84916603	 14.49089225
No	 -1.22461846	 -5.39508821	 15.35415213
No	 -1.94731096	 -2.94101039	 16.21741201
No	 -2.67000346	 -0.48693258	 17.08067188
No	 -3.39269595	 1.96714524	 17.94393176
No	 -4.11538845	 4.42122306	 18.80719163
No	 -4.83808095	 6.87530088	 19.67045151
No	 -1.37264058	 -11.65676612	 11.91911513
No	 -2.09533308	 -9.20268830	 12.78237500
No	 -2.81802558	 -6.74861048	 13.64563488
No	 -3.54071808	 -4.29453267	 14.50889476
No	 -4.26341058	 -1.84045485	 15.37215463
No	 -4.98610308	 0.61362297	 16.23541451
No	 -5.70879558	 3.06770079	 17.09867438
No	 -6.43148808	 5.52177861	 17.96193426
No	 -7.15418058	 7.97585642	 18.82519414
No	 11.46694544	 5.51520279	 3.40803325
No	 10.12062393	 3.33453093	 4.25779125
No	 11.71403106	 4.68805320	 5.96630850
No	 8.77430243	 1.15385907	 5.10754925
No	 10.36770955	 2.50738134	 6.81606650
No	 11.96111668	 3.86090362	 8.52458375
No	 7.42798093	 -1.02681279	 5.95730725
No	 9.02138805	 0.32670948	 7.66582450
No	 10.61479518	 1.68023176	 9.37434175
No	 12.20820230	 3.03375403	 11.08285900
No	 6.08165943	 -3.20748465	 6.80706525
No	 7.67506655	 -1.85396237	 8.51558250
No	 9.26847367	 -0.50044010	 10.22409975
No	 10.86188080	 0.85308217	 11.93261700
No	 12.45528792	 2.20660444	 13.64113425
No	 4.73533792	 -5.38815651	 7.65682325
No	 6.32874505	 -4.03463423	 9.36534050
No	 7.92215217	 -2.68111196	 11.07385775
No	 9.51555930	 -1.32758969	 12.78237500
No	 11.10896642	 0.02593259	 14.49089225
No	 12.70237354	 1.37945486	 16.19940950
No	 3.38901642	 -7.56882836	 8.50658125
No	 4.98242355	 -6.21530609	 10.21509850
No	 6.57583067	 -4.86178382	 11.92361575
No	 8.16923779	 -3.50826155	 13.63213300
No	 9.76264492	 -2.15473927	 15.34065025
No	 11.35605204	 -0.80121700	 17.04916750
No	 12.94945916	 0.55230527	 18.75768475
No	 2.04269492	 -9.74950022	 9.35633925
No	 3.63610204	 -8.39597795	 11.06485650
No	 5.22950917	 -7.04245568	 12.77337375
No	 6.82291629	 -5.68893340	 14.48189100
No	 8.41632341	 -4.33541113	 16.19040825
No	 10.00973054	 -2.98188886	 17.89892550
No	 11.60313766	 -1.62836659	 19.60744275
No	 13.19654479	 -0.27484431	 21.31596001
No	 0.69637342	 -11.93017208	 10.20609725
No	 2.28978054	 -10.57664981	 11.91461450
No	 3.88318767	 -9.22312754	 13.62313175
No	 5.47659479	 -7.86960526	 15.33164900
No	 7.07000191	 -6.51608299	 17.04016625
No	 8.66340904	 -5.16256072	 18.74868350
No	 10.25681616	 -3.80903844	 20.45720075
No	 11.85022328	 -2.45551617	 22.16571801
No	 13.44363041	 -1.10199390	 23.87423526
No	 12.72093791	 1.35208392	 24.73749513
No	 10.40483828	 2.45263946	 23.89223776
No	 12.47385229	 2.17923350	 22.17921988
No	 8.08873866	 3.55319501	 23.04698038
No	 10.15775266	 3.27978905	 21.33396251
No	 12.22676666	 3.00638309	 19.62094463
No	 5.77263904	 4.65375056	 22.20172301
No	 7.84165304	 4.38034460	 20.48870513
No	 9.91066704	 4.10693864	 18.77568726
No	 11.97968104	 3.83353268	 17.06266938
No	 3.45653942	 5.75430610	 21.35646563
No	 5.52555342	 5.48090014	 19.64344776
No	 7.59456742	 5.20749418	 17.93042988
No	 9.66358142	 4.93408822	 16.21741201
No	 11.73259542	 4.66068226	 14.50439413
No	 1.14043979	 6.85486165	 20.51120826
No	 3.20945380	 6.58145569	 18.79819038
No	 5.27846780	 6.30804973	 17.08517251
No	 7.34748180	 6.03464377	 15.37215463
No	 9.41649580	 5.76123781	 13.65913676
No	 11.48550980	 5.48783185	 11.94611888
No	 -1.17565983	 7.95541719	 19.66595089
No	 0.89335417	 7.68201123	 17.95293301
No	 2.96236817	 7.40860527	 16.23991513
No	 5.03138218	 7.13519931	 14.52689726
No	 7.10039618	 6.86179335	 12.81387938
No	 9.16941018	 6.58838739	 11.10086150
No	 11.23842418	 6.31498143	 9.38784363
No	 -3.49175945	 9.05597274	 18.82069351
No	 -1.42274545	 8.78256678	 17.10767563
No	 0.64626855	 8.50916082	 15.39465776
No	 2.71528255	 8.23575486	 13.68163988
No	 4.78429655	 7.96234890	 11.96862201
No	 6.85331056	 7.68894294	 10.25560413
No	 8.92232456	 7.41553698	 8.54258625
No	 10.99133856	 7.14213102	 6.82956838
No	 -5.80785907	 10.15652828	 17.97543614
No	 -3.73884507	 9.88312232	 16.26241826
No	 -1.66983107	 9.60971636	 14.54940038
No	 0.39918293	 9.33631040	 12.83638251
No	 2.46819693	 9.06290444	 11.12336463
No	 4.53721093	 8.78949848	 9.41034676
No	 6.60622493	 8.51609252	 7.69732888
No	 8.67523893	 8.24268657	 5.98431100
No	 10.74425294	 7.96928061	 4.27129313
No	 -0.02631908	 -9.47609426	 11.06935713
No	 1.56708804	 -8.12257199	 12.77787438
No	 -0.74901158	 -7.02201644	 11.93261700
No	 1.32000242	 -7.29542240	 10.21959913
No	 3.16049517	 -6.76904972	 14.48639163
No	 0.84439554	 -5.66849417	 13.64113425
No	 2.91340954	 -5.94190013	 11.92811638
No	 -1.47170408	 -4.56793863	 12.79587688
No	 0.59730992	 -4.84134459	 11.08285900
No	 2.66632392	 -5.11475055	 9.36984113
No	 4.75390229	 -5.41552744	 16.19490888
No	 2.43780267	 -4.31497190	 15.34965150
No	 4.50681667	 -4.58837786	 13.63663363
No	 0.12170304	 -3.21441635	 14.50439413
No	 2.19071705	 -3.48782231	 12.79137625
No	 4.25973105	 -3.76122827	 11.07835838
No	 -2.19439658	 -2.11386081	 13.65913676
No	 -0.12538258	 -2.38726677	 11.94611888
No	 1.94363142	 -2.66067273	 10.23310100
No	 4.01264543	 -2.93407869	 8.52008313
No	 6.34730941	 -4.06200517	 17.90342613
No	 4.03120979	 -2.96144963	 17.05816875
No	 6.10022379	 -3.23485559	 15.34515088
No	 1.71511017	 -1.86089408	 16.21291138
No	 3.78412417	 -2.13430004	 14.49989350
No	 5.85313817	 -2.40770600	 12.78687563
No	 -0.60098945	 -0.76033854	 15.36765401
No	 1.46802455	 -1.03374449	 13.65463613
No	 3.53703855	 -1.30715045	 11.94161825
No	 5.60605255	 -1.58055641	 10.22860038
No	 -2.91708908	 0.34021701	 14.52239663
No	 -0.84807508	 0.06681105	 12.80937876
No	 1.22093893	 -0.20659491	 11.09636088
No	 3.28995293	 -0.48000087	 9.38334300
No	 5.35896693	 -0.75340683	 7.67032513
No	 7.94071654	 -2.70848290	 19.61194338
No	 5.62461691	 -1.60792735	 18.76668601
No	 7.69363092	 -1.88133331	 17.05366813
No	 3.30851729	 -0.50737181	 17.92142863
No	 5.37753129	 -0.78077777	 16.20841075
No	 7.44654529	 -1.05418373	 14.49539288
No	 0.99241767	 0.59318374	 17.07617126
No	 3.06143167	 0.31977778	 15.36315338
No	 5.13044567	 0.04637182	 13.65013550
No	 7.19945967	 -0.22703414	 11.93711763
No	 -1.32368195	 1.69373928	 16.23091388
No	 0.74533205	 1.42033332	 14.51789601
No	 2.81434605	 1.14692736	 12.80487813
No	 4.88336005	 0.87352140	 11.09186025
No	 6.95237405	 0.60011544	 9.37884238
No	 -3.63978158	 2.79429483	 15.38565651
No	 -1.57076758	 2.52088887	 13.67263863
No	 0.49824643	 2.24748291	 11.95962076
No	 2.56726043	 1.97407695	 10.24660288
No	 4.63627443	 1.70067099	 8.53358500
No	 6.70528843	 1.42726503	 6.82056713
No	 9.53412366	 -1.35496063	 21.32046063
No	 7.21802404	 -0.25440508	 20.47520326
No	 9.28703804	 -0.52781104	 18.76218538
No	 4.90192442	 0.84615046	 19.62994588
No	 6.97093842	 0.57274450	 17.91692801
No	 9.03995242	 0.29933854	 16.20391013
No	 2.58582479	 1.94670601	 18.78468851
No	 4.65483879	 1.67330005	 17.07167063
No	 6.72385279	 1.39989409	 15.35865276
No	 8.79286680	 1.12648813	 13.64563488
No	 0.26972517	 3.04726156	 17.93943113
No	 2.33873917	 2.77385560	 16.22641326
No	 4.40775317	 2.50044964	 14.51339538
No	 6.47676717	 2.22704368	 12.80037750
No	 8.54578117	 1.95363772	 11.08735963
No	 -2.04637445	 4.14781710	 17.09417376
No	 0.02263955	 3.87441114	 15.38115588
No	 2.09165355	 3.60100518	 13.66813801
No	 4.16066755	 3.32759922	 11.95512013
No	 6.22968155	 3.05419326	 10.24210225
No	 8.29869555	 2.78078730	 8.52908438
No	 -4.36247408	 5.24837265	 16.24891638
No	 -2.29346007	 4.97496669	 14.53589851
No	 -0.22444607	 4.70156073	 12.82288063
No	 1.84456793	 4.42815477	 11.10986276
No	 3.91358193	 4.15474881	 9.39684488
No	 5.98259593	 3.88134285	 7.68382700
No	 8.05160993	 3.60793689	 5.97080913
No	 11.12753078	 -0.00143835	 23.02897788
No	 8.81143116	 1.09911719	 22.18372051
No	 10.88044516	 0.82571123	 20.47070263
No	 6.49533154	 2.19967274	 21.33846313
No	 8.56434554	 1.92626678	 19.62544526
No	 10.63335954	 1.65286082	 17.91242738
No	 4.17923192	 3.30022828	 20.49320576
No	 6.24824592	 3.02682232	 18.78018788
No	 8.31725992	 2.75341636	 17.06717001
No	 10.38627392	 2.48001040	 15.35415213
No	 1.86313229	 4.40078383	 19.64794838
No	 3.93214629	 4.12737787	 17.93493051
No	 6.00116030	 3.85397191	 16.22191263
No	 8.07017430	 3.58056595	 14.50889476
No	 10.13918830	 3.30715999	 12.79587688
No	 -0.45296733	 5.50133937	 18.80269101
No	 1.61604667	 5.22793341	 17.08967313
No	 3.68506067	 4.95452745	 15.37665526
No	 5.75407467	 4.68112149	 13.66363738
No	 7.82308868	 4.40771553	 11.95061950
No	 9.89210268	 4.13430958	 10.23760163
No	 -2.76906695	 6.60189492	 17.95743363
No	 -0.70005295	 6.32848896	 16.24441576
No	 1.36896105	 6.05508300	 14.53139788
No	 3.43797505	 5.78167704	 12.81838001
No	 5.50698905	 5.50827108	 11.10536213
No	 7.57600305	 5.23486512	 9.39234425
No	 9.64501706	 4.96145916	 7.67932638
No	 -5.08516657	 7.70245047	 17.11217626
No	 -3.01615257	 7.42904451	 15.39915838
No	 -0.94713857	 7.15563855	 13.68614051
No	 1.12187543	 6.88223259	 11.97312263
No	 3.19088943	 6.60882663	 10.26010476
No	 5.25990343	 6.33542067	 8.54708688
No	 7.32891743	 6.06201471	 6.83406900
No	 9.39793143	 5.78860875	 5.12105113
Au	 -10.66765115	 -11.52935599	 37.55437493
Au	 -3.00920029	 -15.10663801	 11.91161408
Au	 -10.23612528	 9.43414017	 20.54421285
No	 12.92487094	 -1.57141528	 28.99678659
Au	 -3.77504538	 -14.74890981	 14.47589017
Au	 -10.27927787	 7.33779056	 22.24522905
No	 10.56561873	 -2.56720935	 29.85254543
Au	 -4.54089047	 -14.39118161	 17.04016625
Au	 -10.32243046	 5.24144094	 23.94624526
No	 8.20636652	 -3.56300342	 30.70830426
Au	 -5.30673555	 -14.03345340	 19.60444234
Au	 -10.36558304	 3.14509132	 25.64726147
No	 5.84711431	 -4.55879750	 31.56406309
Au	 -6.07258064	 -13.67572520	 22.16871842
Au	 -10.40873563	 1.04874171	 27.34827768
No	 3.48786210	 -5.55459157	 32.41982193
Au	 -6.83842572	 -13.31799700	 24.73299451
Au	 -10.45188822	 -1.04760791	 29.04929389
No	 1.12860990	 -6.55038564	 33.27558076
Au	 -7.60427081	 -12.96026880	 27.29727059
Au	 -10.49504080	 -3.14395752	 30.75031010
No	 -1.23064231	 -7.54617971	 34.13133959
Au	 -8.37011589	 -12.60254059	 29.86154668
Au	 -10.53819339	 -5.24030714	 32.45132630
No	 -3.58989452	 -8.54197378	 34.98709843
Au	 -9.13596098	 -12.24481239	 32.42582276
Au	 -10.58134598	 -7.33665676	 34.15234251
No	 -5.94914673	 -9.53776785	 35.84285726
Au	 -9.90180607	 -11.88708419	 34.99009885
Au	 -10.62449856	 -9.43300637	 35.85335872
No	 -8.30839894	 -10.53356192	 36.69861610
No	 -9.51343278	 6.98006235	 19.68095297
No	 -8.79074029	 4.52598454	 18.81769309
No	 -9.55658537	 4.88371274	 21.38196918
No	 -8.06804779	 2.07190672	 17.95443322
No	 -8.83389287	 2.42963492	 20.51870930
No	 -9.59973796	 2.78736312	 23.08298539
No	 -7.34535529	 -0.38217110	 17.09117334
No	 -8.11120037	 -0.02444290	 19.65544943
No	 -8.87704546	 0.33328530	 22.21972551
No	 -9.64289055	 0.69101351	 24.78400160
No	 -6.62266279	 -2.83624892	 16.22791347
No	 -7.38850787	 -2.47852072	 18.79218955
No	 -8.15435296	 -2.12079251	 21.35646563
No	 -8.92019805	 -1.76306431	 23.92074172
No	 -9.68604313	 -1.40533611	 26.48501780
No	 -5.89997029	 -5.29032674	 15.36465359
No	 -6.66581538	 -4.93259853	 17.92892967
No	 -7.43166046	 -4.57487033	 20.49320576
No	 -8.19750555	 -4.21714213	 23.05748184
No	 -8.96335063	 -3.85941393	 25.62175793
No	 -9.72919572	 -3.50168573	 28.18603401
No	 -5.17727779	 -7.74440455	 14.50139371
No	 -5.94312288	 -7.38667635	 17.06566980
No	 -6.70896796	 -7.02894815	 19.62994588
No	 -7.47481305	 -6.67121995	 22.19422197
No	 -8.24065813	 -6.31349175	 24.75849805
No	 -9.00650322	 -5.95576354	 27.32277414
No	 -9.77234831	 -5.59803534	 29.88705022
No	 -4.45458529	 -10.19848237	 13.63813384
No	 -5.22043038	 -9.84075417	 16.20240992
No	 -5.98627546	 -9.48302597	 18.76668601
No	 -6.75212055	 -9.12529777	 21.33096209
No	 -7.51796563	 -8.76756956	 23.89523817
No	 -8.28381072	 -8.40984136	 26.45951426
No	 -9.04965581	 -8.05211316	 29.02379034
No	 -9.81550089	 -7.69438496	 31.58806643
No	 -3.73189279	 -12.65256019	 12.77487396
No	 -4.49773788	 -12.29483199	 15.33915004
No	 -5.26358296	 -11.93710379	 17.90342613
No	 -6.02942805	 -11.57937559	 20.46770221
No	 -6.79527314	 -11.22164738	 23.03197830
No	 -7.56111822	 -10.86391918	 25.59625438
No	 -8.32696331	 -10.50619098	 28.16053047
No	 -9.09280839	 -10.14846278	 30.72480655
No	 -9.85865348	 -9.79073457	 33.28908264
No	 -7.54255386	 -10.89129012	 34.13434001
No	 -6.77670877	 -11.24901832	 31.57006393
No	 -5.18330165	 -9.89549605	 33.27858118
No	 -6.01086368	 -11.60674652	 29.00578784
No	 -4.41745656	 -10.25322425	 30.71430509
No	 -2.82404944	 -8.89970198	 32.42282234
No	 -5.24501860	 -11.96447473	 26.44151176
No	 -3.65161148	 -10.61095245	 28.15002901
No	 -2.05820435	 -9.25743018	 29.85854626
No	 -0.46479723	 -7.90390791	 31.56706351
No	 -4.47917351	 -12.32220293	 23.87723567
No	 -2.88576639	 -10.96868066	 25.58575292
No	 -1.29235927	 -9.61515838	 27.29427017
No	 0.30104786	 -8.26163611	 29.00278743
No	 1.89445498	 -6.90811384	 30.71130468
No	 -3.71332843	 -12.67993113	 21.31295959
No	 -2.11992130	 -11.32640886	 23.02147684
No	 -0.52651418	 -9.97288659	 24.72999409
No	 1.06689294	 -8.61936431	 26.43851134
No	 2.66030007	 -7.26584204	 28.14702859
No	 4.25370719	 -5.91231977	 29.85554584
No	 -2.94748334	 -13.03765933	 18.74868350
No	 -1.35407622	 -11.68413706	 20.45720075
No	 0.23933091	 -10.33061479	 22.16571801
No	 1.83273803	 -8.97709252	 23.87423526
No	 3.42614515	 -7.62357024	 25.58275251
No	 5.01955228	 -6.27004797	 27.29126976
No	 6.61295940	 -4.91652570	 28.99978701
No	 -2.18163826	 -13.39538753	 16.18440742
No	 -0.58823113	 -12.04186526	 17.89292467
No	 1.00517599	 -10.68834299	 19.60144192
No	 2.59858311	 -9.33482072	 21.30995917
No	 4.19199024	 -7.98129844	 23.01847642
No	 5.78539736	 -6.62777617	 24.72699367
No	 7.37880449	 -5.27425390	 26.43551092
No	 8.97221161	 -3.92073163	 28.14402817
No	 -1.41579317	 -13.75311574	 13.62013133
No	 0.17761395	 -12.39959346	 15.32864859
No	 1.77102108	 -11.04607119	 17.03716584
No	 3.36442820	 -9.69254892	 18.74568309
No	 4.95783532	 -8.33902665	 20.45420034
No	 6.55124245	 -6.98550437	 22.16271759
No	 8.14464957	 -5.63198210	 23.87123484
No	 9.73805669	 -4.27845983	 25.57975209
No	 11.33146382	 -2.92493756	 27.28826934
No	 10.60877132	 -0.47085974	 28.15152922
No	 8.29267170	 0.62969581	 27.30627184
No	 8.24951911	 -1.46665381	 29.00728805
No	 5.97657207	 1.73025135	 26.46101447
No	 5.93341949	 -0.36609826	 28.16203068
No	 5.89026690	 -2.46244788	 29.86304688
No	 3.66047245	 2.83080690	 25.61575709
No	 3.61731986	 0.73445728	 27.31677330
No	 3.57416728	 -1.36189233	 29.01778951
No	 3.53101469	 -3.45824195	 30.71880572
No	 1.34437283	 3.93136244	 24.77049972
No	 1.30122024	 1.83501283	 26.47151593
No	 1.25806766	 -0.26133679	 28.17253214
No	 1.21491507	 -2.35768640	 29.87354834
No	 1.17176248	 -4.45403602	 31.57456455
No	 -0.97172679	 5.03191799	 23.92524234
No	 -1.01487938	 2.93556837	 25.62625855
No	 -1.05803197	 0.83921876	 27.32727476
No	 -1.10118455	 -1.25713086	 29.02829097
No	 -1.14433714	 -3.35348047	 30.72930718
No	 -1.18748973	 -5.44983009	 32.43032339
No	 -3.28782642	 6.13247354	 23.07998497
No	 -3.33097900	 4.03612392	 24.78100118
No	 -3.37413159	 1.93977430	 26.48201739
No	 -3.41728418	 -0.15657531	 28.18303359
No	 -3.46043676	 -2.25292493	 29.88404980
No	 -3.50358935	 -4.34927454	 31.58506601
No	 -3.54674194	 -6.44562416	 33.28608222
No	 -5.60392604	 7.23302908	 22.23472760
No	 -5.64707863	 5.13667947	 23.93574380
No	 -5.69023121	 3.04032985	 25.63676001
No	 -5.73338380	 0.94398023	 27.33777622
No	 -5.77653639	 -1.15236938	 29.03879243
No	 -5.81968897	 -3.24871900	 30.73980864
No	 -5.86284156	 -5.34506862	 32.44082485
No	 -5.90599415	 -7.44141823	 34.14184105
No	 -7.92002566	 8.33358463	 21.38947022
No	 -7.96317825	 6.23723501	 23.09048643
No	 -8.00633083	 4.14088539	 24.79150264
No	 -8.04948342	 2.04453578	 26.49251885
No	 -8.09263601	 -0.05181384	 28.19353505
No	 -8.13578860	 -2.14816345	 29.89455126
No	 -8.17894118	 -4.24451307	 31.59556747
No	 -8.22209377	 -6.34086269	 33.29658368
No	 -8.26524636	 -8.43721230	 34.99759989
No	 -2.13848567	 -11.29903792	 14.48339121
No	 -0.54507855	 -9.94551565	 16.19190846
No	 -2.86117817	 -8.84496010	 15.34665109
No	 -2.90433075	 -10.94130972	 17.04766730
No	 1.04832858	 -8.59199337	 17.90042571
No	 -1.26777104	 -7.49143783	 17.05516834
No	 -1.31092363	 -9.58778744	 18.75618455
No	 -3.58387067	 -6.39088228	 16.20991096
No	 -3.62702325	 -8.48723190	 17.91092717
No	 -3.67017584	 -10.58358151	 19.61194338
No	 2.64173570	 -7.23847110	 19.60894296
No	 0.32563608	 -6.13791556	 18.76368559
No	 0.28248349	 -8.23426517	 20.46470180
No	 -1.99046354	 -5.03736001	 17.91842821
No	 -2.03361613	 -7.13370963	 19.61944442
No	 -2.07676872	 -9.23005924	 21.32046063
No	 -4.30656317	 -3.93680446	 17.07317084
No	 -4.34971575	 -6.03315408	 18.77418705
No	 -4.39286834	 -8.12950370	 20.47520326
No	 -4.43602093	 -10.22585331	 22.17621946
No	 4.23514283	 -5.88494883	 21.31746021
No	 1.91904320	 -4.78439328	 20.47220284
No	 1.87589062	 -6.88074290	 22.17321905
No	 -0.39705642	 -3.68383774	 19.62694546
No	 -0.44020901	 -5.78018735	 21.32796167
No	 -0.48336159	 -7.87653697	 23.02897788
No	 -2.71315604	 -2.58328219	 18.78168809
No	 -2.75630863	 -4.67963181	 20.48270430
No	 -2.79946122	 -6.77598142	 22.18372051
No	 -2.84261380	 -8.87233104	 23.88473672
No	 -5.02925567	 -1.48272665	 17.93643072
No	 -5.07240825	 -3.57907626	 19.63744692
No	 -5.11556084	 -5.67542588	 21.33846313
No	 -5.15871343	 -7.77177549	 23.03947934
No	 -5.20186601	 -9.86812511	 24.74049555
No	 5.82854995	 -4.53142656	 23.02597746
No	 3.51245033	 -3.43087101	 22.18072009
No	 3.46929774	 -5.52722063	 23.88173630
No	 1.19635070	 -2.33031546	 21.33546272
No	 1.15319812	 -4.42666508	 23.03647892
No	 1.11004553	 -6.52301470	 24.73749513
No	 -1.11974892	 -1.22975992	 20.49020534
No	 -1.16290151	 -3.32610954	 22.19122155
No	 -1.20605409	 -5.42245915	 23.89223776
No	 -1.24920668	 -7.51880877	 25.59325397
No	 -3.43584854	 -0.12920437	 19.64494797
No	 -3.47900113	 -2.22555399	 21.34596417
No	 -3.52215372	 -4.32190361	 23.04698038
No	 -3.56530630	 -6.41825322	 24.74799659
No	 -3.60845889	 -8.51460284	 26.44901280
No	 -5.75194816	 0.97135117	 18.79969059
No	 -5.79510075	 -1.12499844	 20.50070680
No	 -5.83825334	 -3.22134806	 22.20172301
No	 -5.88140592	 -5.31769768	 23.90273922
No	 -5.92455851	 -7.41404729	 25.60375543
No	 -5.96771110	 -9.51039691	 27.30477163
No	 7.42195707	 -3.17790428	 24.73449472
No	 5.10585745	 -2.07734874	 23.88923734
No	 5.06270486	 -4.17369835	 25.59025355
No	 2.78975783	 -0.97679319	 23.04397997
No	 2.74660524	 -3.07314281	 24.74499617
No	 2.70345265	 -5.16949242	 26.44601238
No	 0.47365820	 0.12376235	 22.19872259
No	 0.43050562	 -1.97258726	 23.89973880
No	 0.38735303	 -4.06893688	 25.60075501
No	 0.34420044	 -6.16528649	 27.30177122
No	 -1.84244142	 1.22431790	 21.35346522
No	 -1.88559400	 -0.87203172	 23.05448143
No	 -1.92874659	 -2.96838133	 24.75549763
No	 -1.97189918	 -5.06473095	 26.45651384
No	 -2.01505177	 -7.16108057	 28.15753005
No	 -4.15854104	 2.32487344	 20.50820784
No	 -4.20169363	 0.22852383	 22.20922405
No	 -4.24484621	 -1.86782579	 23.91024026
No	 -4.28799880	 -3.96417540	 25.61125647
No	 -4.33115139	 -6.06052502	 27.31227268
No	 -4.37430397	 -8.15687464	 29.01328888
No	 -6.47464066	 3.42542899	 19.66295047
No	 -6.51779325	 1.32907937	 21.36396668
No	 -6.56094584	 -0.76727024	 23.06498289
No	 -6.60409842	 -2.86361986	 24.76599909
No	 -6.64725101	 -4.95996947	 26.46701530
No	 -6.69040360	 -7.05631909	 28.16803151
No	 -6.73355618	 -9.15266871	 29.86904772
No	 9.01536420	 -1.82438201	 26.44301197
No	 6.69926457	 -0.72382646	 25.59775459
No	 6.65611199	 -2.82017608	 27.29877080
No	 4.38316495	 0.37672908	 24.75249722
No	 4.34001236	 -1.71962054	 26.45351343
No	 4.29685978	 -3.81597015	 28.15452963
No	 2.06706533	 1.47728463	 23.90723984
No	 2.02391274	 -0.61906499	 25.60825605
No	 1.98076015	 -2.71541461	 27.30927226
No	 1.93760757	 -4.81176422	 29.01028847
No	 -0.24903429	 2.57784017	 23.06198247
No	 -0.29218688	 0.48149056	 24.76299868
No	 -0.33533947	 -1.61485906	 26.46401488
No	 -0.37849205	 -3.71120868	 28.16503109
No	 -0.42164464	 -5.80755829	 29.86604730
No	 -2.56513392	 3.67839572	 22.21672509
No	 -2.60828650	 1.58204610	 23.91774130
No	 -2.65143909	 -0.51430351	 25.61875751
No	 -2.69459168	 -2.61065313	 27.31977372
No	 -2.73774426	 -4.70700275	 29.02078993
No	 -2.78089685	 -6.80335236	 30.72180614
No	 -4.88123354	 4.77895126	 21.37146772
No	 -4.92438613	 2.68260165	 23.07248393
No	 -4.96753871	 0.58625203	 24.77350014
No	 -5.01069130	 -1.51009759	 26.47451634
No	 -5.05384389	 -3.60644720	 28.17553255
No	 -5.09699647	 -5.70279682	 29.87654876
No	 -5.14014906	 -7.79914643	 31.57756497
No	 -7.19733316	 5.87950681	 20.52621034
No	 -7.24048575	 3.78315719	 22.22722655
No	 -7.28363834	 1.68680758	 23.92824276
No	 -7.32679092	 -0.40954204	 25.62925897
No	 -7.36994351	 -2.50589166	 27.33027518
No	 -7.41309610	 -4.60224127	 29.03129139
No	 -7.45624868	 -6.69859089	 30.73230759
No	 -7.49940127	 -8.79494050	 32.43332380
Au	 -1.47431192	 15.08137460	 47.01172822
Au	 -2.26691745	 14.75856689	 44.45095262
Au	 0.04918217	 13.65801135	 45.29620999
No	 -2.31007004	 12.66221728	 46.15196883
Au	 -3.05952297	 14.43575918	 41.89017702
Au	 1.57267627	 12.23464809	 43.58069177
No	 -3.14582815	 10.24305995	 45.29220944
Au	 -3.85212850	 14.11295147	 39.32940142
Au	 3.09617037	 10.81128484	 41.86517355
No	 -3.98158626	 7.82390262	 44.43245005
Au	 -4.64473402	 13.79014376	 36.76862582
Au	 4.61966447	 9.38792158	 40.14965532
No	 -4.81734437	 5.40474530	 43.57269066
Au	 -5.43733955	 13.46733605	 34.20785023
Au	 6.14315856	 7.96455832	 38.43413710
No	 -5.65310248	 2.98558797	 42.71293127
Au	 -6.22994507	 13.14452834	 31.64707463
Au	 7.66665266	 6.54119507	 36.71861888
No	 -6.48886059	 0.56643064	 41.85317188
Au	 -7.02255060	 12.82172063	 29.08629903
Au	 9.19014676	 5.11783181	 35.00310065
No	 -7.32461871	 -1.85272668	 40.99341249
Au	 -7.81515612	 12.49891292	 26.52552343
Au	 10.71364086	 3.69446856	 33.28758243
No	 -8.16037682	 -4.27188401	 40.13365310
Au	 -8.60776165	 12.17610521	 23.96474783
Au	 12.23713496	 2.27110530	 31.57206420
No	 -8.99613493	 -6.69104134	 39.27389371
Au	 -9.40036717	 11.85329750	 21.40397224
Au	 13.76062905	 0.84774204	 29.85654598
No	 -9.83189304	 -9.11019866	 38.41413432
No	 11.44452943	 1.94829759	 29.01128861
No	 9.92103533	 3.37166084	 30.72680683
No	 9.12842981	 3.04885313	 28.16603123
No	 8.39754124	 4.79502410	 32.44232505
No	 7.60493571	 4.47221639	 29.88154946
No	 6.81233019	 4.14940868	 27.32077386
No	 6.87404714	 6.21838736	 34.15784328
No	 6.08144161	 5.89557965	 31.59706768
No	 5.28883609	 5.57277194	 29.03629208
No	 4.49623056	 5.24996423	 26.47551648
No	 5.35055304	 7.64175061	 35.87336150
No	 4.55794752	 7.31894290	 33.31258590
No	 3.76534199	 6.99613519	 30.75181030
No	 2.97273647	 6.67332748	 28.19103471
No	 2.18013094	 6.35051977	 25.63025911
No	 3.82705894	 9.06511387	 37.58887972
No	 3.03445342	 8.74230616	 35.02810413
No	 2.24184789	 8.41949845	 32.46732853
No	 1.44924237	 8.09669074	 29.90655293
No	 0.65663684	 7.77388303	 27.34577733
No	 -0.13596868	 7.45107532	 24.78500173
No	 2.30356484	 10.48847712	 39.30439795
No	 1.51095932	 10.16566941	 36.74362235
No	 0.71835379	 9.84286170	 34.18284675
No	 -0.07425173	 9.52005399	 31.62207115
No	 -0.86685725	 9.19724628	 29.06129556
No	 -1.65946278	 8.87443857	 26.50051996
No	 -2.45206830	 8.55163086	 23.93974436
No	 0.78007075	 11.91184038	 41.01991617
No	 -0.01253478	 11.58903267	 38.45914057
No	 -0.80514030	 11.26622496	 35.89836498
No	 -1.59774583	 10.94341725	 33.33758938
No	 -2.39035135	 10.62060954	 30.77681378
No	 -3.18295688	 10.29780183	 28.21603818
No	 -3.97556240	 9.97499412	 25.65526258
No	 -4.76816793	 9.65218641	 23.09448698
No	 -0.74342335	 13.33520364	 42.73543440
No	 -1.53602888	 13.01239593	 40.17465880
No	 -2.32863440	 12.68958822	 37.61388320
No	 -3.12123993	 12.36678051	 35.05310760
No	 -3.91384545	 12.04397280	 32.49233200
No	 -4.70645098	 11.72116508	 29.93155640
No	 -5.49905650	 11.39835737	 27.37078081
No	 -6.29166202	 11.07554966	 24.81000521
No	 -7.08426755	 10.75274195	 22.24922961
No	 -9.44351976	 9.75694788	 23.10498844
No	 -8.65091423	 10.07975559	 25.66576404
No	 -9.48667235	 7.66059827	 24.80600465
No	 -7.85830871	 10.40256330	 28.22653964
No	 -8.69406682	 7.98340598	 27.36678025
No	 -9.52982493	 5.56424865	 26.50702086
No	 -7.06570318	 10.72537101	 30.78731524
No	 -7.90146130	 8.30621369	 29.92755585
No	 -8.73721941	 5.88705636	 29.06779646
No	 -9.57297752	 3.46789903	 28.20803707
No	 -6.27309766	 11.04817872	 33.34809084
No	 -7.10885577	 8.62902140	 32.48833145
No	 -7.94461388	 6.20986407	 31.62857206
No	 -8.78037199	 3.79070675	 30.76881267
No	 -9.61613011	 1.37154942	 29.90905328
No	 -5.48049213	 11.37098644	 35.90886644
No	 -6.31625025	 8.95182911	 35.04910705
No	 -7.15200836	 6.53267178	 34.18934766
No	 -7.98776647	 4.11351446	 33.32958827
No	 -8.82352458	 1.69435713	 32.46982888
No	 -9.65928269	 -0.72480020	 31.61006949
No	 -4.68788661	 11.69379415	 38.46964203
No	 -5.52364472	 9.27463682	 37.60988264
No	 -6.35940283	 6.85547949	 36.75012325
No	 -7.19516094	 4.43632217	 35.89036386
No	 -8.03091906	 2.01716484	 35.03060447
No	 -8.86667717	 -0.40199249	 34.17084508
No	 -9.70243528	 -2.82114981	 33.31108569
No	 -3.89528109	 12.01660186	 41.03041763
No	 -4.73103920	 9.59744453	 40.17065824
No	 -5.56679731	 7.17828720	 39.31089885
No	 -6.40255542	 4.75912988	 38.45113946
No	 -7.23831353	 2.33997255	 37.59138007
No	 -8.07407164	 -0.07918478	 36.73162068
No	 -8.90982975	 -2.49834210	 35.87186129
No	 -9.74558787	 -4.91749943	 35.01210190
No	 -3.10267556	 12.33940957	 43.59119323
No	 -3.93843367	 9.92025224	 42.73143384
No	 -4.77419178	 7.50109491	 41.87167445
No	 -5.60994990	 5.08193759	 41.01191506
No	 -6.44570801	 2.66278026	 40.15215567
No	 -7.28146612	 0.24362293	 39.29239628
No	 -8.11722423	 -2.17553439	 38.43263689
No	 -8.95298234	 -4.59469172	 37.57287750
No	 -9.78874045	 -7.01384905	 36.71311811
No	 -7.47264083	 -8.11440459	 37.55837549
No	 -6.63688272	 -5.69524727	 38.41813488
No	 -5.11338862	 -7.11861052	 36.70261665
No	 -5.80112461	 -3.27608994	 39.27789427
No	 -4.27763051	 -4.69945319	 37.56237604
No	 -2.75413641	 -6.12281645	 35.84685782
No	 -4.96536650	 -0.85693261	 40.13765366
No	 -3.44187240	 -2.28029587	 38.42213543
No	 -1.91837830	 -3.70365912	 36.70661721
No	 -0.39488420	 -5.12702238	 34.99109898
No	 -4.12960838	 1.56222471	 40.99741304
No	 -2.60611429	 0.13886146	 39.28189482
No	 -1.08262019	 -1.28450180	 37.56637660
No	 0.44087391	 -2.70786505	 35.85085837
No	 1.96436801	 -4.13122831	 34.13534015
No	 -3.29385027	 3.98138204	 41.85717243
No	 -1.77035617	 2.55801879	 40.14165421
No	 -0.24686208	 1.13465553	 38.42613599
No	 1.27663202	 -0.28870773	 36.71061776
No	 2.80012612	 -1.71207098	 34.99509954
No	 4.32362022	 -3.13543424	 33.27958132
No	 -2.45809216	 6.40053937	 42.71693182
No	 -0.93459806	 4.97717611	 41.00141360
No	 0.58889603	 3.55381286	 39.28589538
No	 2.11239013	 2.13044960	 37.57037715
No	 3.63588423	 0.70708634	 35.85485893
No	 5.15937833	 -0.71627691	 34.13934071
No	 6.68287243	 -2.13964017	 32.42382248
No	 -1.62233405	 8.81969669	 43.57669121
No	 -0.09883995	 7.39633344	 41.86117299
No	 1.42465415	 5.97297018	 40.14565477
No	 2.94814824	 4.54960693	 38.43013654
No	 4.47164234	 3.12624367	 36.71461832
No	 5.99513644	 1.70288041	 34.99910010
No	 7.51863054	 0.27951716	 33.28358187
No	 9.04212463	 -1.14384610	 31.56806365
No	 -0.78657594	 11.23885402	 44.43645060
No	 0.73691816	 9.81549076	 42.72093238
No	 2.26041226	 8.39212751	 41.00541416
No	 3.78390636	 6.96876425	 39.28989593
No	 5.30740045	 5.54540100	 37.57437771
No	 6.83089455	 4.12203774	 35.85885949
No	 8.35438865	 2.69867448	 34.14334126
No	 9.87788275	 1.27531123	 32.42782304
No	 11.40137684	 -0.14805203	 30.71230482
No	 -1.57918146	 10.91604631	 41.87567501
No	 -0.05568736	 9.49268305	 40.16015678
No	 -2.37178699	 10.59323860	 39.31489941
No	 -2.41493957	 8.49688898	 41.01591562
No	 1.46780673	 8.06931980	 38.44463856
No	 -0.84829289	 9.16987534	 37.59938118
No	 -0.89144548	 7.07352573	 39.30039739
No	 -3.16439251	 10.27043089	 36.75412381
No	 -3.20754510	 8.17408127	 38.45514002
No	 -3.25069769	 6.07773166	 40.15615623
No	 2.99130083	 6.64595654	 36.72912034
No	 0.67520121	 7.74651209	 35.88386296
No	 0.63204862	 5.65016247	 37.58487917
No	 -1.64089841	 8.84706763	 35.03860559
No	 -1.68405100	 6.75071802	 36.73962179
No	 -1.72720359	 4.65436840	 38.44063800
No	 -3.95699804	 9.94762318	 34.19334821
No	 -4.00015062	 7.85127356	 35.89436442
No	 -4.04330321	 5.75492395	 37.59538063
No	 -4.08645580	 3.65857433	 39.29639684
No	 4.51479493	 5.22259329	 35.01360211
No	 2.19869531	 6.32314883	 34.16834474
No	 2.15554272	 4.22679922	 35.86936095
No	 -0.11740432	 7.42370438	 33.32308736
No	 -0.16055690	 5.32735476	 35.02410357
No	 -0.20370949	 3.23100515	 36.72511978
No	 -2.43350394	 8.52425992	 32.47782999
No	 -2.47665653	 6.42791031	 34.17884620
No	 -2.51980911	 4.33156069	 35.87986240
No	 -2.56296170	 2.23521107	 37.58087861
No	 -4.74960356	 9.62481547	 31.63257261
No	 -4.79275615	 7.52846585	 33.33358882
No	 -4.83590874	 5.43211624	 35.03460503
No	 -4.87906132	 3.33576662	 36.73562124
No	 -4.92221391	 1.23941700	 38.43663745
No	 6.03828903	 3.79923003	 33.29808389
No	 3.72218940	 4.89978558	 32.45282651
No	 3.67903682	 2.80343596	 34.15384272
No	 1.40608978	 6.00034112	 31.60756914
No	 1.36293719	 3.90399151	 33.30858535
No	 1.31978461	 1.80764189	 35.00960156
No	 -0.91000984	 7.10089667	 30.76231176
No	 -0.95316243	 5.00454705	 32.46332797
No	 -0.99631502	 2.90819743	 34.16434418
No	 -1.03946760	 0.81184782	 35.86536039
No	 -3.22610946	 8.20145221	 29.91705439
No	 -3.26926205	 6.10510260	 31.61807060
No	 -3.31241464	 4.00875298	 33.31908681
No	 -3.35556722	 1.91240336	 35.02010301
No	 -3.39871981	 -0.18394625	 36.72111922
No	 -5.54220909	 9.30200776	 29.07179702
No	 -5.58536167	 7.20565814	 30.77281322
No	 -5.62851426	 5.10930853	 32.47382943
No	 -5.67166685	 3.01295891	 34.17484564
No	 -5.71481943	 0.91660929	 35.87586185
No	 -5.75797202	 -1.17974032	 37.57687806
No	 7.56178312	 2.37586677	 31.58256566
No	 5.24568350	 3.47642232	 30.73730829
No	 5.20253091	 1.38007270	 32.43832450
No	 2.92958388	 4.57697787	 29.89205092
No	 2.88643129	 2.48062825	 31.59306712
No	 2.84327871	 0.38427863	 33.29408333
No	 0.61348426	 5.67753341	 29.04679354
No	 0.57033167	 3.58118379	 30.74780975
No	 0.52717908	 1.48483418	 32.44882596
No	 0.48402650	 -0.61151544	 34.14984217
No	 -1.70261537	 6.77808896	 28.20153617
No	 -1.74576795	 4.68173934	 29.90255237
No	 -1.78892054	 2.58538972	 31.60356858
No	 -1.83207313	 0.48904011	 33.30458479
No	 -1.87522571	 -1.60730951	 35.00560100
No	 -4.01871499	 7.87864450	 27.35627879
No	 -4.06186758	 5.78229489	 29.05729500
No	 -4.10502016	 3.68594527	 30.75831121
No	 -4.14817275	 1.58959565	 32.45932742
No	 -4.19132534	 -0.50675396	 34.16034363
No	 -4.23447792	 -2.60310358	 35.86135983
No	 -6.33481461	 8.97920005	 26.51102142
No	 -6.37796720	 6.88285043	 28.21203763
No	 -6.42111979	 4.78650082	 29.91305383
No	 -6.46427237	 2.69015120	 31.61407004
No	 -6.50742496	 0.59380158	 33.31508625
No	 -6.55057755	 -1.50254803	 35.01610246
No	 -6.59373013	 -3.59889765	 36.71711867
No	 9.08527722	 0.95250352	 29.86704744
No	 6.76917760	 2.05305906	 29.02179007
No	 6.72602501	 -0.04329055	 30.72280627
No	 4.45307798	 3.15361461	 28.17653269
No	 4.40992539	 1.05726499	 29.87754890
No	 4.36677280	 -1.03908462	 31.57856511
No	 2.13697835	 4.25417016	 27.33127532
No	 2.09382577	 2.15782054	 29.03229153
No	 2.05067318	 0.06147092	 30.73330773
No	 2.00752059	 -2.03487869	 32.43432394
No	 -0.17912127	 5.35472570	 26.48601794
No	 -0.22227386	 3.25837608	 28.18703415
No	 -0.26542644	 1.16202647	 29.88805036
No	 -0.30857903	 -0.93432315	 31.58906657
No	 -0.35173162	 -3.03067276	 33.29008278
No	 -2.49522089	 6.45528125	 25.64076057
No	 -2.53837348	 4.35893163	 27.34177678
No	 -2.58152606	 2.26258201	 29.04279298
No	 -2.62467865	 0.16623240	 30.74380919
No	 -2.66783124	 -1.93011722	 32.44482540
No	 -2.71098383	 -4.02646683	 34.14584161
No	 -4.81132051	 7.55583679	 24.79550319
No	 -4.85447310	 5.45948718	 26.49651940
No	 -4.89762569	 3.36313756	 28.19753561
No	 -4.94077827	 1.26678794	 29.89855182
No	 -4.98393086	 -0.82956167	 31.59956803
No	 -5.02708345	 -2.92591129	 33.30058424
No	 -5.07023603	 -5.02226090	 35.00160044
No	 -7.12742014	 8.65639234	 23.95024582
No	 -7.17057272	 6.56004272	 25.65126203
No	 -7.21372531	 4.46369311	 27.35227824
No	 -7.25687790	 2.36734349	 29.05329444
No	 -7.30003048	 0.27099387	 30.75431065
No	 -7.34318307	 -1.82535574	 32.45532686
No	 -7.38633566	 -3.92170536	 34.15634307
No	 -7.42948824	 -6.01805498	 35.85735928
Au	 12.28774608	 -9.54622485	 56.29489063
No	 -0.22321574	 12.84250193	 47.85565207
Au	 12.56014400	 -8.73071543	 53.73544855
Au	 10.20089179	 -9.72650950	 54.59120739
No	 1.02788044	 10.60362925	 48.69957593
Au	 12.83254191	 -7.91520601	 51.17600647
Au	 8.11403749	 -9.90679415	 52.88752414
No	 2.27897662	 8.36475657	 49.54349979
Au	 13.10493983	 -7.09969659	 48.61656439
Au	 6.02718320	 -10.08707880	 51.18384090
No	 3.53007281	 6.12588389	 50.38742364
Au	 13.37733774	 -6.28418717	 46.05712231
Au	 3.94032891	 -10.26736345	 49.48015765
No	 4.78116899	 3.88701121	 51.23134750
Au	 13.64973566	 -5.46867774	 43.49768023
Au	 1.85347461	 -10.44764810	 47.77647440
No	 6.03226517	 1.64813854	 52.07527135
Au	 13.92213357	 -4.65316832	 40.93823816
Au	 -0.23337968	 -10.62793275	 46.07279116
No	 7.28336135	 -0.59073414	 52.91919521
Au	 14.19453149	 -3.83765890	 38.37879608
Au	 -2.32023398	 -10.80821739	 44.36910791
No	 8.53445753	 -2.82960682	 53.76311906
Au	 14.46692940	 -3.02214948	 35.81935400
Au	 -4.40708827	 -10.98850204	 42.66542467
No	 9.78555372	 -5.06847950	 54.60704292
Au	 14.73932732	 -2.20664006	 33.25991192
Au	 -6.49394256	 -11.16878669	 40.96174142
No	 11.03664990	 -7.30735218	 55.45096678
Au	 15.01172524	 -1.39113063	 30.70046984
Au	 -8.58079686	 -11.34907134	 39.25805818
No	 13.48823114	 0.03223262	 32.41598806
No	 11.96473704	 1.45559588	 34.13150628
No	 13.21583322	 -0.78327680	 34.97543014
No	 10.44124294	 2.87895913	 35.84702451
No	 11.69233912	 0.64008646	 36.69094836
No	 12.94343531	 -1.59878622	 37.53487222
No	 8.91774884	 4.30232239	 37.56254273
No	 10.16884503	 2.06344971	 38.40646659
No	 11.41994121	 -0.17542297	 39.25039044
No	 12.67103739	 -2.41429564	 40.09431430
No	 7.39425475	 5.72568565	 39.27806096
No	 8.64535093	 3.48681297	 40.12198481
No	 9.89644711	 1.24794029	 40.96590867
No	 11.14754329	 -0.99093239	 41.80983252
No	 12.39863948	 -3.22980507	 42.65375638
No	 5.87076065	 7.14904890	 40.99357918
No	 7.12185683	 4.91017622	 41.83750303
No	 8.37295301	 2.67130355	 42.68142689
No	 9.62404920	 0.43243087	 43.52535075
No	 10.87514538	 -1.80644181	 44.36927460
No	 12.12624156	 -4.04531449	 45.21319846
No	 4.34726655	 8.57241216	 42.70909740
No	 5.59836273	 6.33353948	 43.55302126
No	 6.84945892	 4.09466680	 44.39694511
No	 8.10055510	 1.85579412	 45.24086897
No	 9.35165128	 -0.38307855	 46.08479283
No	 10.60274746	 -2.62195123	 46.92871668
No	 11.85384365	 -4.86082391	 47.77264054
No	 2.82377245	 9.99577541	 44.42461563
No	 4.07486864	 7.75690274	 45.26853948
No	 5.32596482	 5.51803006	 46.11246334
No	 6.57706100	 3.27915738	 46.95638719
No	 7.82815718	 1.04028470	 47.80031105
No	 9.07925337	 -1.19858798	 48.64423491
No	 10.33034955	 -3.43746065	 49.48815876
No	 11.58144573	 -5.67633333	 50.33208262
No	 1.30027836	 11.41913867	 46.14013385
No	 2.55137454	 9.18026599	 46.98405771
No	 3.80247072	 6.94139331	 47.82798156
No	 5.05356690	 4.70252064	 48.67190542
No	 6.30466309	 2.46364796	 49.51582927
No	 7.55575927	 0.22477528	 50.35975313
No	 8.80685545	 -2.01409740	 51.20367699
No	 10.05795163	 -4.25297008	 52.04760084
No	 11.30904781	 -6.49184275	 52.89152470
No	 8.94979560	 -7.48763682	 53.74728353
No	 7.69869942	 -5.24876415	 52.90335967
No	 6.86294131	 -7.66792147	 52.04360029
No	 6.44760324	 -3.00989147	 52.05943582
No	 5.61184513	 -5.42904880	 51.19967643
No	 4.77608702	 -7.84820612	 50.33991704
No	 5.19650706	 -0.77101879	 51.21551196
No	 4.36074895	 -3.19017612	 50.35575257
No	 3.52499083	 -5.60933344	 49.49599318
No	 2.68923272	 -8.02849077	 48.63623379
No	 3.94541088	 1.46785389	 50.37158811
No	 3.10965276	 -0.95130344	 49.51182872
No	 2.27389465	 -3.37046077	 48.65206933
No	 1.43813654	 -5.78961809	 47.79230994
No	 0.60237843	 -8.20877542	 46.93255055
No	 2.69431469	 3.70672656	 49.52766425
No	 1.85855658	 1.28756924	 48.66790486
No	 1.02279847	 -1.13158809	 47.80814547
No	 0.18704036	 -3.55074541	 46.94838608
No	 -0.64871775	 -5.96990274	 46.08862669
No	 -1.48447586	 -8.38906007	 45.22886730
No	 1.44321851	 5.94559924	 48.68374040
No	 0.60746040	 3.52644192	 47.82398101
No	 -0.22829771	 1.10728459	 46.96422162
No	 -1.06405582	 -1.31187274	 46.10446223
No	 -1.89981394	 -3.73103006	 45.24470284
No	 -2.73557205	 -6.15018739	 44.38494345
No	 -3.57133016	 -8.56934472	 43.52518406
No	 0.19212233	 8.18447192	 47.83981654
No	 -0.64363578	 5.76531459	 46.98005715
No	 -1.47939389	 3.34615727	 46.12029776
No	 -2.31515201	 0.92699994	 45.26053837
No	 -3.15091012	 -1.49215739	 44.40077898
No	 -3.98666823	 -3.91131471	 43.54101959
No	 -4.82242634	 -6.33047204	 42.68126020
No	 -5.65818445	 -8.74962936	 41.82150081
No	 -1.05897385	 10.42334460	 46.99589268
No	 -1.89473196	 8.00418727	 46.13613329
No	 -2.73049008	 5.58502995	 45.27637390
No	 -3.56624819	 3.16587262	 44.41661451
No	 -4.40200630	 0.74671529	 43.55685512
No	 -5.23776441	 -1.67244203	 42.69709573
No	 -6.07352252	 -4.09159936	 41.83733634
No	 -6.90928063	 -6.51075669	 40.97757696
No	 -7.74503875	 -8.92991401	 40.11781757
No	 12.65247303	 -2.38692471	 31.55622867
No	 12.38007511	 -3.20243413	 34.11567075
No	 10.29322082	 -3.38271878	 32.41198750
No	 12.10767720	 -4.01794355	 36.67511283
No	 10.02082290	 -4.19822820	 34.97142958
No	 7.93396861	 -4.37851285	 33.26774634
No	 11.83527928	 -4.83345297	 39.23455491
No	 9.74842499	 -5.01373762	 37.53087166
No	 7.66157069	 -5.19402227	 35.82718842
No	 5.57471640	 -5.37430692	 34.12350517
No	 11.56288136	 -5.64896239	 41.79399699
No	 9.47602707	 -5.82924704	 40.09031374
No	 7.38917278	 -6.00953169	 38.38663050
No	 5.30231848	 -6.18981634	 36.68294725
No	 3.21546419	 -6.37010099	 34.97926401
No	 11.29048345	 -6.46447182	 44.35343907
No	 9.20362916	 -6.64475646	 42.64975582
No	 7.11677486	 -6.82504111	 40.94607258
No	 5.02992057	 -7.00532576	 39.24238933
No	 2.94306627	 -7.18561041	 37.53870609
No	 0.85621198	 -7.36589506	 35.83502284
No	 11.01808553	 -7.27998124	 46.91288115
No	 8.93123124	 -7.46026589	 45.20919790
No	 6.84437695	 -7.64055053	 43.50551466
No	 4.75752265	 -7.82083518	 41.80183141
No	 2.67066836	 -8.00111983	 40.09814817
No	 0.58381406	 -8.18140448	 38.39446492
No	 -1.50304023	 -8.36168913	 36.69078167
No	 10.74568762	 -8.09549066	 49.47232323
No	 8.65883332	 -8.27577531	 47.76863998
No	 6.57197903	 -8.45605996	 46.06495674
No	 4.48512474	 -8.63634460	 44.36127349
No	 2.39827044	 -8.81662925	 42.65759024
No	 0.31141615	 -8.99691390	 40.95390700
No	 -1.77543815	 -9.17719855	 39.25022375
No	 -3.86229244	 -9.35748320	 37.54654051
No	 10.47328970	 -8.91100008	 52.03176531
No	 8.38643541	 -9.09128473	 50.32808206
No	 6.29958111	 -9.27156938	 48.62439882
No	 4.21272682	 -9.45185403	 46.92071557
No	 2.12587253	 -9.63213868	 45.21703232
No	 0.03901823	 -9.81242332	 43.51334908
No	 -2.04783606	 -9.99270797	 41.80966583
No	 -4.13469035	 -10.17299262	 40.10598259
No	 -6.22154465	 -10.35327727	 38.40229934
No	 0.46452024	 8.99998134	 45.28037446
No	 1.98801434	 7.57661809	 43.56485624
No	 1.71561643	 6.76110866	 46.12429832
No	 -0.37123787	 6.58082402	 44.42061507
No	 3.51150844	 6.15325483	 41.84933801
No	 3.23911052	 5.33774541	 44.40878009
No	 1.15225623	 5.15746076	 42.70509685
No	 2.96671261	 4.52223599	 46.96822217
No	 0.87985832	 4.34195134	 45.26453893
No	 -1.20699598	 4.16166669	 43.56085568
No	 5.03500254	 4.72989157	 40.13381979
No	 4.76260462	 3.91438215	 42.69326187
No	 2.67575033	 3.73409750	 40.98957862
No	 4.49020671	 3.09887273	 45.25270395
No	 2.40335241	 2.91858808	 43.54902070
No	 0.31649812	 2.73830343	 41.84533746
No	 4.21780879	 2.28336331	 47.81214603
No	 2.13095450	 2.10307866	 46.10846278
No	 0.04410020	 1.92279401	 44.40477954
No	 -2.04275409	 1.74250936	 42.70109629
No	 6.55849664	 3.30652832	 38.41830157
No	 6.28609872	 2.49101890	 40.97774364
No	 4.19924443	 2.31073425	 39.27406040
No	 6.01370080	 1.67550947	 43.53718572
No	 3.92684651	 1.49522483	 41.83350248
No	 1.83999222	 1.31494018	 40.12981923
No	 5.74130289	 0.86000005	 46.09662780
No	 3.65444860	 0.67971540	 44.39294456
No	 1.56759430	 0.49943076	 42.68926131
No	 -0.51925999	 0.31914611	 40.98557807
No	 5.46890497	 0.04449063	 48.65606988
No	 3.38205068	 -0.13579402	 46.95238664
No	 1.29519639	 -0.31607867	 45.24870339
No	 -0.79165791	 -0.49636331	 43.54502015
No	 -2.87851220	 -0.67664796	 41.84133690
No	 8.08199073	 1.88316506	 36.70278334
No	 7.80959282	 1.06765564	 39.26222542
No	 5.72273852	 0.88737099	 37.55854218
No	 7.53719490	 0.25214622	 41.82166750
No	 5.45034061	 0.07186157	 40.11798426
No	 3.36348631	 -0.10842308	 38.41430101
No	 7.26479699	 -0.56336320	 44.38110958
No	 5.17794269	 -0.74364785	 42.67742633
No	 3.09108840	 -0.92393250	 40.97374309
No	 1.00423411	 -1.10421715	 39.27005984
No	 6.99239907	 -1.37887263	 46.94055166
No	 4.90554478	 -1.55915727	 45.23686841
No	 2.81869048	 -1.73944192	 43.53318517
No	 0.73183619	 -1.91972657	 41.82950192
No	 -1.35501810	 -2.10001122	 40.12581868
No	 6.72000116	 -2.19438205	 49.49999374
No	 4.63314686	 -2.37466670	 47.79631049
No	 2.54629257	 -2.55495134	 46.09262725
No	 0.45943827	 -2.73523599	 44.38894400
No	 -1.62741602	 -2.91552064	 42.68526076
No	 -3.71427031	 -3.09580529	 40.98157751
No	 9.60548483	 0.45980181	 34.98726512
No	 9.33308692	 -0.35570762	 37.54670720
No	 7.24623262	 -0.53599226	 35.84302395
No	 9.06068900	 -1.17121704	 40.10614928
No	 6.97383471	 -1.35150169	 38.40246603
No	 4.88698041	 -1.53178633	 36.69878279
No	 8.78829108	 -1.98672646	 42.66559136
No	 6.70143679	 -2.16701111	 40.96190811
No	 4.61458250	 -2.34729576	 39.25822487
No	 2.52772820	 -2.52758040	 37.55454162
No	 8.51589317	 -2.80223588	 45.22503344
No	 6.42903888	 -2.98252053	 43.52135019
No	 4.34218458	 -3.16280518	 41.81766694
No	 2.25533029	 -3.34308983	 40.11398370
No	 0.16847599	 -3.52337448	 38.41030045
No	 8.24349525	 -3.61774530	 47.78447552
No	 6.15664096	 -3.79802995	 46.08079227
No	 4.06978667	 -3.97831460	 44.37710902
No	 1.98293237	 -4.15859925	 42.67342578
No	 -0.10392192	 -4.33888390	 40.96974253
No	 -2.19077622	 -4.51916855	 39.26605929
No	 7.97109734	 -4.43325473	 50.34391760
No	 5.88424304	 -4.61353937	 48.64023435
No	 3.79738875	 -4.79382402	 46.93655110
No	 1.71053446	 -4.97410867	 45.23286786
No	 -0.37631984	 -5.15439332	 43.52918461
No	 -2.46317413	 -5.33467797	 41.82550137
No	 -4.55002843	 -5.51496262	 40.12181812
No	 11.12897893	 -0.96356145	 33.27174689
No	 10.85658101	 -1.77907087	 35.83118897
No	 8.76972672	 -1.95935552	 34.12750573
No	 10.58418310	 -2.59458029	 38.39063105
No	 8.49732880	 -2.77486494	 36.68694781
No	 6.41047451	 -2.95514959	 34.98326456
No	 10.31178518	 -3.41008972	 40.95007313
No	 8.22493089	 -3.59037436	 39.24638989
No	 6.13807659	 -3.77065901	 37.54270664
No	 4.05122230	 -3.95094366	 35.83902340
No	 10.03938727	 -4.22559914	 43.50951521
No	 7.95253297	 -4.40588379	 41.80583197
No	 5.86567868	 -4.58616843	 40.10214872
No	 3.77882439	 -4.76645308	 38.39846548
No	 1.69197009	 -4.94673773	 36.69478223
No	 9.76698935	 -5.04110856	 46.06895729
No	 7.68013506	 -5.22139321	 44.36527405
No	 5.59328076	 -5.40167786	 42.66159080
No	 3.50642647	 -5.58196250	 40.95790756
No	 1.41957218	 -5.76224715	 39.25422431
No	 -0.66728212	 -5.94253180	 37.55054106
No	 9.49459144	 -5.85661798	 48.62839937
No	 7.40773714	 -6.03690263	 46.92471613
No	 5.32088285	 -6.21718728	 45.22103288
No	 3.23402855	 -6.39747193	 43.51734963
No	 1.14717426	 -6.57775658	 41.81366639
No	 -0.93968003	 -6.75804122	 40.10998314
No	 -3.02653433	 -6.93832587	 38.40629990
No	 9.22219352	 -6.67212740	 51.18784145
No	 7.13533923	 -6.85241205	 49.48415821
No	 5.04848493	 -7.03269670	 47.78047496
No	 2.96163064	 -7.21298135	 46.07679171
No	 0.87477634	 -7.39326600	 44.37310847
No	 -1.21207795	 -7.57355065	 42.66942522
No	 -3.29893224	 -7.75383529	 40.96574198
No	 -5.38578654	 -7.93411994	 39.26205873
Au	 -15.18693448	 -3.42051628	 65.76630143
Au	 -2.72091397	 13.39938452	 48.71668942
No	 9.79004785	 -8.98934226	 57.15592798
Au	 -14.77609054	 -4.15768353	 63.20158084
Au	 -3.96751603	 11.71739444	 50.42165062
No	 7.29234962	 -8.43245966	 58.01696532
Au	 -14.36524660	 -4.89485077	 60.63686025
Au	 -5.21411808	 10.03540436	 52.12661182
No	 4.79465138	 -7.87557706	 58.87800267
Au	 -13.95440266	 -5.63201802	 58.07213966
Au	 -6.46072013	 8.35341428	 53.83157302
No	 2.29695315	 -7.31869446	 59.73904001
Au	 -13.54355872	 -6.36918527	 55.50741907
Au	 -7.70732218	 6.67142420	 55.53653422
No	 -0.20074508	 -6.76181187	 60.60007736
Au	 -13.13271479	 -7.10635251	 52.94269847
Au	 -8.95392423	 4.98943412	 57.24149542
No	 -2.69844332	 -6.20492927	 61.46111470
Au	 -12.72187085	 -7.84351976	 50.37797788
Au	 -10.20052628	 3.30744404	 58.94645662
No	 -5.19614155	 -5.64804667	 62.32215205
Au	 -12.31102691	 -8.58068700	 47.81325729
Au	 -11.44712833	 1.62545396	 60.65141783
No	 -7.69383978	 -5.09116407	 63.18318939
Au	 -11.90018297	 -9.31785425	 45.24853670
Au	 -12.69373038	 -0.05653612	 62.35637903
No	 -10.19153802	 -4.53428148	 64.04422674
Au	 -11.48933903	 -10.05502150	 42.68381611
Au	 -13.94033243	 -1.73852620	 64.06134023
No	 -12.68923625	 -3.97739888	 64.90526408
Au	 -11.07849509	 -10.79218874	 40.11909552
No	 -11.44263420	 -2.29540880	 63.20030288
No	 -10.19603215	 -0.61341872	 61.49534168
No	 -8.94493596	 -2.85229140	 62.33926554
No	 -8.94943010	 1.06857136	 59.79038048
No	 -7.69833391	 -1.17030131	 60.63430434
No	 -6.44723773	 -3.40917399	 61.47822819
No	 -7.70282805	 2.75056144	 58.08541928
No	 -6.45173186	 0.51168877	 58.92934314
No	 -5.20063568	 -1.72718391	 59.77326699
No	 -3.94953950	 -3.96605659	 60.61719085
No	 -6.45622599	 4.43255152	 56.38045808
No	 -5.20512981	 2.19367885	 57.22438193
No	 -3.95403363	 -0.04519383	 58.06830579
No	 -2.70293745	 -2.28406651	 58.91222965
No	 -1.45184127	 -4.52293919	 59.75615350
No	 -5.20962394	 6.11454160	 54.67549688
No	 -3.95852776	 3.87566893	 55.51942073
No	 -2.70743158	 1.63679625	 56.36334459
No	 -1.45633540	 -0.60207643	 57.20726845
No	 -0.20523922	 -2.84094911	 58.05119230
No	 1.04585697	 -5.07982179	 58.89511616
No	 -3.96302189	 7.79653168	 52.97053568
No	 -2.71192571	 5.55765901	 53.81445953
No	 -1.46082953	 3.31878633	 54.65838339
No	 -0.20973335	 1.07991365	 55.50230724
No	 1.04136284	 -1.15895903	 56.34623110
No	 2.29245902	 -3.39783171	 57.19015496
No	 3.54355520	 -5.63670438	 58.03407881
No	 -2.71641984	 9.47852176	 51.26557448
No	 -1.46532366	 7.23964909	 52.10949833
No	 -0.21422748	 5.00077641	 52.95342219
No	 1.03686870	 2.76190373	 53.79734604
No	 2.28796489	 0.52303105	 54.64126990
No	 3.53906107	 -1.71584163	 55.48519375
No	 4.79015725	 -3.95471430	 56.32911761
No	 6.04125343	 -6.19358698	 57.17304147
No	 -1.46981779	 11.16051184	 49.56061327
No	 -0.21872161	 8.92163917	 50.40453713
No	 1.03237457	 6.68276649	 51.24846099
No	 2.28347075	 4.44389381	 52.09238484
No	 3.53456694	 2.20502113	 52.93630870
No	 4.78566312	 -0.03385154	 53.78023255
No	 6.03675930	 -2.27272422	 54.62415641
No	 7.28785548	 -4.51159690	 55.46808027
No	 8.53895167	 -6.75046958	 56.31200412
No	 -10.24273698	 -8.37303142	 40.97885491
No	 -9.40697887	 -5.95387409	 41.83861430
No	 -10.65358092	 -7.63586417	 43.54357550
No	 -8.57122076	 -3.53471676	 42.69837369
No	 -9.81782281	 -5.21670684	 44.40333489
No	 -11.06442486	 -6.89869692	 46.10829609
No	 -7.73546264	 -1.11555944	 43.55813308
No	 -8.98206469	 -2.79754952	 45.26309428
No	 -10.22866675	 -4.47953960	 46.96805548
No	 -11.47526880	 -6.16152968	 48.67301668
No	 -6.89970453	 1.30359789	 44.41789247
No	 -8.14630658	 -0.37839219	 46.12285367
No	 -9.39290863	 -2.06038227	 47.82781487
No	 -10.63951068	 -3.74237235	 49.53277607
No	 -11.88611274	 -5.42436243	 51.23773727
No	 -6.06394642	 3.72275522	 45.27765186
No	 -7.31054847	 2.04076514	 46.98261306
No	 -8.55715052	 0.35877506	 48.68757426
No	 -9.80375257	 -1.32321502	 50.39253546
No	 -11.05035462	 -3.00520510	 52.09749666
No	 -12.29695667	 -4.68719518	 53.80245786
No	 -5.22818831	 6.14191254	 46.13741125
No	 -6.47479036	 4.45992246	 47.84237245
No	 -7.72139241	 2.77793238	 49.54733365
No	 -8.96799446	 1.09594230	 51.25229485
No	 -10.21459651	 -0.58604778	 52.95725605
No	 -11.46119856	 -2.26803786	 54.66221725
No	 -12.70780061	 -3.95002794	 56.36717846
No	 -4.39243020	 8.56106987	 46.99717064
No	 -5.63903225	 6.87907979	 48.70213184
No	 -6.88563430	 5.19708971	 50.40709304
No	 -8.13223635	 3.51509963	 52.11205424
No	 -9.37883840	 1.83310955	 53.81701544
No	 -10.62544045	 0.15111947	 55.52197664
No	 -11.87204250	 -1.53087061	 57.22693785
No	 -13.11864455	 -3.21286069	 58.93189905
No	 -3.55667209	 10.98022720	 47.85693003
No	 -4.80327414	 9.29823712	 49.56189123
No	 -6.04987619	 7.61624704	 51.26685243
No	 -7.29647824	 5.93425696	 52.97181363
No	 -8.54308029	 4.25226688	 54.67677483
No	 -9.78968234	 2.57027679	 56.38173603
No	 -11.03628439	 0.88828671	 58.08669723
No	 -12.28288644	 -0.79370337	 59.79165844
No	 -13.52948849	 -2.47569345	 61.49661964
No	 -12.27839231	 -4.71456612	 62.34054349
No	 -9.78069408	 -5.27144872	 61.47950615
No	 -11.86754837	 -5.45173337	 59.77582290
No	 -7.28299584	 -5.82833132	 60.61846880
No	 -9.36985014	 -6.00861597	 58.91478556
No	 -11.45670443	 -6.18890062	 57.21110231
No	 -4.78529761	 -6.38521392	 59.75743146
No	 -6.87215190	 -6.56549857	 58.05374821
No	 -8.95900620	 -6.74578321	 56.35006497
No	 -11.04586049	 -6.92606786	 54.64638172
No	 -2.28759938	 -6.94209651	 58.89639411
No	 -4.37445367	 -7.12238116	 57.19271087
No	 -6.46130797	 -7.30266581	 55.48902762
No	 -8.54816226	 -7.48295046	 53.78534438
No	 -10.63501655	 -7.66323511	 52.08166113
No	 0.21009886	 -7.49897911	 58.03535677
No	 -1.87675544	 -7.67926376	 56.33167352
No	 -3.96360973	 -7.85954841	 54.62799028
No	 -6.05046403	 -8.03983306	 52.92430703
No	 -8.13731832	 -8.22011771	 51.22062378
No	 -10.22417261	 -8.40040236	 49.51694054
No	 2.70779709	 -8.05586171	 57.17431942
No	 0.62094279	 -8.23614636	 55.47063618
No	 -1.46591150	 -8.41643101	 53.76695293
No	 -3.55276579	 -8.59671566	 52.06326968
No	 -5.63962009	 -8.77700030	 50.35958644
No	 -7.72647438	 -8.95728495	 48.65590319
No	 -9.81332867	 -9.13756960	 46.95221995
No	 5.20549532	 -8.61274431	 56.31328208
No	 3.11864103	 -8.79302896	 54.60959883
No	 1.03178673	 -8.97331360	 52.90591559
No	 -1.05506756	 -9.15359825	 51.20223234
No	 -3.14192185	 -9.33388290	 49.49854909
No	 -5.22877615	 -9.51416755	 47.79486585
No	 -7.31563044	 -9.69445220	 46.09118260
No	 -9.40248474	 -9.87473685	 44.38749936
No	 7.70319355	 -9.16962691	 55.45224473
No	 5.61633926	 -9.34991155	 53.74856149
No	 3.52948497	 -9.53019620	 52.04487824
No	 1.44263067	 -9.71048085	 50.34119499
No	 -0.64422362	 -9.89076550	 48.63751175
No	 -2.73107792	 -10.07105015	 46.93382850
No	 -4.81793221	 -10.25133480	 45.23014526
No	 -6.90478650	 -10.43161945	 43.52646201
No	 -8.99164080	 -10.61190409	 41.82277877
No	 -2.30557590	 8.74135452	 48.70085388
No	 -3.55217795	 7.05936444	 50.40581509
No	 -1.05447972	 6.50248184	 49.54477774
No	 -3.14133402	 6.32219719	 47.84109449
No	 -4.79878001	 5.37737436	 52.11077629
No	 -2.30108177	 4.82049176	 51.24973894
No	 -4.38793607	 4.64020711	 49.54605570
No	 0.19661646	 4.26360916	 50.38870160
No	 -1.89023783	 4.08332451	 48.68501835
No	 -3.97709213	 3.90303987	 46.98133510
No	 -6.04538206	 3.69538428	 53.81573749
No	 -3.54768382	 3.13850168	 52.95470014
No	 -5.63453812	 2.95821703	 51.25101690
No	 -1.04998559	 2.58161908	 52.09366280
No	 -3.13683988	 2.40133443	 50.38997955
No	 -5.22369418	 2.22104979	 48.68629631
No	 1.44771264	 2.02473648	 51.23262545
No	 -0.63914165	 1.84445184	 49.52894221
No	 -2.72599594	 1.66416719	 47.82525896
No	 -4.81285024	 1.48388254	 46.12157572
No	 -7.29198411	 2.01339420	 55.52069869
No	 -4.79428587	 1.45651160	 54.65966134
No	 -6.88114017	 1.27622695	 52.95597810
No	 -2.29658764	 0.89962900	 53.79862400
No	 -4.38344193	 0.71934435	 52.09494075
No	 -6.47029623	 0.53905970	 50.39125751
No	 0.20111059	 0.34274640	 52.93758665
No	 -1.88574370	 0.16246176	 51.23390341
No	 -3.97259800	 -0.01782289	 49.53022016
No	 -6.05945229	 -0.19810754	 47.82653692
No	 2.69880883	 -0.21413619	 52.07654931
No	 0.61195453	 -0.39442084	 50.37286606
No	 -1.47489976	 -0.57470549	 48.66918282
No	 -3.56175406	 -0.75499014	 46.96549957
No	 -5.64860835	 -0.93527479	 45.26181633
No	 -8.53858616	 0.33140412	 57.22565989
No	 -6.04088792	 -0.22547848	 56.36462254
No	 -8.12774222	 -0.40576313	 54.66093930
No	 -3.54318969	 -0.78236108	 55.50358520
No	 -5.63004399	 -0.96264573	 53.79990195
No	 -7.71689828	 -1.14293038	 52.09621871
No	 -1.04549146	 -1.33924368	 54.64254785
No	 -3.13234575	 -1.51952832	 52.93886461
No	 -5.21920005	 -1.69981297	 51.23518136
No	 -7.30605434	 -1.88009762	 49.53149812
No	 1.45220677	 -1.89612627	 53.78151051
No	 -0.63464752	 -2.07641092	 52.07782726
No	 -2.72150181	 -2.25669557	 50.37414402
No	 -4.80835611	 -2.43698022	 48.67046077
No	 -6.89521040	 -2.61726487	 46.96677753
No	 3.94990501	 -2.45300887	 52.92047316
No	 1.86305071	 -2.63329352	 51.21678992
No	 -0.22380358	 -2.81357817	 49.51310667
No	 -2.31065787	 -2.99386282	 47.80942343
No	 -4.39751217	 -3.17414747	 46.10574018
No	 -6.48436646	 -3.35443211	 44.40205694
No	 -9.78518821	 -1.35058596	 58.93062109
No	 -7.28748997	 -1.90746856	 58.06958375
No	 -9.37434427	 -2.08775321	 56.36590050
No	 -4.78979174	 -2.46435116	 57.20854640
No	 -6.87664604	 -2.64463581	 55.50486315
No	 -8.96350033	 -2.82492046	 53.80117991
No	 -2.29209351	 -3.02123376	 56.34750906
No	 -4.37894780	 -3.20151840	 54.64382581
No	 -6.46580210	 -3.38180305	 52.94014256
No	 -8.55265639	 -3.56208770	 51.23645932
No	 0.20560472	 -3.57811635	 55.48647171
No	 -1.88124957	 -3.75840100	 53.78278846
No	 -3.96810386	 -3.93868565	 52.07910522
No	 -6.05495816	 -4.11897030	 50.37542197
No	 -8.14181245	 -4.29925495	 48.67173873
No	 2.70330296	 -4.13499895	 54.62543437
No	 0.61644866	 -4.31528360	 52.92175112
No	 -1.47040563	 -4.49556825	 51.21806787
No	 -3.55725992	 -4.67585290	 49.51438463
No	 -5.64411422	 -4.85613755	 47.81070138
No	 -7.73096851	 -5.03642219	 46.10701814
No	 5.20100119	 -4.69188155	 53.76439702
No	 3.11414690	 -4.87216620	 52.06071377
No	 1.02729260	 -5.05245085	 50.35703053
No	 -1.05956169	 -5.23273550	 48.65334728
No	 -3.14641599	 -5.41302014	 46.94966404
No	 -5.23327028	 -5.59330479	 45.24598079
No	 -7.32012457	 -5.77358944	 43.54229755
No	 -11.03179026	 -3.03257604	 60.63558229
No	 -8.53409203	 -3.58945864	 59.77454495
No	 -10.62094632	 -3.76974329	 58.07086170
No	 -6.03639379	 -4.14634124	 58.91350760
No	 -8.12324809	 -4.32662589	 57.20982436
No	 -10.21010238	 -4.50691054	 55.50614111
No	 -3.53869556	 -4.70322384	 58.05247026
No	 -5.62554985	 -4.88350849	 56.34878701
No	 -7.71240415	 -5.06379313	 54.64510377
No	 -9.79925844	 -5.24407778	 52.94142052
No	 -1.04099733	 -5.26010643	 57.19143291
No	 -3.12785162	 -5.44039108	 55.48774967
No	 -5.21470591	 -5.62067573	 53.78406642
No	 -7.30156021	 -5.80096038	 52.08038317
No	 -9.38841450	 -5.98124503	 50.37669993
No	 1.45670091	 -5.81698903	 56.33039557
No	 -0.63015339	 -5.99727368	 54.62671232
No	 -2.71700768	 -6.17755833	 52.92302907
No	 -4.80386198	 -6.35784298	 51.21934583
No	 -6.89071627	 -6.53812763	 49.51566258
No	 -8.97757056	 -6.71841227	 47.81197934
No	 3.95439914	 -6.37387163	 55.46935822
No	 1.86754485	 -6.55415628	 53.76567498
No	 -0.21930945	 -6.73444093	 52.06199173
No	 -2.30616374	 -6.91472558	 50.35830848
No	 -4.39301804	 -7.09501022	 48.65462524
No	 -6.47987233	 -7.27529487	 46.95094199
No	 -8.56672662	 -7.45557952	 45.24725875
No	 6.45209737	 -6.93075423	 54.60832088
No	 4.36524308	 -7.11103888	 52.90463763
No	 2.27838878	 -7.29132352	 51.20095438
No	 0.19153449	 -7.47160817	 49.49727114
No	 -1.89531980	 -7.65189282	 47.79358789
No	 -3.98217410	 -7.83217747	 46.08990465
No	 -6.06902839	 -8.01246212	 44.38622140
No	 -8.15588269	 -8.19274677	 42.68253816
Au	 7.75198427	 12.93911163	 75.16090526
Au	 -0.63555772	 14.88662342	 49.57074431
Au	 11.87540410	 -7.50210336	 58.00998287
No	 -13.10157823	 -1.93327738	 66.62035632
Au	 0.20319647	 14.69187225	 52.12976041
Au	 11.46306212	 -5.45798186	 59.72507511
No	 -11.01622198	 -0.44603848	 67.47441122
Au	 1.04195067	 14.49712107	 54.68877650
Au	 11.05072013	 -3.41386036	 61.44016735
No	 -8.93086573	 1.04120042	 68.32846611
Au	 1.88070487	 14.30236989	 57.24779259
Au	 10.63837815	 -1.36973886	 63.15525959
No	 -6.84550948	 2.52843933	 69.18252100
Au	 2.71945907	 14.10761871	 59.80680869
Au	 10.22603617	 0.67438264	 64.87035182
No	 -4.76015323	 4.01567823	 70.03657590
Au	 3.55821327	 13.91286753	 62.36582478
Au	 9.81369418	 2.71850414	 66.58544406
No	 -2.67479698	 5.50291713	 70.89063079
Au	 4.39696747	 13.71811635	 64.92484088
Au	 9.40135220	 4.76262564	 68.30053630
No	 -0.58944073	 6.99015603	 71.74468568
Au	 5.23572167	 13.52336517	 67.48385697
Au	 8.98901022	 6.80674714	 70.01562854
No	 1.49591552	 8.47739493	 72.59874058
Au	 6.07447587	 13.32861399	 70.04287307
Au	 8.57666824	 8.85086864	 71.73072078
No	 3.58127177	 9.96463383	 73.45279547
Au	 6.91323007	 13.13386281	 72.60188916
Au	 8.16432625	 10.89499014	 73.44581302
No	 5.66662802	 11.45187273	 74.30685036
No	 10.62430792	 -5.26323068	 57.16605901
No	 9.37321173	 -3.02435800	 56.32213516
No	 10.21196593	 -3.21910918	 58.88115125
No	 8.12211555	 -0.78548532	 55.47821130
No	 8.96086975	 -0.98023650	 58.03722740
No	 9.79962395	 -1.17498768	 60.59624349
No	 6.87101937	 1.45338736	 54.63428745
No	 7.70977357	 1.25863618	 57.19330354
No	 8.54852777	 1.06388500	 59.75231964
No	 9.38728197	 0.86913382	 62.31133573
No	 5.61992319	 3.69226003	 53.79036359
No	 6.45867739	 3.49750886	 56.34937969
No	 7.29743159	 3.30275768	 58.90839578
No	 8.13618578	 3.10800650	 61.46741187
No	 8.97493998	 2.91325532	 64.02642797
No	 4.36882700	 5.93113271	 52.94643974
No	 5.20758120	 5.73638153	 55.50545583
No	 6.04633540	 5.54163035	 58.06447192
No	 6.88508960	 5.34687918	 60.62348802
No	 7.72384380	 5.15212800	 63.18250411
No	 8.56259800	 4.95737682	 65.74152021
No	 3.11773082	 8.17000539	 52.10251588
No	 3.95648502	 7.97525421	 54.66153197
No	 4.79523922	 7.78050303	 57.22054807
No	 5.63399342	 7.58575185	 59.77956416
No	 6.47274762	 7.39100067	 62.33858026
No	 7.31150182	 7.19624950	 64.89759635
No	 8.15025602	 7.00149832	 67.45661245
No	 1.86663464	 10.40887807	 51.25859202
No	 2.70538884	 10.21412689	 53.81760812
No	 3.54414304	 10.01937571	 56.37662421
No	 4.38289724	 9.82462453	 58.93564031
No	 5.22165144	 9.62987335	 61.49465640
No	 6.06040564	 9.43512217	 64.05367250
No	 6.89915984	 9.24037099	 66.61268859
No	 7.73791404	 9.04561982	 69.17170468
No	 0.61553846	 12.64775075	 50.41466817
No	 1.45429266	 12.45299957	 52.97368426
No	 2.29304686	 12.25824839	 55.53270036
No	 3.13180106	 12.06349721	 58.09171645
No	 3.97055526	 11.86874603	 60.65073255
No	 4.80930945	 11.67399485	 63.20974864
No	 5.64806365	 11.47924367	 65.76876473
No	 6.48681785	 11.28449249	 68.32778083
No	 7.32557205	 11.08974131	 70.88679692
No	 4.82787382	 11.64662391	 71.74783427
No	 3.98911962	 11.84137509	 69.18881817
No	 2.74251757	 10.15938501	 70.89377937
No	 3.15036542	 12.03612627	 66.62980208
No	 1.90376337	 10.35413619	 68.33476328
No	 0.65716132	 8.67214611	 70.03972448
No	 2.31161122	 12.23087745	 64.07078598
No	 1.06500917	 10.54888737	 65.77574719
No	 -0.18159288	 8.86689729	 67.48070839
No	 -1.42819493	 7.18490721	 69.18566959
No	 1.47285702	 12.42562863	 61.51176989
No	 0.22625497	 10.74363855	 63.21673109
No	 -1.02034708	 9.06164847	 64.92169229
No	 -2.26694913	 7.37965839	 66.62665349
No	 -3.51355118	 5.69766831	 68.33161469
No	 0.63410282	 12.62037981	 58.95275380
No	 -0.61249923	 10.93838973	 60.65771500
No	 -1.85910128	 9.25639965	 62.36267620
No	 -3.10570333	 7.57440957	 64.06763740
No	 -4.35230538	 5.89241949	 65.77259860
No	 -5.59890743	 4.21042941	 67.47755980
No	 -0.20465138	 12.81513099	 56.39373770
No	 -1.45125343	 11.13314091	 58.09869890
No	 -2.69785548	 9.45115083	 59.80366010
No	 -3.94445753	 7.76916075	 61.50862130
No	 -5.19105958	 6.08717066	 63.21358251
No	 -6.43766163	 4.40518058	 64.91854371
No	 -7.68426368	 2.72319050	 66.62350491
No	 -1.04340558	 13.00988216	 53.83472161
No	 -2.29000763	 11.32789208	 55.53968281
No	 -3.53660968	 9.64590200	 57.24464401
No	 -4.78321173	 7.96391192	 58.94960521
No	 -6.02981378	 6.28192184	 60.65456641
No	 -7.27641583	 4.59993176	 62.35952761
No	 -8.52301788	 2.91794168	 64.06448881
No	 -9.76961993	 1.23595160	 65.76945001
No	 -1.88215978	 13.20463334	 51.27570551
No	 -3.12876183	 11.52264326	 52.98066671
No	 -4.37536388	 9.84065318	 54.68562791
No	 -5.62196593	 8.15866310	 56.39058912
No	 -6.86856798	 6.47667302	 58.09555032
No	 -8.11517003	 4.79468294	 59.80051152
No	 -9.36177208	 3.11269286	 61.50547272
No	 -10.60837413	 1.43070278	 63.21043392
No	 -11.85497618	 -0.25128730	 64.91539512
No	 -10.60388000	 -2.49015998	 65.75931898
No	 -8.10618177	 -3.04704257	 64.89828163
No	 -8.51852375	 -1.00292108	 66.61337387
No	 -5.60848353	 -3.60392517	 64.03724429
No	 -6.02082552	 -1.55980367	 65.75233653
No	 -6.43316750	 0.48431783	 67.46742876
No	 -3.11078530	 -4.16080777	 63.17620694
No	 -3.52312728	 -2.11668627	 64.89129918
No	 -3.93546927	 -0.07256477	 66.60639142
No	 -4.34781125	 1.97155673	 68.32148366
No	 -0.61308707	 -4.71769037	 62.31516960
No	 -1.02542905	 -2.67356887	 64.03026183
No	 -1.43777103	 -0.62944737	 65.74535407
No	 -1.85011302	 1.41467413	 67.46044631
No	 -2.26245500	 3.45879563	 69.17553855
No	 1.88461117	 -5.27457296	 61.45413225
No	 1.47226918	 -3.23045147	 63.16922449
No	 1.05992720	 -1.18632997	 64.88431673
No	 0.64758522	 0.85779153	 66.59940897
No	 0.23524323	 2.90191303	 68.31450121
No	 -0.17709875	 4.94603453	 70.02959344
No	 4.38230940	 -5.83145556	 60.59309491
No	 3.96996742	 -3.78733406	 62.30818714
No	 3.55762543	 -1.74321256	 64.02327938
No	 3.14528345	 0.30090893	 65.73837162
No	 2.73294147	 2.34503043	 67.45346386
No	 2.32059948	 4.38915193	 69.16855610
No	 1.90825750	 6.43327343	 70.88364834
No	 6.88000763	 -6.38833816	 59.73205756
No	 6.46766565	 -4.34421666	 61.44714980
No	 6.05532367	 -2.30009516	 63.16224204
No	 5.64298168	 -0.25597366	 64.87733428
No	 5.23063970	 1.78814784	 66.59242651
No	 4.81829772	 3.83226933	 68.30751875
No	 4.40595573	 5.87639083	 70.02261099
No	 3.99361375	 7.92051233	 71.73770323
No	 9.37770587	 -6.94522076	 58.87102022
No	 8.96536388	 -4.90109926	 60.58611245
No	 8.55302190	 -2.85697776	 62.30120469
No	 8.14067992	 -0.81285626	 64.01629693
No	 7.72833793	 1.23126524	 65.73138917
No	 7.31599595	 3.27538674	 67.44648141
No	 6.90365397	 5.31950824	 69.16157365
No	 6.49131199	 7.36362974	 70.87666589
No	 6.07897000	 9.40775123	 72.59175812
No	 -0.63106359	 10.96576067	 52.11962937
No	 -1.87766564	 9.28377059	 53.82459057
No	 0.62003259	 8.72688799	 52.96355322
No	 0.20769061	 10.77100949	 54.67864546
No	 -3.12426769	 7.60178051	 55.52955177
No	 -0.62656946	 7.04489791	 54.66851443
No	 -1.03891144	 9.08901941	 56.38360666
No	 1.87112877	 6.48801531	 53.80747708
No	 1.45878679	 8.53213681	 55.52256932
No	 1.04644481	 10.57625831	 57.23766156
No	 -4.37086974	 5.91979043	 57.23451297
No	 -1.87317151	 5.36290783	 56.37347563
No	 -2.28551349	 7.40702933	 58.08856787
No	 0.62452672	 4.80602523	 55.51243828
No	 0.21218474	 6.85014673	 57.22753052
No	 -0.20015724	 8.89426823	 58.94262276
No	 3.12222495	 4.24914263	 54.65140094
No	 2.70988297	 6.29326413	 56.36649317
No	 2.29754099	 8.33738563	 58.08158541
No	 1.88519901	 10.38150713	 59.79667765
No	 -5.61747180	 4.23780034	 58.93947417
No	 -3.11977356	 3.68091775	 58.07843683
No	 -3.53211555	 5.72503925	 59.79352907
No	 -0.62207533	 3.12403515	 57.21739948
No	 -1.03441731	 5.16815665	 58.93249172
No	 -1.44675930	 7.21227815	 60.64758396
No	 1.87562290	 2.56715255	 56.35636214
No	 1.46328092	 4.61127405	 58.07145438
No	 1.05093894	 6.65539555	 59.78654661
No	 0.63859695	 8.69951705	 61.50163885
No	 4.37332114	 2.01026995	 55.49532479
No	 3.96097915	 4.05439145	 57.21041703
No	 3.54863717	 6.09851295	 58.92550927
No	 3.13629519	 8.14263445	 60.64060151
No	 2.72395320	 10.18675595	 62.35569375
No	 -6.86407385	 2.55581026	 60.64443537
No	 -4.36637561	 1.99892767	 59.78339803
No	 -4.77871760	 4.04304917	 61.49849027
No	 -1.86867738	 1.44204507	 58.92236068
No	 -2.28101936	 3.48616657	 60.63745292
No	 -2.69336135	 5.53028807	 62.35254516
No	 0.62902085	 0.88516247	 58.06132334
No	 0.21667887	 2.92928397	 59.77641558
No	 -0.19566311	 4.97340547	 61.49150782
No	 -0.60800510	 7.01752697	 63.20660005
No	 3.12671909	 0.32827987	 57.20028599
No	 2.71437710	 2.37240137	 58.91537823
No	 2.30203512	 4.41652287	 60.63047047
No	 1.88969314	 6.46064437	 62.34556271
No	 1.47735115	 8.50476587	 64.06065495
No	 5.62441732	 -0.22860272	 56.33924865
No	 5.21207534	 1.81551878	 58.05434089
No	 4.79973335	 3.85964027	 59.76943313
No	 4.38739137	 5.90376177	 61.48452536
No	 3.97504939	 7.94788327	 63.19961760
No	 3.56270740	 9.99200477	 64.91470984
No	 -8.11067590	 0.87382018	 62.34939657
No	 -5.61297766	 0.31693759	 61.48835923
No	 -6.02531965	 2.36105909	 63.20345147
No	 -3.11527943	 -0.23994501	 60.62732188
No	 -3.52762141	 1.80417649	 62.34241412
No	 -3.93996340	 3.84829799	 64.05750636
No	 -0.61758120	 -0.79682761	 59.76628454
No	 -1.02992318	 1.24729389	 61.48137678
No	 -1.44226516	 3.29141539	 63.19646902
No	 -1.85460715	 5.33553689	 64.91156125
No	 1.88011703	 -1.35371021	 58.90524719
No	 1.46777505	 0.69041129	 60.62033943
No	 1.05543307	 2.73453279	 62.33543167
No	 0.64309109	 4.77865429	 64.05052391
No	 0.23074910	 6.82277579	 65.76561615
No	 4.37781527	 -1.91059280	 58.04420985
No	 3.96547328	 0.13352869	 59.75930209
No	 3.55313130	 2.17765019	 61.47439433
No	 3.14078932	 4.22177169	 63.18948656
No	 2.72844734	 6.26589319	 64.90457880
No	 2.31610535	 8.31001469	 66.61967104
No	 6.87551350	 -2.46747540	 57.18317250
No	 6.46317152	 -0.42335390	 58.89826474
No	 6.05082953	 1.62076760	 60.61335698
No	 5.63848755	 3.66488910	 62.32844922
No	 5.22614557	 5.70901059	 64.04354146
No	 4.81380359	 7.75313209	 65.75863370
No	 4.40146160	 9.79725359	 67.47372594
No	 -9.35727795	 -0.80816990	 64.05435778
No	 -6.85957971	 -1.36505249	 63.19332043
No	 -7.27192170	 0.67906901	 64.90841267
No	 -4.36188148	 -1.92193509	 62.33228309
No	 -4.77422346	 0.12218641	 64.04737532
No	 -5.18656545	 2.16630791	 65.76246756
No	 -1.86418325	 -2.47881769	 61.47124574
No	 -2.27652523	 -0.43469619	 63.18633798
No	 -2.68886721	 1.60942531	 64.90143022
No	 -3.10120920	 3.65354681	 66.61652246
No	 0.63351498	 -3.03570029	 60.61020840
No	 0.22117300	 -0.99157879	 62.32530063
No	 -0.19116898	 1.05254271	 64.04039287
No	 -0.60351096	 3.09666421	 65.75548511
No	 -1.01585295	 5.14078571	 67.47057735
No	 3.13121322	 -3.59258288	 59.74917105
No	 2.71887123	 -1.54846139	 61.46426329
No	 2.30652925	 0.49566011	 63.17935553
No	 1.89418727	 2.53978161	 64.89444777
No	 1.48184529	 4.58390311	 66.60954000
No	 1.06950330	 6.62802461	 68.32463224
No	 5.62891145	 -4.14946548	 58.88813371
No	 5.21656947	 -2.10534398	 60.60322594
No	 4.80422748	 -0.06122248	 62.31831818
No	 4.39188550	 1.98289901	 64.03341042
No	 3.97954352	 4.02702051	 65.74850266
No	 3.56720154	 6.07114201	 67.46359490
No	 3.15485955	 8.11526351	 69.17868714
No	 8.12660968	 -4.70634808	 58.02709636
No	 7.71426770	 -2.66222658	 59.74218860
No	 7.30192572	 -0.61810508	 61.45728084
No	 6.88958373	 1.42601642	 63.17237308
No	 6.47724175	 3.47013792	 64.88746531
No	 6.06489977	 5.51425942	 66.60255755
No	 5.65255779	 7.55838091	 68.31764979
No	 5.24021580	 9.60250241	 70.03274203
Au	 4.70950917	 -15.09979427	 84.46966999
Au	 5.39843980	 -14.59492432	 81.90832642
Au	 2.90074157	 -14.03804173	 82.76936376
No	 4.98609782	 -12.55080282	 83.62341865
Au	 6.08737043	 -14.09005438	 79.34698284
Au	 1.09197396	 -12.97628918	 81.06905753
No	 5.26268646	 -10.00181138	 82.77716731
Au	 6.77630105	 -13.58518443	 76.78563926
Au	 -0.71679364	 -11.91453664	 79.36875129
No	 5.53927511	 -7.45281993	 81.93091597
Au	 7.46523168	 -13.08031448	 74.22429568
Au	 -2.52556125	 -10.85278409	 77.66844506
No	 5.81586375	 -4.90382849	 81.08466463
Au	 8.15416231	 -12.57544454	 71.66295210
Au	 -4.33432885	 -9.79103155	 75.96813883
No	 6.09245240	 -2.35483704	 80.23841329
Au	 8.84309294	 -12.07057459	 69.10160852
Au	 -6.14309646	 -8.72927900	 74.26783259
No	 6.36904104	 0.19415441	 79.39216195
Au	 9.53202357	 -11.56570464	 66.54026495
Au	 -7.95186406	 -7.66752646	 72.56752636
No	 6.64562969	 2.74314585	 78.54591061
Au	 10.22095420	 -11.06083470	 63.97892137
Au	 -9.76063167	 -6.60577391	 70.86722013
No	 6.92221833	 5.29213730	 77.69965928
Au	 10.90988482	 -10.55596475	 61.41757779
Au	 -11.56939927	 -5.54402137	 69.16691390
No	 7.19880698	 7.84112874	 76.85340794
Au	 11.59881545	 -10.05109480	 58.85623421
Au	 -13.37816688	 -4.48226882	 67.46660766
No	 7.47539562	 10.39012019	 76.00715660
No	 -10.88046864	 -5.03915142	 66.60557032
No	 -9.07170104	 -6.10090397	 68.30587655
No	 -8.38277041	 -5.59603402	 65.74453297
No	 -7.26293343	 -7.16265651	 70.00618278
No	 -6.57400281	 -6.65778656	 67.44483920
No	 -5.88507218	 -6.15291662	 64.88349563
No	 -5.45416583	 -8.22440906	 71.70648902
No	 -4.76523520	 -7.71953911	 69.14514544
No	 -4.07630457	 -7.21466916	 66.58380186
No	 -3.38737394	 -6.70979922	 64.02245828
No	 -3.64539822	 -9.28616160	 73.40679525
No	 -2.95646760	 -8.78129165	 70.84545167
No	 -2.26753697	 -8.27642171	 68.28410809
No	 -1.57860634	 -7.77155176	 65.72276451
No	 -0.88967571	 -7.26668181	 63.16142094
No	 -1.83663062	 -10.34791415	 75.10710148
No	 -1.14769999	 -9.84304420	 72.54575790
No	 -0.45876936	 -9.33817425	 69.98441433
No	 0.23016126	 -8.83330430	 67.42307075
No	 0.91909189	 -8.32843436	 64.86172717
No	 1.60802252	 -7.82356441	 62.30038359
No	 -0.02786302	 -11.40966669	 76.80740772
No	 0.66106761	 -10.90479674	 74.24606414
No	 1.34999824	 -10.39992680	 71.68472056
No	 2.03892887	 -9.89505685	 69.12337698
No	 2.72785950	 -9.39018690	 66.56203340
No	 3.41679013	 -8.88531696	 64.00068982
No	 4.10572075	 -8.38044701	 61.43934625
No	 1.78090459	 -12.47141923	 78.50771395
No	 2.46983522	 -11.96654929	 75.94637037
No	 3.15876585	 -11.46167934	 73.38502679
No	 3.84769647	 -10.95680939	 70.82368321
No	 4.53662710	 -10.45193945	 68.26233964
No	 5.22555773	 -9.94706950	 65.70099606
No	 5.91448836	 -9.44219955	 63.13965248
No	 6.60341899	 -8.93732961	 60.57830890
No	 3.58967219	 -13.53317178	 80.20802018
No	 4.27860282	 -13.02830183	 77.64667660
No	 4.96753345	 -12.52343188	 75.08533303
No	 5.65646408	 -12.01856194	 72.52398945
No	 6.34539471	 -11.51369199	 69.96264587
No	 7.03432534	 -11.00882204	 67.40130229
No	 7.72325596	 -10.50395210	 64.83995871
No	 8.41218659	 -9.99908215	 62.27861513
No	 9.10111722	 -9.49421220	 59.71727156
No	 11.18647347	 -8.00697330	 60.57132645
No	 10.49754284	 -8.51184325	 63.13267003
No	 10.77413149	 -5.96285180	 62.28641869
No	 9.80861221	 -9.01671320	 65.69401361
No	 10.08520086	 -6.46772175	 64.84776227
No	 10.36178950	 -3.91873030	 64.00151093
No	 9.11968159	 -9.52158314	 68.25535718
No	 9.39627023	 -6.97259170	 67.40910584
No	 9.67285888	 -4.42360025	 66.56285450
No	 9.94944752	 -1.87460881	 65.71660316
No	 8.43075096	 -10.02645309	 70.81670076
No	 8.70733960	 -7.47746164	 69.97044942
No	 8.98392825	 -4.92847020	 69.12419808
No	 9.26051689	 -2.37947875	 68.27794674
No	 9.53710554	 0.16951269	 67.43169540
No	 7.74182033	 -10.53132304	 73.37804434
No	 8.01840897	 -7.98233159	 72.53179300
No	 8.29499762	 -5.43334014	 71.68554166
No	 8.57158626	 -2.88434870	 70.83929032
No	 8.84817491	 -0.33535725	 69.99303898
No	 9.12476356	 2.21363419	 69.14678764
No	 7.05288970	 -11.03619298	 75.93938792
No	 7.32947835	 -8.48720154	 75.09313658
No	 7.60606699	 -5.93821009	 74.24688524
No	 7.88265564	 -3.38921865	 73.40063390
No	 8.15924428	 -0.84022720	 72.55438256
No	 8.43583293	 1.70876425	 71.70813122
No	 8.71242157	 4.25775569	 70.86187988
No	 6.36395907	 -11.54106293	 78.50073150
No	 6.64054772	 -8.99207148	 77.65448016
No	 6.91713636	 -6.44308004	 76.80822882
No	 7.19372501	 -3.89408859	 75.96197748
No	 7.47031365	 -1.34509715	 75.11572614
No	 7.74690230	 1.20389430	 74.26947480
No	 8.02349094	 3.75288574	 73.42322346
No	 8.30007959	 6.30187719	 72.57697212
No	 5.67502844	 -12.04593288	 81.06207508
No	 5.95161709	 -9.49694143	 80.21582374
No	 6.22820573	 -6.94794999	 79.36957240
No	 6.50479438	 -4.39895854	 78.52332106
No	 6.78138303	 -1.84996709	 77.67706972
No	 7.05797167	 0.69902435	 76.83081838
No	 7.33456032	 3.24801580	 75.98456704
No	 7.61114896	 5.79700724	 75.13831570
No	 7.88773761	 8.34599869	 74.29206436
No	 5.39003937	 8.90288129	 75.15310170
No	 5.11345073	 6.35388984	 75.99935304
No	 3.30468312	 7.41564239	 74.29904681
No	 4.83686208	 3.80489840	 76.84560438
No	 3.02809448	 4.86665094	 75.14529815
No	 1.21932687	 5.92840348	 73.44499192
No	 4.56027344	 1.25590695	 77.69185572
No	 2.75150583	 2.31765949	 75.99154949
No	 0.94273823	 3.37941204	 74.29124326
No	 -0.86602938	 4.44116458	 72.59093702
No	 4.28368479	 -1.29308450	 78.53810706
No	 2.47491719	 -0.23133195	 76.83780083
No	 0.66614958	 0.83042059	 75.13749460
No	 -1.14261802	 1.89217314	 73.43718836
No	 -2.95138563	 2.95392568	 71.73688213
No	 4.00709615	 -3.84207594	 79.38435840
No	 2.19832854	 -2.78032340	 77.68405217
No	 0.38956094	 -1.71857085	 75.98374593
No	 -1.41920667	 -0.65681831	 74.28343970
No	 -3.22797427	 0.40493424	 72.58313347
No	 -5.03674188	 1.46668678	 70.88282724
No	 3.73050750	 -6.39106739	 80.23060974
No	 1.92173990	 -5.32931484	 78.53030351
No	 0.11297229	 -4.26756230	 76.82999727
No	 -1.69579531	 -3.20580975	 75.12969104
No	 -3.50456292	 -2.14405721	 73.42938481
No	 -5.31333052	 -1.08230467	 71.72907858
No	 -7.12209813	 -0.02055212	 70.02877234
No	 3.45391886	 -8.94005883	 81.07686108
No	 1.64515125	 -7.87830629	 79.37655485
No	 -0.16361635	 -6.81655374	 77.67624861
No	 -1.97238396	 -5.75480120	 75.97594238
No	 -3.78115156	 -4.69304866	 74.27563615
No	 -5.58991917	 -3.63129611	 72.57532991
No	 -7.39868677	 -2.56954357	 70.87502368
No	 -9.20745438	 -1.50779102	 69.17471745
No	 3.17733021	 -11.48905028	 81.92311242
No	 1.36856261	 -10.42729774	 80.22280619
No	 -0.44020500	 -9.36554519	 78.52249995
No	 -2.24897260	 -8.30379265	 76.82219372
No	 -4.05774021	 -7.24204010	 75.12188749
No	 -5.86650781	 -6.18028756	 73.42158125
No	 -7.67527542	 -5.11853501	 71.72127502
No	 -9.48404302	 -4.05678247	 70.02096879
No	 -11.29281063	 -2.99502992	 68.32066256
No	 3.86626084	 -10.98418033	 79.36176884
No	 2.05749323	 -9.92242779	 77.66146261
No	 4.55519147	 -10.47931039	 76.80042526
No	 4.14284948	 -8.43518889	 78.51551750
No	 0.24872563	 -8.86067524	 75.96115638
No	 2.74642386	 -9.41755784	 75.10011903
No	 2.33408188	 -7.37343634	 76.81521127
No	 5.24412210	 -9.97444044	 74.23908169
No	 4.83178011	 -7.93031894	 75.95417392
No	 4.41943813	 -5.88619744	 77.66926616
No	 -1.56004197	 -7.79892270	 74.26085014
No	 0.93765626	 -8.35580530	 73.39981280
No	 0.52531428	 -6.31168380	 75.11490504
No	 3.43535449	 -8.91268789	 72.53877545
No	 3.02301251	 -6.86856640	 74.25386769
No	 2.61067053	 -4.82444490	 75.96895993
No	 5.93305272	 -9.46957049	 71.67773811
No	 5.52071074	 -7.42544899	 73.39283035
No	 5.10836876	 -5.38132749	 75.10792258
No	 4.69602678	 -3.33720600	 76.82301482
No	 -3.36880958	 -6.73717015	 72.56054391
No	 -0.87111135	 -7.29405275	 71.69950656
No	 -1.28345333	 -5.24993125	 73.41459880
No	 1.62658689	 -7.85093535	 70.83846922
No	 1.21424490	 -5.80681385	 72.55356146
No	 0.80190292	 -3.76269235	 74.26865370
No	 4.12428512	 -8.40781795	 69.97743187
No	 3.71194314	 -6.36369645	 71.69252411
No	 3.29960115	 -4.31957495	 73.40761635
No	 2.88725917	 -2.27545345	 75.12270859
No	 6.62198335	 -8.96470055	 69.11639453
No	 6.20964137	 -6.92057905	 70.83148677
No	 5.79729939	 -4.87645755	 72.54657901
No	 5.38495740	 -2.83233605	 74.26167124
No	 4.97261542	 -0.78821455	 75.97676348
No	 -5.17757718	 -5.67541761	 70.86023768
No	 -2.67987895	 -6.23230021	 69.99920033
No	 -3.09222093	 -4.18817871	 71.71429257
No	 -0.18218072	 -6.78918281	 69.13816299
No	 -0.59452270	 -4.74506131	 70.85325522
No	 -1.00686468	 -2.70093981	 72.56834746
No	 2.31551751	 -7.34606540	 68.27712564
No	 1.90317553	 -5.30194390	 69.99221788
No	 1.49083355	 -3.25782241	 71.70731012
No	 1.07849157	 -1.21370091	 73.42240236
No	 4.81321575	 -7.90294800	 67.41608830
No	 4.40087376	 -5.85882650	 69.13118053
No	 3.98853178	 -3.81470500	 70.84627277
No	 3.57618980	 -1.77058350	 72.56136501
No	 3.16384782	 0.27353800	 74.27645725
No	 7.31091398	 -8.45983060	 66.55505095
No	 6.89857200	 -6.41570910	 68.27014319
No	 6.48623001	 -4.37158760	 69.98523543
No	 6.07388803	 -2.32746610	 71.70032767
No	 5.66154605	 -0.28334460	 73.41541990
No	 5.24920407	 1.76077690	 75.13051214
No	 -6.98634479	 -4.61366507	 69.15993144
No	 -4.48864656	 -5.17054766	 68.29889410
No	 -4.90098854	 -3.12642616	 70.01398634
No	 -1.99094832	 -5.72743026	 67.43785675
No	 -2.40329031	 -3.68330876	 69.15294899
No	 -2.81563229	 -1.63918726	 70.86804123
No	 0.50674991	 -6.28431286	 66.57681941
No	 0.09440793	 -4.24019136	 68.29191165
No	 -0.31793406	 -2.19606986	 70.00700388
No	 -0.73027604	 -0.15194836	 71.72209612
No	 3.00444814	 -6.84119546	 65.71578206
No	 2.59210616	 -4.79707396	 67.43087430
No	 2.17976418	 -2.75295246	 69.14596654
No	 1.76742219	 -0.70883096	 70.86105878
No	 1.35508021	 1.33529054	 72.57615102
No	 5.50214638	 -7.39807805	 64.85474472
No	 5.08980439	 -5.35395655	 66.56983696
No	 4.67746241	 -3.30983506	 68.28492919
No	 4.26512043	 -1.26571356	 70.00002143
No	 3.85277844	 0.77840794	 71.71511367
No	 3.44043646	 2.82252944	 73.43020591
No	 7.99984461	 -7.95496065	 63.99370737
No	 7.58750263	 -5.91083915	 65.70879961
No	 7.17516064	 -3.86671765	 67.42389185
No	 6.76281866	 -1.82259615	 69.13898409
No	 6.35047668	 0.22152534	 70.85407633
No	 5.93813469	 2.26564684	 72.56916856
No	 5.52579271	 4.30976834	 74.28426080
No	 -8.79511239	 -3.55191252	 67.45962521
No	 -6.29741416	 -4.10879512	 66.59858786
No	 -6.70975614	 -2.06467362	 68.31368010
No	 -3.79971593	 -4.66567772	 65.73755052
No	 -4.21205791	 -2.62155622	 67.45264276
No	 -4.62439989	 -0.57743472	 69.16773500
No	 -1.30201769	 -5.22256031	 64.87651317
No	 -1.71435968	 -3.17843882	 66.59160541
No	 -2.12670166	 -1.13431732	 68.30669765
No	 -2.53904364	 0.90980418	 70.02178989
No	 1.19568054	 -5.77944291	 64.01547583
No	 0.78333856	 -3.73532141	 65.73056807
No	 0.37099657	 -1.69119991	 67.44566031
No	 -0.04134541	 0.35292159	 69.16075255
No	 -0.45368739	 2.39704308	 70.87584478
No	 3.69337877	 -6.33632551	 63.15443848
No	 3.28103679	 -4.29220401	 64.86953072
No	 2.86869481	 -2.24808251	 66.58462296
No	 2.45635282	 -0.20396101	 68.29971520
No	 2.04401084	 1.84016049	 70.01480744
No	 1.63166886	 3.88428199	 71.72989968
No	 6.19107700	 -6.89320811	 62.29340114
No	 5.77873502	 -4.84908661	 64.00849338
No	 5.36639304	 -2.80496511	 65.72358562
No	 4.95405106	 -0.76084361	 67.43867785
No	 4.54170907	 1.28327789	 69.15377009
No	 4.12936709	 3.32739939	 70.86886233
No	 3.71702511	 5.37152089	 72.58395457
No	 8.68877524	 -7.45009070	 61.43236379
No	 8.27643325	 -5.40596921	 63.14745603
No	 7.86409127	 -3.36184771	 64.86254827
No	 7.45174929	 -1.31772621	 66.57764051
No	 7.03940731	 0.72639529	 68.29273275
No	 6.62706532	 2.77051679	 70.00782499
No	 6.21472334	 4.81463829	 71.72291723
No	 5.80238136	 6.85875979	 73.43800946
Au	 -14.10470678	 5.82542558	 93.96969382
Au	 2.99912590	 -13.19750156	 85.33330852
Au	 -14.20309111	 4.98488541	 91.40574906
Au	 -12.11773486	 6.47212431	 92.25980395
Au	 1.28874263	 -11.29520884	 86.19694705
Au	 -14.30147545	 4.14434524	 88.84180429
Au	 -10.13076295	 7.11882304	 90.54991408
Au	 -0.42164063	 -9.39291613	 87.06058558
Au	 -14.39985979	 3.30380507	 86.27785953
Au	 -8.14379104	 7.76552177	 88.84002421
Au	 -2.13202390	 -7.49062342	 87.92422411
Au	 -14.49824412	 2.46326490	 83.71391477
Au	 -6.15681912	 8.41222051	 87.13013434
Au	 -3.84240717	 -5.58833070	 88.78786264
Au	 -14.59662846	 1.62272473	 81.14997001
Au	 -4.16984721	 9.05891924	 85.42024447
Au	 -5.55279044	 -3.68603799	 89.65150117
Au	 -14.69501280	 0.78218456	 78.58602524
Au	 -2.18287530	 9.70561797	 83.71035460
Au	 -7.26317370	 -1.78374528	 90.51513970
Au	 -14.79339713	 -0.05835560	 76.02208048
Au	 -0.19590338	 10.35231670	 82.00046473
Au	 -8.97355697	 0.11854744	 91.37877823
Au	 -14.89178147	 -0.89889577	 73.45813572
Au	 1.79106853	 10.99901544	 80.29057486
Au	 -10.68394024	 2.02084015	 92.24241676
Au	 -14.99016581	 -1.73943594	 70.89419095
Au	 3.77804044	 11.64571417	 78.58068499
Au	 -12.39432351	 3.92313286	 93.10605529
Au	 -15.08855014	 -2.57997611	 68.33024619
Au	 5.76501236	 12.29241290	 76.87079513
Au	 -13.27978254	 -3.64172866	 70.03055242
Au	 -11.47101493	 -4.70348120	 71.73085866
Au	 -13.18139820	 -2.80118849	 72.59449719
Au	 -9.66224733	 -5.76523374	 73.43116489
Au	 -11.37263060	 -3.86294103	 74.29480342
Au	 -13.08301387	 -1.96064832	 75.15844195
Au	 -7.85347973	 -6.82698629	 75.13147112
Au	 -9.56386299	 -4.92469358	 75.99510965
Au	 -11.27424626	 -3.02240086	 76.85874818
Au	 -12.98462953	 -1.12010815	 77.72238671
Au	 -6.04471212	 -7.88873883	 76.83177736
Au	 -7.75509539	 -5.98644612	 77.69541589
Au	 -9.46547866	 -4.08415341	 78.55905442
Au	 -11.17586192	 -2.18186069	 79.42269295
Au	 -12.88624519	 -0.27956798	 80.28633148
Au	 -4.23594452	 -8.95049138	 78.53208359
Au	 -5.94632778	 -7.04819867	 79.39572212
Au	 -7.65671105	 -5.14590595	 80.25936065
Au	 -9.36709432	 -3.24361324	 81.12299918
Au	 -11.07747759	 -1.34132053	 81.98663771
Au	 -12.78786086	 0.56097219	 82.85027624
Au	 -2.42717691	 -10.01224392	 80.23238982
Au	 -4.13756018	 -8.10995121	 81.09602835
Au	 -5.84794345	 -6.20765850	 81.95966688
Au	 -7.55832671	 -4.30536578	 82.82330541
Au	 -9.26870998	 -2.40307307	 83.68694394
Au	 -10.97909325	 -0.50078036	 84.55058247
Au	 -12.68947652	 1.40151236	 85.41422100
Au	 -0.61840931	 -11.07399647	 81.93269606
Au	 -2.32879257	 -9.17170375	 82.79633459
Au	 -4.03917584	 -7.26941104	 83.65997312
Au	 -5.74955911	 -5.36711833	 84.52361165
Au	 -7.45994238	 -3.46482561	 85.38725018
Au	 -9.17032565	 -1.56253290	 86.25088871
Au	 -10.88070891	 0.33975981	 87.11452723
Au	 -12.59109218	 2.24205253	 87.97816576
Au	 1.19035830	 -12.13574901	 83.63300229
Au	 -0.52002497	 -10.23345630	 84.49664082
Au	 -2.23040824	 -8.33116359	 85.36027935
Au	 -3.94079151	 -6.42887087	 86.22391788
Au	 -5.65117477	 -4.52657816	 87.08755641
Au	 -7.36155804	 -2.62428545	 87.95119494
Au	 -9.07194131	 -0.72199273	 88.81483347
Au	 -10.78232458	 1.18029998	 89.67847200
Au	 -12.49270784	 3.08259269	 90.54211053
No	 -10.40735159	 4.56983160	 91.39616542
No	 -8.69696833	 2.66753888	 90.53252689
No	 -8.42037968	 5.21653033	 89.68627555
No	 -6.98658506	 0.76524617	 89.66888836
No	 -6.70999641	 3.31423762	 88.82263702
No	 -6.43340777	 5.86322906	 87.97638568
No	 -5.27620179	 -1.13704654	 88.80524983
No	 -4.99961315	 1.41194490	 87.95899849
No	 -4.72302450	 3.96093635	 87.11274715
No	 -4.44643586	 6.50992779	 86.26649581
No	 -3.56581852	 -3.03933926	 87.94161130
No	 -3.28922988	 -0.49034781	 87.09535996
No	 -3.01264123	 2.05864363	 86.24910862
No	 -2.73605259	 4.60763508	 85.40285728
No	 -2.45946394	 7.15662653	 84.55660594
No	 -1.85543526	 -4.94163197	 87.07797277
No	 -1.57884661	 -2.39264052	 86.23172143
No	 -1.30225796	 0.15635092	 85.38547009
No	 -1.02566932	 2.70534237	 84.53921875
No	 -0.74908067	 5.25433381	 83.69296741
No	 -0.47249203	 7.80332526	 82.84671607
No	 -0.14505199	 -6.84392468	 86.21433424
No	 0.13153666	 -4.29493324	 85.36808290
No	 0.40812530	 -1.74594179	 84.52183156
No	 0.68471395	 0.80304965	 83.67558022
No	 0.96130259	 3.35204110	 82.82932888
No	 1.23789124	 5.90103255	 81.98307754
No	 1.51447988	 8.45002399	 81.13682620
No	 1.56533128	 -8.74621740	 85.35069571
No	 1.84191993	 -6.19722595	 84.50444437
No	 2.11850857	 -3.64823451	 83.65819303
No	 2.39509722	 -1.09924306	 82.81194169
No	 2.67168586	 1.44974839	 81.96569035
No	 2.94827451	 3.99873983	 81.11943901
No	 3.22486315	 6.54773128	 80.27318767
No	 3.50145180	 9.09672272	 79.42693633
No	 3.27571455	 -10.64851011	 84.48705718
No	 3.55230319	 -8.09951866	 83.64080584
No	 3.82889184	 -5.55052722	 82.79455450
No	 4.10548048	 -3.00153577	 81.94830316
No	 4.38206913	 -0.45254433	 81.10205182
No	 4.65865777	 2.09644712	 80.25580048
No	 4.93524642	 4.64543856	 79.40954914
No	 5.21183507	 7.19443001	 78.56329780
No	 5.48842371	 9.74342146	 77.71704646
No	 -13.00319389	 -1.09273721	 69.18430108
No	 -12.90480956	 -0.25219704	 71.74824585
No	 -10.91783764	 0.39450169	 70.03835598
No	 -12.80642522	 0.58834313	 74.31219061
No	 -10.81945331	 1.23504186	 72.60230074
No	 -8.83248139	 1.88174059	 70.89241087
No	 -12.70804088	 1.42888330	 76.87613537
No	 -10.72106897	 2.07558203	 75.16624550
No	 -8.73409706	 2.72228076	 73.45635563
No	 -6.74712514	 3.36897949	 71.74646576
No	 -12.60965655	 2.26942347	 79.44008014
No	 -10.62268463	 2.91612220	 77.73019027
No	 -8.63571272	 3.56282093	 76.02030040
No	 -6.64874081	 4.20951966	 74.31041053
No	 -4.66176889	 4.85621840	 72.60052066
No	 -12.51127221	 3.10996363	 82.00402490
No	 -10.52430030	 3.75666237	 80.29413503
No	 -8.53732838	 4.40336110	 78.58424516
No	 -6.55035647	 5.05005983	 76.87435529
No	 -4.56338456	 5.69675856	 75.16446542
No	 -2.57641264	 6.34345730	 73.45457555
No	 -12.41288787	 3.95050380	 84.56796966
No	 -10.42591596	 4.59720254	 82.85807979
No	 -8.43894405	 5.24390127	 81.14818992
No	 -6.45197213	 5.89060000	 79.43830005
No	 -4.46500022	 6.53729873	 77.72841018
No	 -2.47802831	 7.18399747	 76.01852031
No	 -0.49105639	 7.83069620	 74.30863045
No	 -12.31450354	 4.79104397	 87.13191442
No	 -10.32753162	 5.43774270	 85.42202456
No	 -8.34055971	 6.08444144	 83.71213469
No	 -6.35358780	 6.73114017	 82.00224482
No	 -4.36661588	 7.37783890	 80.29235495
No	 -2.37964397	 8.02453763	 78.58246508
No	 -0.39267206	 8.67123637	 76.87257521
No	 1.59429986	 9.31793510	 75.16268534
No	 -12.21611920	 5.63158414	 89.69585919
No	 -10.22914729	 6.27828287	 87.98596932
No	 -8.24217537	 6.92498161	 86.27607945
No	 -6.25520346	 7.57168034	 84.56618958
No	 -4.26823155	 8.21837907	 82.85629971
No	 -2.28125963	 8.86507780	 81.14640984
No	 -0.29428772	 9.51177654	 79.43651997
No	 1.69268419	 10.15847527	 77.72663010
No	 3.67965611	 10.80517400	 76.01674023
No	 1.46694694	 -9.58675757	 82.78675095
No	 -0.34182066	 -8.52500502	 81.08644472
No	 -0.24343632	 -7.68446485	 83.65038948
No	 1.74353559	 -7.03776612	 81.94049961
No	 -2.15058827	 -7.46325248	 79.38613848
No	 -2.05220393	 -6.62271231	 81.95008325
No	 -0.06523202	 -5.97601358	 80.24019338
No	 -1.95381959	 -5.78217214	 84.51402801
No	 0.03315232	 -5.13547341	 82.80413814
No	 2.02012423	 -4.48877467	 81.09424827
No	 -3.95935587	 -6.40149993	 77.68583225
No	 -3.86097153	 -5.56095976	 80.24977701
No	 -1.87399962	 -4.91426103	 78.53988714
No	 -3.76258720	 -4.72041959	 82.81372178
No	 -1.77561528	 -4.07372086	 81.10383191
No	 0.21135663	 -3.42702213	 79.39394204
No	 -3.66420286	 -3.87987943	 85.37766654
No	 -1.67723095	 -3.23318069	 83.66777667
No	 0.30974097	 -2.58648196	 81.95788680
No	 2.29671288	 -1.93978323	 80.24799693
No	 -5.76812348	 -5.33974739	 75.98552602
No	 -5.66973914	 -4.49920722	 78.54947078
No	 -3.68276723	 -3.85250849	 76.83958091
No	 -5.57135480	 -3.65866705	 81.11341554
No	 -3.58438289	 -3.01196832	 79.40352567
No	 -1.59741098	 -2.36526959	 77.69363580
No	 -5.47297046	 -2.81812688	 83.67736031
No	 -3.48599855	 -2.17142815	 81.96747044
No	 -1.49902664	 -1.52472942	 80.25758057
No	 0.48794527	 -0.87803068	 78.54769070
No	 -5.37458613	 -1.97758671	 86.24130507
No	 -3.38761421	 -1.33088798	 84.53141520
No	 -1.40064230	 -0.68418925	 82.82152533
No	 0.58632961	 -0.03749052	 81.11163546
No	 2.57330152	 0.60920822	 79.40174559
No	 -7.57689108	 -4.27799484	 74.28521978
No	 -7.47850674	 -3.43745467	 76.84916455
No	 -5.49153483	 -2.79075594	 75.13927468
No	 -7.38012241	 -2.59691451	 79.41310931
No	 -5.39315049	 -1.95021577	 77.70321944
No	 -3.40617858	 -1.30351704	 75.99332957
No	 -7.28173807	 -1.75637434	 81.97705407
No	 -5.29476616	 -1.10967560	 80.26716420
No	 -3.30779424	 -0.46297687	 78.55727433
No	 -1.32082233	 0.18372186	 76.84738446
No	 -7.18335373	 -0.91583417	 84.54099884
No	 -5.19638182	 -0.26913544	 82.83110897
No	 -3.20940991	 0.37756330	 81.12121910
No	 -1.22243799	 1.02426203	 79.41132923
No	 0.76453392	 1.67096076	 77.70143936
No	 -7.08496940	 -0.07529400	 87.10494360
No	 -5.09799748	 0.57140473	 85.39505373
No	 -3.11102557	 1.21810347	 83.68516386
No	 -1.12405366	 1.86480220	 81.97527399
No	 0.86291826	 2.51150093	 80.26538412
No	 2.84989017	 3.15819966	 78.55549425
No	 -9.38565868	 -3.21624230	 72.58491355
No	 -9.28727435	 -2.37570213	 75.14885831
No	 -7.30030243	 -1.72900340	 73.43896844
No	 -9.18889001	 -1.53516196	 77.71280308
No	 -7.20191810	 -0.88846323	 76.00291321
No	 -5.21494618	 -0.24176450	 74.29302334
No	 -9.09050567	 -0.69462179	 80.27674784
No	 -7.10353376	 -0.04792306	 78.56685797
No	 -5.11656185	 0.59877567	 76.85696810
No	 -3.12958993	 1.24547440	 75.14707823
No	 -8.99212134	 0.14591838	 82.84069260
No	 -7.00514942	 0.79261711	 81.13080273
No	 -5.01817751	 1.43931584	 79.42091286
No	 -3.03120560	 2.08601457	 77.71102299
No	 -1.04423368	 2.73271331	 76.00113312
No	 -8.89373700	 0.98645855	 85.40463737
No	 -6.90676509	 1.63315728	 83.69474750
No	 -4.91979317	 2.27985601	 81.98485763
No	 -2.93282126	 2.92655474	 80.27496776
No	 -0.94584935	 3.57325348	 78.56507789
No	 1.04112257	 4.21995221	 76.85518802
No	 -8.79535266	 1.82699871	 87.96858213
No	 -6.80838075	 2.47369745	 86.25869226
No	 -4.82140884	 3.12039618	 84.54880239
No	 -2.83443692	 3.76709491	 82.83891252
No	 -0.84746501	 4.41379364	 81.12902265
No	 1.13950690	 5.06049238	 79.41913278
No	 3.12647882	 5.70719111	 77.70924291
No	 -11.19442629	 -2.15448975	 70.88460732
No	 -11.09604195	 -1.31394959	 73.44855208
No	 -9.10907004	 -0.66725085	 71.73866221
No	 -10.99765762	 -0.47340942	 76.01249684
No	 -9.01068570	 0.17328932	 74.30260697
No	 -7.02371379	 0.81998805	 72.59271710
No	 -10.89927328	 0.36713075	 78.57644161
No	 -8.91230137	 1.01382948	 76.86655174
No	 -6.92532945	 1.66052822	 75.15666187
No	 -4.93835754	 2.30722695	 73.44677200
No	 -10.80088894	 1.20767092	 81.14038637
No	 -8.81391703	 1.85436965	 79.43049650
No	 -6.82694512	 2.50106839	 77.72060663
No	 -4.83997320	 3.14776712	 76.01071676
No	 -2.85300129	 3.79446585	 74.30082689
No	 -10.70250461	 2.04821109	 83.70433113
No	 -8.71553269	 2.69490982	 81.99444126
No	 -6.72856078	 3.34160855	 80.28455139
No	 -4.74158887	 3.98830729	 78.57466152
No	 -2.75461695	 4.63500602	 76.86477165
No	 -0.76764504	 5.28170475	 75.15488178
No	 -10.60412027	 2.88875126	 86.26827589
No	 -8.61714836	 3.53544999	 84.55838603
No	 -6.63017644	 4.18214872	 82.84849616
No	 -4.64320453	 4.82884746	 81.13860629
No	 -2.65623262	 5.47554619	 79.42871642
No	 -0.66926070	 6.12224492	 77.71882655
No	 1.31771121	 6.76894365	 76.00893668
No	 -10.50573593	 3.72929143	 88.83222066
No	 -8.51876402	 4.37599016	 87.12233079
No	 -6.53179211	 5.02268889	 85.41244092
No	 -4.54482019	 5.66938762	 83.70255105
No	 -2.55784828	 6.31608636	 81.99266118
No	 -0.57087637	 6.96278509	 80.28277131
No	 1.41609555	 7.60948382	 78.57288144
No	 3.40306746	 8.25618255	 76.86299157
Au	 14.09145892	 5.86367824	 103.30054462
Au	 5.56241369	 -13.19402404	 86.18156769
Au	 -11.54141898	 5.82890309	 94.81795298
Au	 13.51514305	 6.50689946	 100.74239558
Au	 6.41531822	 -11.28825381	 87.89346538
Au	 -8.97813119	 5.83238061	 95.66621215
Au	 12.93882717	 7.15012068	 98.18424655
Au	 7.26822274	 -9.38248359	 89.60536307
Au	 -6.41484340	 5.83585812	 96.51447131
Au	 12.36251129	 7.79334189	 95.62609752
Au	 8.12112726	 -7.47671336	 91.31726077
Au	 -3.85155561	 5.83933564	 97.36273047
Au	 11.78619541	 8.43656311	 93.06794849
Au	 8.97403179	 -5.57094313	 93.02915846
Au	 -1.28826782	 5.84281315	 98.21098964
Au	 11.20987954	 9.07978433	 90.50979945
Au	 9.82693631	 -3.66517290	 94.74105615
Au	 1.27501997	 5.84629067	 99.05924880
Au	 10.63356366	 9.72300555	 87.95165042
Au	 10.67984083	 -1.75940267	 96.45295385
Au	 3.83830776	 5.84976818	 99.90750796
Au	 10.05724778	 10.36622676	 85.39350139
Au	 11.53274535	 0.14636756	 98.16485154
Au	 6.40159555	 5.85324570	 100.75576713
Au	 9.48093190	 11.00944798	 82.83535235
Au	 12.38564988	 2.05213778	 99.87674923
Au	 8.96488334	 5.85672321	 101.60402629
Au	 8.90461602	 11.65266920	 80.27720332
Au	 13.23855440	 3.95790801	 101.58864692
Au	 11.52817113	 5.86020073	 102.45228545
Au	 8.32830015	 12.29589042	 77.71905429
Au	 10.67526661	 3.95443050	 100.74038776
Au	 9.82236209	 2.04866027	 99.02849007
Au	 8.11197882	 3.95095298	 99.89212860
Au	 8.96945756	 0.14289004	 97.31659237
Au	 7.25907430	 2.04518275	 98.18023090
Au	 5.54869103	 3.94747547	 99.04386943
Au	 8.11655304	 -1.76288019	 95.60469468
Au	 6.40616977	 0.13941253	 96.46833321
Au	 4.69578650	 2.04170524	 97.33197174
Au	 2.98540324	 3.94399795	 98.19561027
Au	 7.26364852	 -3.66865042	 93.89279699
Au	 5.55326525	 -1.76635770	 94.75643552
Au	 3.84288198	 0.13593501	 95.62007405
Au	 2.13249871	 2.03822772	 96.48371258
Au	 0.42211545	 3.94052044	 97.34735111
Au	 6.41074399	 -5.57442064	 92.18089930
Au	 4.70036073	 -3.67212793	 93.04453783
Au	 2.98997746	 -1.76983522	 93.90817635
Au	 1.27959419	 0.13245750	 94.77181488
Au	 -0.43078908	 2.03475021	 95.63545341
Au	 -2.14117234	 3.93704292	 96.49909194
Au	 5.55783947	 -7.48019087	 90.46900160
Au	 3.84745620	 -5.57789816	 91.33264013
Au	 2.13707294	 -3.67560545	 92.19627866
Au	 0.42668967	 -1.77331273	 93.05991719
Au	 -1.28369360	 0.12897998	 93.92355572
Au	 -2.99407687	 2.03127270	 94.78719425
Au	 -4.70446014	 3.93356541	 95.65083278
Au	 4.70493495	 -9.38596110	 88.75710391
Au	 2.99455168	 -7.48366839	 89.62074244
Au	 1.28416841	 -5.58137567	 90.48438097
Au	 -0.42621485	 -3.67908296	 91.34801950
Au	 -2.13659812	 -1.77679025	 92.21165803
Au	 -3.84698139	 0.12550247	 93.07529656
Au	 -5.55736466	 2.02779518	 93.93893509
Au	 -7.26774793	 3.93008789	 94.80257362
Au	 3.85203043	 -11.29173133	 87.04520622
Au	 2.14164716	 -9.38943861	 87.90884475
Au	 0.43126389	 -7.48714590	 88.77248328
Au	 -1.27911938	 -5.58485319	 89.63612181
Au	 -2.98950265	 -3.68256047	 90.49976033
Au	 -4.69988591	 -1.78026776	 91.36339886
Au	 -6.41026918	 0.12202495	 92.22703739
Au	 -8.12065245	 2.02431767	 93.09067592
Au	 -9.83103572	 3.92661038	 93.95431445
No	 8.05171150	 9.74689897	 78.56530563
No	 7.77512286	 7.19790753	 79.41155697
No	 8.62802738	 9.10367775	 81.12345466
No	 7.49853421	 4.64891608	 80.25780831
No	 8.35143873	 6.55468631	 81.96970600
No	 9.20434326	 8.46045654	 83.68160369
No	 7.22194557	 2.09992463	 81.10405965
No	 8.07485009	 4.00569486	 82.81595734
No	 8.92775461	 5.91146509	 84.52785503
No	 9.78065913	 7.81723532	 86.23975273
No	 6.94535692	 -0.44906681	 81.95031099
No	 7.79826144	 1.45670342	 83.66220868
No	 8.65116597	 3.36247364	 85.37410637
No	 9.50407049	 5.26824387	 87.08600407
No	 10.35697501	 7.17401410	 88.79790176
No	 6.66876827	 -2.99805826	 82.79656233
No	 7.52167280	 -1.09228803	 84.50846002
No	 8.37457732	 0.81348220	 86.22035771
No	 9.22748184	 2.71925243	 87.93225541
No	 10.08038637	 4.62502265	 89.64415310
No	 10.93329089	 6.53079288	 91.35605079
No	 6.39217963	 -5.54704970	 83.64281367
No	 7.24508415	 -3.64127948	 85.35471136
No	 8.09798868	 -1.73550925	 87.06660905
No	 8.95089320	 0.17026098	 88.77850675
No	 9.80379772	 2.07603121	 90.49040444
No	 10.65670224	 3.98180144	 92.20230213
No	 11.50960677	 5.88757167	 93.91419983
No	 6.11559098	 -8.09604115	 84.48906501
No	 6.96849551	 -6.19027092	 86.20096270
No	 7.82140003	 -4.28450069	 87.91286039
No	 8.67430455	 -2.37873047	 89.62475809
No	 9.52720908	 -0.47296024	 91.33665578
No	 10.38011360	 1.43280999	 93.04855347
No	 11.23301812	 3.33858022	 94.76045117
No	 12.08592265	 5.24435045	 96.47234886
No	 5.83900234	 -10.64503260	 85.33531635
No	 6.69190686	 -8.73926237	 87.04721404
No	 7.54481138	 -6.83349214	 88.75911173
No	 8.39771591	 -4.92772191	 90.47100943
No	 9.25062043	 -3.02195168	 92.18290712
No	 10.10352495	 -1.11618145	 93.89480481
No	 10.95642948	 0.78958877	 95.60670251
No	 11.80933400	 2.69535900	 97.31860020
No	 12.66223852	 4.60112923	 99.03049789
Au	 10.95185525	 6.50342194	 99.89413642
Au	 8.38856746	 6.49994443	 99.04587726
Au	 10.37553938	 7.14664316	 97.33598739
Au	 5.82527967	 6.49646691	 98.19761809
Au	 7.81225159	 7.14316565	 96.48772822
Au	 9.79922350	 7.78986438	 94.77783836
Au	 3.26199188	 6.49298940	 97.34935893
Au	 5.24896380	 7.13968813	 95.63946906
Au	 7.23593571	 7.78638686	 93.92957919
Au	 9.22290762	 8.43308560	 92.21968932
Au	 0.69870409	 6.48951188	 96.50109977
Au	 2.68567600	 7.13621062	 94.79120990
Au	 4.67264792	 7.78290935	 93.08132003
Au	 6.65961983	 8.42960808	 91.37143016
Au	 8.64659174	 9.07630681	 89.66154029
Au	 -1.86458370	 6.48603437	 95.65284060
Au	 0.12238821	 7.13273310	 93.94295073
Au	 2.10936013	 7.77943183	 92.23306087
Au	 4.09633204	 8.42613057	 90.52317100
Au	 6.08330395	 9.07282930	 88.81328113
Au	 8.07027587	 9.71952803	 87.10339126
Au	 -4.42787149	 6.48255685	 94.80458144
Au	 -2.44089958	 7.12925559	 93.09469157
Au	 -0.45392766	 7.77595432	 91.38480170
Au	 1.53304425	 8.42265305	 89.67491183
Au	 3.52001616	 9.06935178	 87.96502196
Au	 5.50698808	 9.71605052	 86.25513209
Au	 7.49395999	 10.36274925	 84.54524222
Au	 -6.99115928	 6.47907934	 93.95632228
Au	 -5.00418737	 7.12577807	 92.24643241
Au	 -3.01721545	 7.77247680	 90.53654254
Au	 -1.03024354	 8.41917554	 88.82665267
Au	 0.95672837	 9.06587427	 87.11676280
Au	 2.94370029	 9.71257300	 85.40687293
Au	 4.93067220	 10.35927173	 83.69698306
Au	 6.91764411	 11.00597047	 81.98709319
Au	 -9.55444707	 6.47560182	 93.10806311
Au	 -7.56747516	 7.12230056	 91.39817324
Au	 -5.58050325	 7.76899929	 89.68828337
Au	 -3.59353133	 8.41569802	 87.97839351
Au	 -1.60655942	 9.06239675	 86.26850364
Au	 0.38041249	 9.70909549	 84.55861377
Au	 2.36738441	 10.35579422	 82.84872390
Au	 4.35435632	 11.00249295	 81.13883403
Au	 6.34132823	 11.64919168	 79.42894416
No	 4.12861907	 -8.74273988	 86.19895488
No	 4.98152359	 -6.83696965	 87.91085257
No	 2.41823580	 -6.84044717	 87.06259341
No	 4.40520772	 -6.19374844	 85.35270354
No	 5.83442812	 -4.93119943	 89.62275026
No	 3.27114033	 -4.93467694	 88.77449110
No	 5.25811224	 -4.28797821	 87.06460123
No	 0.70785254	 -4.93815446	 87.92623194
No	 2.69482445	 -4.29145572	 86.21634207
No	 4.68179636	 -3.64475699	 84.50645220
No	 6.68733264	 -3.02542920	 91.33464796
No	 4.12404485	 -3.02890671	 90.48638879
No	 6.11101676	 -2.38220798	 88.77649892
No	 1.56075706	 -3.03238423	 89.63812963
No	 3.54772897	 -2.38568549	 87.92823976
No	 5.53470088	 -1.73898676	 86.21834989
No	 -1.00253073	 -3.03586174	 88.78987047
No	 0.98444118	 -2.38916301	 87.07998060
No	 2.97141309	 -1.74246428	 85.37009073
No	 4.95838501	 -1.09576554	 83.66020086
No	 7.54023716	 -1.11965897	 93.04654565
No	 4.97694937	 -1.12313648	 92.19828649
No	 6.96392129	 -0.47643775	 90.48839662
No	 2.41366158	 -1.12661400	 91.35002732
No	 4.40063349	 -0.47991527	 89.64013745
No	 6.38760541	 0.16678347	 87.93024758
No	 -0.14962621	 -1.13009151	 90.50176816
No	 1.83734570	 -0.48339278	 88.79187829
No	 3.82431762	 0.16330595	 87.08198842
No	 5.81128953	 0.81000468	 85.37209855
No	 -2.71291400	 -1.13356903	 89.65350900
No	 -0.72594209	 -0.48687030	 87.94361913
No	 1.26102983	 0.15982844	 86.23372926
No	 3.24800174	 0.80652717	 84.52383939
No	 5.23497365	 1.45322590	 82.81394952
No	 8.39314169	 0.78611126	 94.75844334
No	 5.82985390	 0.78263374	 93.91018418
No	 7.81682581	 1.42933248	 92.20029431
No	 3.26656610	 0.77915623	 93.06192502
No	 5.25353802	 1.42585496	 91.35203515
No	 7.24050993	 2.07255369	 89.64214528
No	 0.70327831	 0.77567871	 92.21366585
No	 2.69025023	 1.42237745	 90.50377598
No	 4.67722214	 2.06907618	 88.79388611
No	 6.66419405	 2.71577491	 87.08399624
No	 -1.86000948	 0.77220120	 91.36540669
No	 0.12696244	 1.41889993	 89.65551682
No	 2.11393435	 2.06559866	 87.94562695
No	 4.10090626	 2.71229740	 86.23573708
No	 6.08787818	 3.35899613	 84.52584721
No	 -4.42329727	 0.76872368	 90.51714752
No	 -2.43632536	 1.41542242	 88.80725766
No	 -0.44935344	 2.06212115	 87.09736779
No	 1.53761847	 2.70881988	 85.38747792
No	 3.52459038	 3.35551861	 83.67758805
No	 5.51156230	 4.00221735	 81.96769818
No	 9.24604621	 2.69188149	 96.47034103
No	 6.68275842	 2.68840397	 95.62208187
No	 8.66973033	 3.33510270	 93.91219200
No	 4.11947063	 2.68492646	 94.77382271
No	 6.10644254	 3.33162519	 93.06393284
No	 8.09341445	 3.97832392	 91.35404297
No	 1.55618284	 2.68144894	 93.92556354
No	 3.54315475	 3.32814768	 92.21567368
No	 5.53012666	 3.97484641	 90.50578381
No	 7.51709858	 4.62154514	 88.79589394
No	 -1.00710495	 2.67797143	 93.07730438
No	 0.97986696	 3.32467016	 91.36741451
No	 2.96683887	 3.97136889	 89.65752464
No	 4.95381079	 4.61806763	 87.94763477
No	 6.94078270	 5.26476636	 86.23774490
No	 -3.57039275	 2.67449391	 92.22904522
No	 -1.58342083	 3.32119265	 90.51915535
No	 0.40355108	 3.96789138	 88.80926548
No	 2.39052299	 4.61459011	 87.09937561
No	 4.37749491	 5.26128884	 85.38948574
No	 6.36446682	 5.90798758	 83.67959587
No	 -6.13368054	 2.67101640	 91.38078605
No	 -4.14670862	 3.31771513	 89.67089618
No	 -2.15973671	 3.96441386	 87.96100632
No	 -0.17276480	 4.61111260	 86.25111645
No	 1.81420712	 5.25781133	 84.54122658
No	 3.80117903	 5.90451006	 82.83133671
No	 5.78815094	 6.55120879	 81.12144684
No	 10.09895073	 4.59765172	 98.18223873
No	 7.53566294	 4.59417420	 97.33397956
No	 9.52263485	 5.24087293	 95.62408970
No	 4.97237515	 4.59069669	 96.48572040
No	 6.95934706	 5.23739542	 94.77583053
No	 8.94631898	 5.88409415	 93.06594066
No	 2.40908736	 4.58721917	 95.63746124
No	 4.39605927	 5.23391790	 93.92757137
No	 6.38303119	 5.88061664	 92.21768150
No	 8.37000310	 6.52731537	 90.50779163
No	 -0.15420043	 4.58374166	 94.78920207
No	 1.83277148	 5.23044039	 93.07931220
No	 3.81974339	 5.87713912	 91.36942234
No	 5.80671531	 6.52383785	 89.65953247
No	 7.79368722	 7.17053659	 87.94964260
No	 -2.71748822	 4.58026414	 93.94094291
No	 -0.73051631	 5.22696287	 92.23105304
No	 1.25645560	 5.87366161	 90.52116317
No	 3.24342752	 6.52036034	 88.81127330
No	 5.23039943	 7.16705907	 87.10138343
No	 7.21737134	 7.81375780	 85.39149356
No	 -5.28077601	 4.57678663	 93.09268375
No	 -3.29380410	 5.22348536	 91.38279388
No	 -1.30683219	 5.87018409	 89.67290401
No	 0.68013973	 6.51688282	 87.96301414
No	 2.66711164	 7.16358156	 86.25312427
No	 4.65408355	 7.81028029	 84.54323440
No	 6.64105547	 8.45697902	 82.83334453
No	 -7.84406380	 4.57330911	 92.24442458
No	 -5.85709189	 5.22000784	 90.53453471
No	 -3.87011998	 5.86670658	 88.82464485
No	 -1.88314806	 6.51340531	 87.11475498
No	 0.10382385	 7.16010404	 85.40486511
No	 2.09079576	 7.80680277	 83.69497524
No	 4.07776768	 8.45350151	 81.98508537
No	 6.06473959	 9.10020024	 80.27519550
