5798 
{'Au': 743, 'No': 5055}
Au	 6.58933918	 14.37928624	 -84.46966999
Au	 6.59779767	 -13.76035618	 -93.96969382
Au	 -14.40068613	 5.05689393	 -103.30054462
Au	 -14.41431370	 -4.44313296	 -75.16090526
Au	 6.59010814	 11.82113693	 -85.33330852
Au	 4.68115506	 13.53179603	 -86.18156769
No	 4.67991619	 12.66815722	 -83.62341865
Au	 4.68884459	 -12.04969708	 -94.81795298
Au	 4.68760572	 -12.91333589	 -92.25980395
Au	 -14.40192500	 4.19325512	 -100.74239558
Au	 6.59087709	 9.26298762	 -86.19694705
Au	 2.77297094	 12.68430582	 -87.89346538
No	 2.77049320	 10.95702820	 -82.77716731
Au	 2.77989152	 -10.33903798	 -95.66621215
Au	 2.77741378	 -12.06631560	 -90.54991408
Au	 -14.40316387	 3.32961631	 -98.18424655
Au	 6.59164604	 6.70483831	 -87.06058558
Au	 0.86478683	 11.83681561	 -89.60536307
No	 0.86107021	 9.24589918	 -81.93091597
Au	 0.87093845	 -8.62837888	 -96.51447131
Au	 0.86722184	 -11.21929531	 -88.84002421
Au	 -14.40440274	 2.46597750	 -95.62609752
Au	 6.59241499	 4.14668899	 -87.92422411
Au	 -1.04339729	 10.98932540	 -91.31726077
No	 -1.04835278	 7.53477017	 -81.08466463
Au	 -1.03801462	 -6.91771978	 -97.36273047
Au	 -1.04297010	 -10.37227501	 -87.13013434
Au	 -14.40564161	 1.60233869	 -93.06794849
Au	 6.59318395	 1.58853968	 -88.78786264
Au	 -2.95158141	 10.14183519	 -93.02915846
No	 -2.95777576	 5.82364115	 -80.23841329
Au	 -2.94696769	 -5.20706068	 -98.21098964
Au	 -2.95316205	 -9.52525472	 -85.42024447
Au	 -14.40688048	 0.73869989	 -90.50979945
Au	 6.59395290	 -0.96960963	 -89.65150117
Au	 -4.85976553	 9.29434498	 -94.74105615
No	 -4.86719875	 4.11251213	 -79.39216195
Au	 -4.85592077	 -3.49640158	 -99.05924880
Au	 -4.86335399	 -8.67823443	 -83.71035460
Au	 -14.40811935	 -0.12493892	 -87.95165042
Au	 6.59472185	 -3.52775894	 -90.51513970
Au	 -6.76794965	 8.44685477	 -96.45295385
No	 -6.77662174	 2.40138311	 -78.54591061
Au	 -6.76487384	 -1.78574248	 -99.90750796
Au	 -6.77354593	 -7.83121413	 -82.00046473
Au	 -14.40935822	 -0.98857773	 -85.39350139
Au	 6.59549081	 -6.08590825	 -91.37877823
Au	 -8.67613377	 7.59936456	 -98.16485154
No	 -8.68604473	 0.69025409	 -77.69965928
Au	 -8.67382691	 -0.07508338	 -100.75576713
Au	 -8.68373787	 -6.98419384	 -80.29057486
Au	 -14.41059709	 -1.85221654	 -82.83535235
Au	 6.59625976	 -8.64405756	 -92.24241676
Au	 -10.58431789	 6.75187435	 -99.87674923
No	 -10.59546772	 -1.02087493	 -76.85340794
Au	 -10.58277998	 1.63557572	 -101.60402629
Au	 -10.59392982	 -6.13717355	 -78.58068499
Au	 -14.41183596	 -2.71585535	 -80.27720332
Au	 6.59702871	 -11.20220687	 -93.10605529
Au	 -12.49250201	 5.90438414	 -101.58864692
No	 -12.50489071	 -2.73200394	 -76.00715660
Au	 -12.49173305	 3.34623483	 -102.45228545
Au	 -12.50412176	 -5.29015325	 -76.87079513
Au	 -14.41307483	 -3.57949415	 -77.71905429
Au	 -10.58354894	 4.19372504	 -100.74038776
Au	 -8.67536482	 5.04121525	 -99.02849007
Au	 -8.67459586	 2.48306594	 -99.89212860
Au	 -6.76718070	 5.88870546	 -97.31659237
Au	 -6.76641174	 3.33055615	 -98.18023090
Au	 -6.76564279	 0.77240683	 -99.04386943
Au	 -4.85899658	 6.73619567	 -95.60469468
Au	 -4.85822763	 4.17804636	 -96.46833321
Au	 -4.85745867	 1.61989704	 -97.33197174
Au	 -4.85668972	 -0.93825227	 -98.19561027
Au	 -2.95081246	 7.58368588	 -93.89279699
Au	 -2.95004351	 5.02553657	 -94.75643552
Au	 -2.94927455	 2.46738725	 -95.62007405
Au	 -2.94850560	 -0.09076206	 -96.48371258
Au	 -2.94773665	 -2.64891137	 -97.34735111
Au	 -1.04262834	 8.43117609	 -92.18089930
Au	 -1.04185939	 5.87302678	 -93.04453783
Au	 -1.04109043	 3.31487746	 -93.90817635
Au	 -1.04032148	 0.75672815	 -94.77181488
Au	 -1.03955253	 -1.80142116	 -95.63545341
Au	 -1.03878357	 -4.35957047	 -96.49909194
Au	 0.86555578	 9.27866630	 -90.46900160
Au	 0.86632473	 6.72051699	 -91.33264013
Au	 0.86709368	 4.16236768	 -92.19627866
Au	 0.86786264	 1.60421836	 -93.05991719
Au	 0.86863159	 -0.95393095	 -93.92355572
Au	 0.86940054	 -3.51208026	 -94.78719425
Au	 0.87016950	 -6.07022957	 -95.65083278
Au	 2.77373990	 10.12615651	 -88.75710391
Au	 2.77450885	 7.56800720	 -89.62074244
Au	 2.77527780	 5.00985789	 -90.48438097
Au	 2.77604676	 2.45170857	 -91.34801950
Au	 2.77681571	 -0.10644074	 -92.21165803
Au	 2.77758466	 -2.66459005	 -93.07529656
Au	 2.77835362	 -5.22273936	 -93.93893509
Au	 2.77912257	 -7.78088867	 -94.80257362
Au	 4.68192402	 10.97364672	 -87.04520622
Au	 4.68269297	 8.41549741	 -87.90884475
Au	 4.68346192	 5.85734810	 -88.77248328
Au	 4.68423088	 3.29919878	 -89.63612181
Au	 4.68499983	 0.74104947	 -90.49976033
Au	 4.68576878	 -1.81709984	 -91.36339886
Au	 4.68653774	 -4.37524915	 -92.22703739
Au	 4.68730669	 -6.93339846	 -93.09067592
Au	 4.68807564	 -9.49154777	 -93.95431445
No	 4.68683677	 -10.35518658	 -91.39616542
No	 4.68606782	 -7.79703727	 -90.53252689
No	 2.77664483	 -9.50816629	 -89.68627555
No	 4.68529887	 -5.23888796	 -89.66888836
No	 2.77587588	 -6.95001698	 -88.82263702
No	 0.86645289	 -8.66114599	 -87.97638568
No	 4.68452991	 -2.68073865	 -88.80524983
No	 2.77510692	 -4.39186766	 -87.95899849
No	 0.86568393	 -6.10299668	 -87.11274715
No	 -1.04373906	 -7.81412570	 -86.26649581
No	 4.68376096	 -0.12258934	 -87.94161130
No	 2.77433797	 -1.83371835	 -87.09535996
No	 0.86491498	 -3.54484737	 -86.24910862
No	 -1.04450801	 -5.25597639	 -85.40285728
No	 -2.95393100	 -6.96710541	 -84.55660594
No	 4.68299201	 2.43555998	 -87.07797277
No	 2.77356902	 0.72443096	 -86.23172143
No	 0.86414603	 -0.98669806	 -85.38547009
No	 -1.04527696	 -2.69782708	 -84.53921875
No	 -2.95469995	 -4.40895610	 -83.69296741
No	 -4.86412294	 -6.12008512	 -82.84671607
No	 4.68222305	 4.99370929	 -86.21433424
No	 2.77280006	 3.28258027	 -85.36808290
No	 0.86337707	 1.57145125	 -84.52183156
No	 -1.04604592	 -0.13967777	 -83.67558022
No	 -2.95546891	 -1.85080679	 -82.82932888
No	 -4.86489189	 -3.56193580	 -81.98307754
No	 -6.77431488	 -5.27306482	 -81.13682620
No	 4.68145410	 7.55185860	 -85.35069571
No	 2.77203111	 5.84072958	 -84.50444437
No	 0.86260812	 4.12960056	 -83.65819303
No	 -1.04681487	 2.41847154	 -82.81194169
No	 -2.95623786	 0.70734253	 -81.96569035
No	 -4.86566085	 -1.00378649	 -81.11943901
No	 -6.77508384	 -2.71491551	 -80.27318767
No	 -8.68450683	 -4.42604453	 -79.42693633
No	 4.68068515	 10.11000791	 -84.48705718
No	 2.77126216	 8.39887889	 -83.64080584
No	 0.86183917	 6.68774987	 -82.79455450
No	 -1.04758382	 4.97662086	 -81.94830316
No	 -2.95700681	 3.26549184	 -81.10205182
No	 -4.86642980	 1.55436282	 -80.25580048
No	 -6.77585279	 -0.15676620	 -79.40954914
No	 -8.68527578	 -1.86789522	 -78.56329780
No	 -10.59469877	 -3.57902424	 -77.71704646
No	 -12.50365184	 -1.86836514	 -78.56530563
No	 -10.59422885	 -0.15723612	 -79.41155697
No	 -12.50241297	 -1.00472633	 -81.12345466
No	 -8.68480586	 1.55389290	 -80.25780831
No	 -10.59298998	 0.70640269	 -81.96970600
No	 -12.50117410	 -0.14108752	 -83.68160369
No	 -6.77538287	 3.26502192	 -81.10405965
No	 -8.68356699	 2.41753171	 -82.81595734
No	 -10.59175111	 1.57004150	 -84.52785503
No	 -12.49993523	 0.72255129	 -86.23975273
No	 -4.86595988	 4.97615094	 -81.95031099
No	 -6.77414400	 4.12866073	 -83.66220868
No	 -8.68232812	 3.28117052	 -85.37410637
No	 -10.59051224	 2.43368031	 -87.08600407
No	 -12.49869636	 1.58619010	 -88.79790176
No	 -2.95653689	 6.68727996	 -82.79656233
No	 -4.86472101	 5.83978975	 -84.50846002
No	 -6.77290513	 4.99229954	 -86.22035771
No	 -8.68108925	 4.14480933	 -87.93225541
No	 -10.58927337	 3.29731912	 -89.64415310
No	 -12.49745749	 2.44982890	 -91.35605079
No	 -1.04711391	 8.39840897	 -83.64281367
No	 -2.95529802	 7.55091876	 -85.35471136
No	 -4.86348214	 6.70342855	 -87.06660905
No	 -6.77166626	 5.85593834	 -88.77850675
No	 -8.67985038	 5.00844813	 -90.49040444
No	 -10.58803450	 4.16095792	 -92.20230213
No	 -12.49621862	 3.31346771	 -93.91419983
No	 0.86230908	 10.10953799	 -84.48906501
No	 -1.04587503	 9.26204778	 -86.20096270
No	 -2.95405915	 8.41455757	 -87.91286039
No	 -4.86224327	 7.56706736	 -89.62475809
No	 -6.77042739	 6.71957715	 -91.33665578
No	 -8.67861151	 5.87208694	 -93.04855347
No	 -10.58679563	 5.02459673	 -94.76045117
No	 -12.49497975	 4.17710652	 -96.47234886
No	 2.77173207	 11.82066701	 -85.33531635
No	 0.86354795	 10.97317680	 -87.04721404
No	 -1.04463616	 10.12568659	 -88.75911173
No	 -2.95282028	 9.27819638	 -90.47100943
No	 -4.86100440	 8.43070617	 -92.18290712
No	 -6.76918852	 7.58321596	 -93.89480481
No	 -8.67737264	 6.73572575	 -95.60670251
No	 -10.58555676	 5.88823554	 -97.31860020
No	 -12.49374088	 5.04074533	 -99.03049789
Au	 -12.49297193	 2.48259602	 -99.89413642
Au	 -10.58401885	 0.77193692	 -99.04587726
Au	 -12.49421080	 1.61895721	 -97.33598739
Au	 -8.67506578	 -0.93872218	 -98.19761809
Au	 -10.58525772	 -0.09170189	 -96.48772822
Au	 -12.49544967	 0.75531840	 -94.77783836
Au	 -6.76611271	 -2.64938129	 -97.34935893
Au	 -8.67630465	 -1.80236099	 -95.63946906
Au	 -10.58649659	 -0.95534070	 -93.92957919
Au	 -12.49668854	 -0.10832041	 -92.21968932
Au	 -4.85715964	 -4.36004039	 -96.50109977
Au	 -6.76735158	 -3.51302009	 -94.79120990
Au	 -8.67754352	 -2.66599980	 -93.08132003
Au	 -10.58773546	 -1.81897951	 -91.37143016
Au	 -12.49792741	 -0.97195921	 -89.66154029
Au	 -2.94820656	 -6.07069949	 -95.65284060
Au	 -4.85839851	 -5.22367919	 -93.94295073
Au	 -6.76859045	 -4.37665890	 -92.23306087
Au	 -8.67878239	 -3.52963861	 -90.52317100
Au	 -10.58897433	 -2.68261832	 -88.81328113
Au	 -12.49916628	 -1.83559802	 -87.10339126
Au	 -1.03925349	 -7.78135859	 -94.80458144
Au	 -2.94944543	 -6.93433830	 -93.09469157
Au	 -4.85963738	 -6.08731800	 -91.38480170
Au	 -6.76982932	 -5.24029771	 -89.67491183
Au	 -8.68002126	 -4.39327742	 -87.96502196
Au	 -10.59021320	 -3.54625712	 -86.25513209
Au	 -12.50040515	 -2.69923683	 -84.54524222
Au	 0.86969958	 -9.49201769	 -93.95632228
Au	 -1.04049236	 -8.64499740	 -92.24643241
Au	 -2.95068431	 -7.79797710	 -90.53654254
Au	 -4.86087625	 -6.95095681	 -88.82665267
Au	 -6.77106819	 -6.10393652	 -87.11676280
Au	 -8.68126013	 -5.25691622	 -85.40687293
Au	 -10.59145208	 -4.40989593	 -83.69698306
Au	 -12.50164402	 -3.56287564	 -81.98709319
Au	 2.77865265	 -11.20267679	 -93.10806311
Au	 0.86846071	 -10.35565650	 -91.39817324
Au	 -1.04173123	 -9.50863620	 -89.68828337
Au	 -2.95192318	 -8.66161591	 -87.97839351
Au	 -4.86211512	 -7.81459562	 -86.26850364
Au	 -6.77230706	 -6.96757533	 -84.55861377
Au	 -8.68249900	 -6.12055503	 -82.84872390
Au	 -10.59269095	 -5.27353474	 -81.13883403
Au	 -12.50288289	 -4.42651445	 -79.42894416
No	 2.77250103	 9.26251770	 -86.19895488
No	 0.86431691	 8.41502749	 -87.91085257
No	 2.77326998	 6.70436839	 -87.06259341
No	 0.86307804	 7.55138868	 -85.35270354
No	 -1.04386721	 7.56753728	 -89.62275026
No	 0.86508586	 5.85687818	 -88.77449110
No	 -1.04510608	 6.70389847	 -87.06460123
No	 2.77403893	 4.14621908	 -87.92623194
No	 0.86384699	 4.99323937	 -86.21634207
No	 -1.04634495	 5.84025966	 -84.50645220
No	 -2.95205133	 6.72004707	 -91.33464796
No	 -1.04309826	 5.00938797	 -90.48638879
No	 -2.95329020	 5.85640826	 -88.77649892
No	 0.86585481	 3.29872887	 -89.63812963
No	 -1.04433713	 4.14574916	 -87.92823976
No	 -2.95452907	 4.99276945	 -86.21834989
No	 2.77480789	 1.58806977	 -88.78987047
No	 0.86461594	 2.43509006	 -87.07998060
No	 -1.04557600	 3.28211035	 -85.37009073
No	 -2.95576794	 4.12913064	 -83.66020086
No	 -4.86023545	 5.87255686	 -93.04654565
No	 -2.95128238	 4.16189776	 -92.19828649
No	 -4.86147432	 5.00891805	 -90.48839662
No	 -1.04232930	 2.45123866	 -91.35002732
No	 -2.95252125	 3.29825895	 -89.64013745
No	 -4.86271319	 4.14527924	 -87.93024758
No	 0.86662377	 0.74057956	 -90.50176816
No	 -1.04356818	 1.58759985	 -88.79187829
No	 -2.95376012	 2.43462014	 -87.08198842
No	 -4.86395206	 3.28164043	 -85.37209855
No	 2.77557684	 -0.97007955	 -89.65350900
No	 0.86538490	 -0.12305925	 -87.94361913
No	 -1.04480705	 0.72396104	 -86.23372926
No	 -2.95499899	 1.57098133	 -84.52383939
No	 -4.86519093	 2.41800163	 -82.81394952
No	 -6.76841957	 5.02506665	 -94.75844334
No	 -4.85946650	 3.31440755	 -93.91018418
No	 -6.76965844	 4.16142784	 -92.20029431
No	 -2.95051342	 1.60374845	 -93.06192502
No	 -4.86070537	 2.45076874	 -91.35203515
No	 -6.77089731	 3.29778903	 -89.64214528
No	 -1.04156035	 -0.10691065	 -92.21366585
No	 -2.95175229	 0.74010964	 -90.50377598
No	 -4.86194424	 1.58712993	 -88.79388611
No	 -6.77213618	 2.43415022	 -87.08399624
No	 0.86739272	 -1.81756976	 -91.36540669
No	 -1.04279922	 -0.97054946	 -89.65551682
No	 -2.95299116	 -0.12352917	 -87.94562695
No	 -4.86318311	 0.72349112	 -86.23573708
No	 -6.77337505	 1.57051142	 -84.52584721
No	 2.77634579	 -3.52822886	 -90.51714752
No	 0.86615385	 -2.68120856	 -88.80725766
No	 -1.04403809	 -1.83418827	 -87.09736779
No	 -2.95423003	 -0.98716798	 -85.38747792
No	 -4.86442198	 -0.14014768	 -83.67758805
No	 -6.77461392	 0.70687261	 -81.96769818
No	 -8.67660369	 4.17757644	 -96.47034103
No	 -6.76765061	 2.46691734	 -95.62208187
No	 -8.67784256	 3.31393763	 -93.91219200
No	 -4.85869754	 0.75625824	 -94.77382271
No	 -6.76888949	 1.60327853	 -93.06393284
No	 -8.67908143	 2.45029882	 -91.35404297
No	 -2.94974447	 -0.95440086	 -93.92556354
No	 -4.85993641	 -0.10738057	 -92.21567368
No	 -6.77012836	 0.73963972	 -90.50578381
No	 -8.68032030	 1.58666001	 -88.79589394
No	 -1.04079140	 -2.66505997	 -93.07730438
No	 -2.95098334	 -1.81803967	 -91.36741451
No	 -4.86117528	 -0.97101938	 -89.65752464
No	 -6.77136723	 -0.12399909	 -87.94763477
No	 -8.68155917	 0.72302121	 -86.23774490
No	 0.86816167	 -4.37571907	 -92.22904522
No	 -1.04203027	 -3.52869877	 -90.51915535
No	 -2.95222221	 -2.68167848	 -88.80926548
No	 -4.86241415	 -1.83465819	 -87.09937561
No	 -6.77260610	 -0.98763789	 -85.38948574
No	 -8.68279804	 -0.14061760	 -83.67959587
No	 2.77711475	 -6.08637817	 -91.38078605
No	 0.86692280	 -5.23935787	 -89.67089618
No	 -1.04326914	 -4.39233758	 -87.96100632
No	 -2.95346108	 -3.54531729	 -86.25111645
No	 -4.86365302	 -2.69829700	 -84.54122658
No	 -6.77384497	 -1.85127670	 -82.83133671
No	 -8.68403691	 -1.00425641	 -81.12144684
No	 -10.58478781	 3.33008623	 -98.18223873
No	 -8.67583473	 1.61942713	 -97.33397956
No	 -10.58602668	 2.46644742	 -95.62408970
No	 -6.76688166	 -0.09123197	 -96.48572040
No	 -8.67707360	 0.75578832	 -94.77583053
No	 -10.58726555	 1.60280861	 -93.06594066
No	 -4.85792859	 -1.80189108	 -95.63746124
No	 -6.76812053	 -0.95487078	 -93.92757137
No	 -8.67831247	 -0.10785049	 -92.21768150
No	 -10.58850442	 0.73916980	 -90.50779163
No	 -2.94897552	 -3.51255018	 -94.78920207
No	 -4.85916746	 -2.66552988	 -93.07931220
No	 -6.76935940	 -1.81850959	 -91.36942234
No	 -8.67955135	 -0.97148930	 -89.65953247
No	 -10.58974329	 -0.12446900	 -87.94964260
No	 -1.04002245	 -5.22320928	 -93.94094291
No	 -2.95021439	 -4.37618898	 -92.23105304
No	 -4.86040633	 -3.52916869	 -90.52116317
No	 -6.77059827	 -2.68214840	 -88.81127330
No	 -8.68079022	 -1.83512811	 -87.10138343
No	 -10.59098216	 -0.98810781	 -85.39149356
No	 0.86893063	 -6.93386838	 -93.09268375
No	 -1.04126132	 -6.08684809	 -91.38279388
No	 -2.95145326	 -5.23982779	 -89.67290401
No	 -4.86164520	 -4.39280750	 -87.96301414
No	 -6.77183714	 -3.54578721	 -86.25312427
No	 -8.68202909	 -2.69876691	 -84.54323440
No	 -10.59222103	 -1.85174662	 -82.83334453
No	 2.77788370	 -8.64452748	 -92.24442458
No	 0.86769176	 -7.79750719	 -90.53453471
No	 -1.04250019	 -6.95048689	 -88.82464485
No	 -2.95269213	 -6.10346660	 -87.11475498
No	 -4.86288407	 -5.25644631	 -85.40486511
No	 -6.77307601	 -4.40942601	 -83.69497524
No	 -8.68326796	 -3.56240572	 -81.98508537
No	 -10.59345990	 -2.71538543	 -80.27519550
Au	 13.58256823	 -7.60636253	 -65.76630143
Au	 7.22508728	 12.38059090	 -82.76936376
Au	 7.23277681	 -13.20090222	 -91.40574906
No	 11.03739714	 -7.31879621	 -66.62035632
Au	 7.86083537	 10.38189555	 -81.06905753
Au	 7.86775595	 -12.64144825	 -88.84180429
No	 8.49222606	 -7.03122988	 -67.47441122
Au	 8.49658347	 8.38320021	 -79.36875129
Au	 8.50273509	 -12.08199428	 -86.27785953
No	 5.94705497	 -6.74366356	 -68.32846611
Au	 9.13233156	 6.38450487	 -77.66844506
Au	 9.13771423	 -11.52254031	 -83.71391477
No	 3.40188389	 -6.45609723	 -69.18252100
Au	 9.76807966	 4.38580953	 -75.96813883
Au	 9.77269338	 -10.96308634	 -81.14997001
No	 0.85671280	 -6.16853091	 -70.03657590
Au	 10.40382775	 2.38711418	 -74.26783259
Au	 10.40767252	 -10.40363237	 -78.58602524
No	 -1.68845828	 -5.88096458	 -70.89063079
Au	 11.03957585	 0.38841884	 -72.56752636
Au	 11.04265166	 -9.84417841	 -76.02208048
No	 -4.23362936	 -5.59339826	 -71.74468568
Au	 11.67532394	 -1.61027650	 -70.86722013
Au	 11.67763080	 -9.28472444	 -73.45813572
No	 -6.77880045	 -5.30583194	 -72.59874058
Au	 12.31107204	 -3.60897185	 -69.16691390
Au	 12.31260994	 -8.72527047	 -70.89419095
No	 -9.32397153	 -5.01826561	 -73.45279547
Au	 12.94682013	 -5.60766719	 -67.46660766
Au	 12.94758908	 -8.16581650	 -68.33024619
No	 -11.86914262	 -4.73069929	 -74.30685036
Au	 12.31184099	 -6.16712116	 -70.03055242
Au	 11.67609289	 -4.16842581	 -71.73085866
Au	 11.67686185	 -6.72657513	 -72.59449719
Au	 11.04034480	 -2.16973047	 -73.43116489
Au	 11.04111375	 -4.72787978	 -74.29480342
Au	 11.04188271	 -7.28602909	 -75.15844195
Au	 10.40459670	 -0.17103513	 -75.13147112
Au	 10.40536566	 -2.72918444	 -75.99510965
Au	 10.40613461	 -5.28733375	 -76.85874818
Au	 10.40690356	 -7.84548306	 -77.72238671
Au	 9.76884861	 1.82766021	 -76.83177736
Au	 9.76961756	 -0.73048910	 -77.69541589
Au	 9.77038652	 -3.28863841	 -78.55905442
Au	 9.77115547	 -5.84678772	 -79.42269295
Au	 9.77192442	 -8.40493703	 -80.28633148
Au	 9.13310051	 3.82635556	 -78.53208359
Au	 9.13386947	 1.26820625	 -79.39572212
Au	 9.13463842	 -1.28994307	 -80.25936065
Au	 9.13540737	 -3.84809238	 -81.12299918
Au	 9.13617633	 -6.40624169	 -81.98663771
Au	 9.13694528	 -8.96439100	 -82.85027624
Au	 8.49735242	 5.82505090	 -80.23238982
Au	 8.49812137	 3.26690159	 -81.09602835
Au	 8.49889033	 0.70875228	 -81.95966688
Au	 8.49965928	 -1.84939703	 -82.82330541
Au	 8.50042823	 -4.40754635	 -83.68694394
Au	 8.50119719	 -6.96569566	 -84.55058247
Au	 8.50196614	 -9.52384497	 -85.41422100
Au	 7.86160433	 7.82374624	 -81.93269606
Au	 7.86237328	 5.26559693	 -82.79633459
Au	 7.86314223	 2.70744762	 -83.65997312
Au	 7.86391118	 0.14929831	 -84.52361165
Au	 7.86468014	 -2.40885100	 -85.38725018
Au	 7.86544909	 -4.96700031	 -86.25088871
Au	 7.86621804	 -7.52514962	 -87.11452723
Au	 7.86698700	 -10.08329894	 -87.97816576
Au	 7.22585623	 9.82244159	 -83.63300229
Au	 7.22662518	 7.26429227	 -84.49664082
Au	 7.22739414	 4.70614296	 -85.36027935
Au	 7.22816309	 2.14799365	 -86.22391788
Au	 7.22893204	 -0.41015566	 -87.08755641
Au	 7.22970100	 -2.96830497	 -87.95119494
Au	 7.23046995	 -5.52645428	 -88.81483347
Au	 7.23123890	 -8.08460359	 -89.67847200
Au	 7.23200786	 -10.64275290	 -90.54211053
No	 -9.95971963	 -3.01957027	 -75.15310170
No	 -8.05029664	 -1.30844125	 -75.99935304
No	 -7.41454854	 -3.30713659	 -74.29904681
No	 -6.14087365	 0.40268777	 -76.84560438
No	 -5.50512555	 -1.59600757	 -75.14529815
No	 -4.86937746	 -3.59470292	 -73.44499192
No	 -4.23145066	 2.11381679	 -77.69185572
No	 -3.59570256	 0.11512144	 -75.99154949
No	 -2.95995447	 -1.88357390	 -74.29124326
No	 -2.32420638	 -3.88226924	 -72.59093702
No	 -2.32202767	 3.82494581	 -78.53810706
No	 -1.68627958	 1.82625046	 -76.83780083
No	 -1.05053148	 -0.17244488	 -75.13749460
No	 -0.41478339	 -2.17114022	 -73.43718836
No	 0.22096471	 -4.16983557	 -71.73688213
No	 -0.41260468	 5.53607482	 -79.38435840
No	 0.22314341	 3.53737948	 -77.68405217
No	 0.85889151	 1.53868414	 -75.98374593
No	 1.49463960	 -0.46001120	 -74.28343970
No	 2.13038770	 -2.45870655	 -72.58313347
No	 2.76613579	 -4.45740189	 -70.88282724
No	 1.49681831	 7.24720384	 -80.23060974
No	 2.13256640	 5.24850850	 -78.53030351
No	 2.76831450	 3.24981316	 -76.82999727
No	 3.40406259	 1.25111781	 -75.12969104
No	 4.03981069	 -0.74757753	 -73.42938481
No	 4.67555878	 -2.74627287	 -71.72907858
No	 5.31130688	 -4.74496821	 -70.02877234
No	 3.40624130	 8.95833286	 -81.07686108
No	 4.04198939	 6.95963752	 -79.37655485
No	 4.67773749	 4.96094217	 -77.67624861
No	 5.31348558	 2.96224683	 -75.97594238
No	 5.94923368	 0.96355149	 -74.27563615
No	 6.58498177	 -1.03514385	 -72.57532991
No	 7.22072987	 -3.03383920	 -70.87502368
No	 7.85647796	 -5.03253454	 -69.17471745
No	 5.31566429	 10.66946188	 -81.92311242
No	 5.95141238	 8.67076654	 -80.22280619
No	 6.58716048	 6.67207119	 -78.52249995
No	 7.22290857	 4.67337585	 -76.82219372
No	 7.85865667	 2.67468051	 -75.12188749
No	 8.49440476	 0.67598516	 -73.42158125
No	 9.13015286	 -1.32271018	 -71.72127502
No	 9.76590095	 -3.32140552	 -70.02096879
No	 10.40164905	 -5.32010086	 -68.32066256
No	 10.40241800	 -7.87825018	 -69.18430108
No	 9.76743886	 -8.43770414	 -71.74824585
No	 7.85724692	 -7.59068385	 -70.03835598
No	 9.13245972	 -8.99715811	 -74.31219061
No	 7.22226777	 -8.15013782	 -72.60230074
No	 5.31207583	 -7.30311753	 -70.89241087
No	 8.49748057	 -9.55661208	 -76.87613537
No	 6.58728863	 -8.70959179	 -75.16624550
No	 4.67709669	 -7.86257149	 -73.45635563
No	 2.76690475	 -7.01555120	 -71.74646576
No	 7.86250143	 -10.11606605	 -79.44008014
No	 5.95230949	 -9.26904576	 -77.73019027
No	 4.04211755	 -8.42202546	 -76.02030040
No	 2.13192561	 -7.57500517	 -74.31041053
No	 0.22173366	 -6.72798488	 -72.60052066
No	 7.22752229	 -10.67552002	 -82.00402490
No	 5.31733035	 -9.82849972	 -80.29413503
No	 3.40713841	 -8.98147943	 -78.58424516
No	 1.49694646	 -8.13445914	 -76.87435529
No	 -0.41324548	 -7.28743885	 -75.16446542
No	 -2.32343742	 -6.44041855	 -73.45457555
No	 6.59254315	 -11.23497399	 -84.56796966
No	 4.68235121	 -10.38795369	 -82.85807979
No	 2.77215926	 -9.54093340	 -81.14818992
No	 0.86196732	 -8.69391311	 -79.43830005
No	 -1.04822462	 -7.84689281	 -77.72841018
No	 -2.95841656	 -6.99987252	 -76.01852031
No	 -4.86860851	 -6.15285223	 -74.30863045
No	 5.95756401	 -11.79442795	 -87.13191442
No	 4.04737207	 -10.94740766	 -85.42202456
No	 2.13718012	 -10.10038737	 -83.71213469
No	 0.22698818	 -9.25336708	 -82.00224482
No	 -1.68320376	 -8.40634678	 -80.29235495
No	 -3.59339571	 -7.55932649	 -78.58246508
No	 -5.50358765	 -6.71230620	 -76.87257521
No	 -7.41377959	 -5.86528590	 -75.16268534
No	 5.32258487	 -12.35388192	 -89.69585919
No	 3.41239292	 -11.50686163	 -87.98596932
No	 1.50220098	 -10.65984134	 -86.27607945
No	 -0.40799096	 -9.81282104	 -84.56618958
No	 -2.31818290	 -8.96580075	 -82.85629971
No	 -4.22837485	 -8.11878046	 -81.14640984
No	 -6.13856679	 -7.27176017	 -79.43651997
No	 -8.04875873	 -6.42473987	 -77.72663010
No	 -9.95895067	 -5.57771958	 -76.01674023
No	 5.31643324	 8.11131257	 -82.78675095
No	 5.95218134	 6.11261722	 -81.08644472
No	 5.31720219	 5.55316326	 -83.65038948
No	 3.40701025	 6.40018355	 -81.94049961
No	 6.58792943	 4.11392188	 -79.38613848
No	 5.95295029	 3.55446791	 -81.95008325
No	 4.04275835	 4.40148821	 -80.24019338
No	 5.31797115	 2.99501394	 -84.51402801
No	 3.40777920	 3.84203424	 -82.80413814
No	 1.49758726	 4.68905453	 -81.09424827
No	 7.22367753	 2.11522654	 -77.68583225
No	 6.58869838	 1.55577257	 -80.24977701
No	 4.67850644	 2.40279286	 -78.53988714
No	 5.95371924	 0.99631860	 -82.81372178
No	 4.04352730	 1.84333889	 -81.10383191
No	 2.13333536	 2.69035919	 -79.39394204
No	 5.31874010	 0.43686463	 -85.37766654
No	 3.40854816	 1.28388493	 -83.66777667
No	 1.49835622	 2.13090522	 -81.95788680
No	 -0.41183573	 2.97792551	 -80.24799693
No	 7.85942562	 0.11653120	 -75.98552602
No	 7.22444648	 -0.44292277	 -78.54947078
No	 5.31425454	 0.40409752	 -76.83958091
No	 6.58946734	 -1.00237674	 -81.11341554
No	 4.67927539	 -0.15535645	 -79.40352567
No	 2.76908345	 0.69166385	 -77.69363580
No	 5.95448820	 -1.56183071	 -83.67736031
No	 4.04429625	 -0.71481042	 -81.96747044
No	 2.13410431	 0.13220988	 -80.25758057
No	 0.22391237	 0.97923017	 -78.54769070
No	 5.31950905	 -2.12128468	 -86.24130507
No	 3.40931711	 -1.27426438	 -84.53141520
No	 1.49912517	 -0.42724409	 -82.82152533
No	 -0.41106677	 0.41977620	 -81.11163546
No	 -2.32125872	 1.26679649	 -79.40174559
No	 8.49517371	 -1.88216415	 -74.28521978
No	 7.86019457	 -2.44161812	 -76.84916455
No	 5.95000263	 -1.59459782	 -75.13927468
No	 7.22521543	 -3.00107208	 -79.41310931
No	 5.31502349	 -2.15405179	 -77.70321944
No	 3.40483155	 -1.30703150	 -75.99332957
No	 6.59023629	 -3.56052605	 -81.97705407
No	 4.68004435	 -2.71350576	 -80.26716420
No	 2.76985240	 -1.86648547	 -78.55727433
No	 0.85966046	 -1.01946517	 -76.84738446
No	 5.95525715	 -4.11998002	 -84.54099884
No	 4.04506521	 -3.27295973	 -82.83110897
No	 2.13487326	 -2.42593943	 -81.12121910
No	 0.22468132	 -1.57891914	 -79.41132923
No	 -1.68551062	 -0.73189885	 -77.70143936
No	 5.32027801	 -4.67943399	 -87.10494360
No	 3.41008606	 -3.83241370	 -85.39505373
No	 1.49989412	 -2.98539340	 -83.68516386
No	 -0.41029782	 -2.13837311	 -81.97527399
No	 -2.32048976	 -1.29135282	 -80.26538412
No	 -4.23068171	 -0.44433252	 -78.55549425
No	 9.13092181	 -3.88085949	 -72.58491355
No	 8.49594267	 -4.44031346	 -75.14885831
No	 6.58575073	 -3.59329317	 -73.43896844
No	 7.86096353	 -4.99976743	 -77.71280308
No	 5.95077158	 -4.15274713	 -76.00291321
No	 4.04057964	 -3.30572684	 -74.29302334
No	 7.22598438	 -5.55922139	 -80.27674784
No	 5.31579244	 -4.71220110	 -78.56685797
No	 3.40560050	 -3.86518081	 -76.85696810
No	 1.49540856	 -3.01816052	 -75.14707823
No	 6.59100524	 -6.11867536	 -82.84069260
No	 4.68081330	 -5.27165507	 -81.13080273
No	 2.77062136	 -4.42463478	 -79.42091286
No	 0.86042942	 -3.57761448	 -77.71102299
No	 -1.04976253	 -2.73059419	 -76.00113312
No	 5.95602610	 -6.67812933	 -85.40463737
No	 4.04583416	 -5.83110904	 -83.69474750
No	 2.13564222	 -4.98408875	 -81.98485763
No	 0.22545027	 -4.13706845	 -80.27496776
No	 -1.68474167	 -3.29004816	 -78.56507789
No	 -3.59493361	 -2.44302787	 -76.85518802
No	 5.32104696	 -7.23758330	 -87.96858213
No	 3.41085502	 -6.39056301	 -86.25869226
No	 1.50066307	 -5.54354271	 -84.54880239
No	 -0.40952887	 -4.69652242	 -82.83891252
No	 -2.31972081	 -3.84950213	 -81.12902265
No	 -4.22991275	 -3.00248184	 -79.41913278
No	 -6.14010470	 -2.15546154	 -77.70924291
No	 9.76666990	 -5.87955483	 -70.88460732
No	 9.13169076	 -6.43900880	 -73.44855208
No	 7.22149882	 -5.59198851	 -71.73866221
No	 8.49671162	 -6.99846277	 -76.01249684
No	 6.58651968	 -6.15144248	 -74.30260697
No	 4.67632774	 -5.30442218	 -72.59271710
No	 7.86173248	 -7.55791674	 -78.57644161
No	 5.95154054	 -6.71089644	 -76.86655174
No	 4.04134859	 -5.86387615	 -75.15666187
No	 2.13115665	 -5.01685586	 -73.44677200
No	 7.22675334	 -8.11737071	 -81.14038637
No	 5.31656140	 -7.27035041	 -79.43049650
No	 3.40636945	 -6.42333012	 -77.72060663
No	 1.49617751	 -5.57630983	 -76.01071676
No	 -0.41401443	 -4.72928953	 -74.30082689
No	 6.59177420	 -8.67682467	 -83.70433113
No	 4.68158225	 -7.82980438	 -81.99444126
No	 2.77139031	 -6.98278409	 -80.28455139
No	 0.86119837	 -6.13576380	 -78.57466152
No	 -1.04899357	 -5.28874350	 -76.86477165
No	 -2.95918552	 -4.44172321	 -75.15488178
No	 5.95679505	 -9.23627864	 -86.26827589
No	 4.04660311	 -8.38925835	 -84.55838603
No	 2.13641117	 -7.54223806	 -82.84849616
No	 0.22621923	 -6.69521776	 -81.13860629
No	 -1.68397272	 -5.84819747	 -79.42871642
No	 -3.59416466	 -5.00117718	 -77.71882655
No	 -5.50435660	 -4.15415689	 -76.00893668
No	 5.32181591	 -9.79573261	 -88.83222066
No	 3.41162397	 -8.94871232	 -87.12233079
No	 1.50143203	 -8.10169203	 -85.41244092
No	 -0.40875991	 -7.25467173	 -83.70255105
No	 -2.31895186	 -6.40765144	 -81.99266118
No	 -4.22914380	 -5.56063115	 -80.28277131
No	 -6.13933574	 -4.71361085	 -78.57288144
No	 -8.04952769	 -3.86659056	 -76.86299157
Au	 -2.75940186	 15.31355002	 -56.29489063
Au	 5.73945363	 14.46421931	 -81.90832642
No	 -1.27376822	 13.22992160	 -57.15592798
Au	 -3.81893930	 13.51748793	 -58.00998287
Au	 4.88956808	 14.54915238	 -79.34698284
No	 0.21186543	 11.14629319	 -58.01696532
Au	 -4.87847674	 11.72142584	 -59.72507511
Au	 4.03968253	 14.63408545	 -76.78563926
No	 1.69749907	 9.06266478	 -58.87800267
Au	 -5.93801418	 9.92536375	 -61.44016735
Au	 3.18979698	 14.71901852	 -74.22429568
No	 3.18313271	 6.97903636	 -59.73904001
Au	 -6.99755162	 8.12930166	 -63.15525959
Au	 2.33991143	 14.80395159	 -71.66295210
No	 4.66876636	 4.89540795	 -60.60007736
Au	 -8.05708906	 6.33323957	 -64.87035182
Au	 1.49002588	 14.88888466	 -69.10160852
No	 6.15440000	 2.81177954	 -61.46111470
Au	 -9.11662650	 4.53717748	 -66.58544406
Au	 0.64014034	 14.97381773	 -66.54026495
No	 7.64003365	 0.72815112	 -62.32215205
Au	 -10.17616394	 2.74111539	 -68.30053630
Au	 -0.20974521	 15.05875080	 -63.97892137
No	 9.12566729	 -1.35547729	 -63.18318939
Au	 -11.23570138	 0.94505330	 -70.01562854
Au	 -1.05963076	 15.14368387	 -61.41757779
No	 10.61130094	 -3.43910570	 -64.04422674
Au	 -12.29523882	 -0.85100878	 -71.73072078
Au	 -1.90951631	 15.22861695	 -58.85623421
No	 12.09693458	 -5.52273412	 -64.90526408
Au	 -13.35477626	 -2.64707087	 -73.44581302
No	 11.46118649	 -3.52403878	 -66.60557032
No	 10.82543839	 -1.52534343	 -68.30587655
No	 9.97555284	 -1.44041036	 -65.74453297
No	 10.18969030	 0.47335191	 -70.00618278
No	 9.33980475	 0.55828498	 -67.44483920
No	 8.48991920	 0.64321805	 -64.88349563
No	 9.55394220	 2.47204725	 -71.70648902
No	 8.70405665	 2.55698032	 -69.14514544
No	 7.85417110	 2.64191339	 -66.58380186
No	 7.00428555	 2.72684647	 -64.02245828
No	 8.91819411	 4.47074260	 -73.40679525
No	 8.06830856	 4.55567567	 -70.84545167
No	 7.21842301	 4.64060874	 -68.28410809
No	 6.36853746	 4.72554181	 -65.72276451
No	 5.51865191	 4.81047488	 -63.16142094
No	 8.28244601	 6.46943794	 -75.10710148
No	 7.43256046	 6.55437101	 -72.54575790
No	 6.58267491	 6.63930408	 -69.98441433
No	 5.73278936	 6.72423715	 -67.42307075
No	 4.88290381	 6.80917022	 -64.86172717
No	 4.03301826	 6.89410329	 -62.30038359
No	 7.64669792	 8.46813328	 -76.80740772
No	 6.79681237	 8.55306635	 -74.24606414
No	 5.94692682	 8.63799942	 -71.68472056
No	 5.09704127	 8.72293249	 -69.12337698
No	 4.24715572	 8.80786556	 -66.56203340
No	 3.39727017	 8.89279863	 -64.00068982
No	 2.54738462	 8.97773171	 -61.43934625
No	 7.01094982	 10.46682862	 -78.50771395
No	 6.16106427	 10.55176170	 -75.94637037
No	 5.31117872	 10.63669477	 -73.38502679
No	 4.46129317	 10.72162784	 -70.82368321
No	 3.61140762	 10.80656091	 -68.26233964
No	 2.76152207	 10.89149398	 -65.70099606
No	 1.91163652	 10.97642705	 -63.13965248
No	 1.06175098	 11.06136012	 -60.57830890
No	 6.37520173	 12.46552397	 -80.20802018
No	 5.52531618	 12.55045704	 -77.64667660
No	 4.67543063	 12.63539011	 -75.08533303
No	 3.82554508	 12.72032318	 -72.52398945
No	 2.97565953	 12.80525625	 -69.96264587
No	 2.12577398	 12.89018932	 -67.40130229
No	 1.27588843	 12.97512239	 -64.83995871
No	 0.42600288	 13.06005546	 -62.27861513
No	 -0.42388267	 13.14498853	 -59.71727156
No	 -2.96905375	 13.43255486	 -60.57132645
No	 -2.11916820	 13.34762179	 -63.13267003
No	 -4.02859119	 11.63649277	 -62.28641869
No	 -1.26928265	 13.26268872	 -65.69401361
No	 -3.17870564	 11.55155970	 -64.84776227
No	 -5.08812863	 9.84043068	 -64.00151093
No	 -0.41939710	 13.17775564	 -68.25535718
No	 -2.32882009	 11.46662663	 -67.40910584
No	 -4.23824308	 9.75549761	 -66.56285450
No	 -6.14766607	 8.04436859	 -65.71660316
No	 0.43048845	 13.09282257	 -70.81670076
No	 -1.47893454	 11.38169356	 -69.97044942
No	 -3.38835753	 9.67056454	 -69.12419808
No	 -5.29778052	 7.95943552	 -68.27794674
No	 -7.20720351	 6.24830650	 -67.43169540
No	 1.28037399	 13.00788950	 -73.37804434
No	 -0.62904899	 11.29676049	 -72.53179300
No	 -2.53847198	 9.58563147	 -71.68554166
No	 -4.44789497	 7.87450245	 -70.83929032
No	 -6.35731796	 6.16337343	 -69.99303898
No	 -8.26674095	 4.45224441	 -69.14678764
No	 2.13025954	 12.92295643	 -75.93938792
No	 0.22083655	 11.21182741	 -75.09313658
No	 -1.68858643	 9.50069840	 -74.24688524
No	 -3.59800942	 7.78956938	 -73.40063390
No	 -5.50743241	 6.07844036	 -72.55438256
No	 -7.41685540	 4.36731134	 -71.70813122
No	 -9.32627839	 2.65618232	 -70.86187988
No	 2.98014509	 12.83802336	 -78.50073150
No	 1.07072210	 11.12689434	 -77.65448016
No	 -0.83870089	 9.41576533	 -76.80822882
No	 -2.74812387	 7.70463631	 -75.96197748
No	 -4.65754686	 5.99350729	 -75.11572614
No	 -6.56696985	 4.28237827	 -74.26947480
No	 -8.47639284	 2.57124925	 -73.42322346
No	 -10.38581583	 0.86012023	 -72.57697212
No	 3.83003064	 12.75309029	 -81.06207508
No	 1.92060765	 11.04196127	 -80.21582374
No	 0.01118466	 9.33083226	 -79.36957240
No	 -1.89823833	 7.61970324	 -78.52332106
No	 -3.80766131	 5.90857422	 -77.67706972
No	 -5.71708430	 4.19744520	 -76.83081838
No	 -7.62650729	 2.48631618	 -75.98456704
No	 -9.53593028	 0.77518716	 -75.13831570
No	 -11.44535327	 -0.93594185	 -74.29206436
No	 9.55176350	 -5.23516779	 -65.75931898
No	 8.06612985	 -3.15153938	 -64.89828163
No	 7.00659241	 -4.94760147	 -66.61337387
No	 6.58049621	 -1.06791097	 -64.03724429
No	 5.52095877	 -2.86397306	 -65.75233653
No	 4.46142133	 -4.66003514	 -67.46742876
No	 5.09486256	 1.01571745	 -63.17620694
No	 4.03532512	 -0.78034464	 -64.89129918
No	 2.97578768	 -2.57640673	 -66.60639142
No	 1.91625024	 -4.37246882	 -68.32148366
No	 3.60922892	 3.09934586	 -62.31516960
No	 2.54969148	 1.30328377	 -64.03026183
No	 1.49015404	 -0.49277832	 -65.74535407
No	 0.43061660	 -2.28884041	 -67.46044631
No	 -0.62892084	 -4.08490250	 -69.17553855
No	 2.12359527	 5.18297427	 -61.45413225
No	 1.06405783	 3.38691218	 -63.16922449
No	 0.00452040	 1.59085010	 -64.88431673
No	 -1.05501704	 -0.20521199	 -66.59940897
No	 -2.11455448	 -2.00127408	 -68.31450121
No	 -3.17409192	 -3.79733617	 -70.02959344
No	 0.63796163	 7.26660269	 -60.59309491
No	 -0.42157581	 5.47054060	 -62.30818714
No	 -1.48111325	 3.67447851	 -64.02327938
No	 -2.54065069	 1.87841642	 -65.73837162
No	 -3.60018813	 0.08235433	 -67.45346386
No	 -4.65972557	 -1.71370776	 -69.16855610
No	 -5.71926301	 -3.50976985	 -70.88364834
No	 -0.84767201	 9.35023110	 -59.73205756
No	 -1.90720945	 7.55416901	 -61.44714980
No	 -2.96674689	 5.75810692	 -63.16224204
No	 -4.02628433	 3.96204483	 -64.87733428
No	 -5.08582177	 2.16598274	 -66.59242651
No	 -6.14535921	 0.36992066	 -68.30751875
No	 -7.20489665	 -1.42614143	 -70.02261099
No	 -8.26443409	 -3.22220352	 -71.73770323
No	 -2.33330566	 11.43385951	 -58.87102022
No	 -3.39284310	 9.63779742	 -60.58611245
No	 -4.45238054	 7.84173534	 -62.30120469
No	 -5.51191798	 6.04567325	 -64.01629693
No	 -6.57145542	 4.24961116	 -65.73138917
No	 -7.63099286	 2.45354907	 -67.44648141
No	 -8.69053030	 0.65748698	 -69.16157365
No	 -9.75006774	 -1.13857511	 -70.87666589
No	 -10.80960518	 -2.93463720	 -72.59175812
No	 4.46577874	 10.75439495	 -79.36176884
No	 5.10152683	 8.75569961	 -77.66146261
No	 3.61589319	 10.83932802	 -76.80042526
No	 2.55635575	 9.04326593	 -78.51551750
No	 5.73727493	 6.75700426	 -75.96115638
No	 4.25164128	 8.84063268	 -75.10011903
No	 3.19210384	 7.04457059	 -76.81521127
No	 2.76600764	 10.92426109	 -74.23908169
No	 1.70647020	 9.12819900	 -75.95417392
No	 0.64693276	 7.33213691	 -77.66926616
No	 6.37302302	 4.75830892	 -74.26085014
No	 4.88738938	 6.84193733	 -73.39981280
No	 3.82785194	 5.04587525	 -75.11490504
No	 3.40175573	 8.92556575	 -72.53877545
No	 2.34221829	 7.12950366	 -74.25386769
No	 1.28268085	 5.33344157	 -75.96895993
No	 1.91612209	 11.00919416	 -71.67773811
No	 0.85658465	 9.21313207	 -73.39283035
No	 -0.20295279	 7.41706998	 -75.10792258
No	 -1.26249023	 5.62100789	 -76.82301482
No	 7.00877112	 2.75961358	 -72.56054391
No	 5.52313747	 4.84324199	 -71.69950656
No	 4.46360003	 3.04717990	 -73.41459880
No	 4.03750383	 6.92687040	 -70.83846922
No	 2.97796639	 5.13080832	 -72.55356146
No	 1.91842895	 3.33474623	 -74.26865370
No	 2.55187018	 9.01049882	 -69.97743187
No	 1.49233274	 7.21443673	 -71.69252411
No	 0.43279530	 5.41837464	 -73.40761635
No	 -0.62674214	 3.62231255	 -75.12270859
No	 1.06623654	 11.09412723	 -69.11639453
No	 0.00669910	 9.29806514	 -70.83148677
No	 -1.05283834	 7.50200305	 -72.54657901
No	 -2.11237578	 5.70594096	 -74.26167124
No	 -3.17191322	 3.90987888	 -75.97676348
No	 7.64451921	 0.76091824	 -70.86023768
No	 6.15888557	 2.84454665	 -69.99920033
No	 5.09934813	 1.04848456	 -71.71429257
No	 4.67325192	 4.92817506	 -69.13816299
No	 3.61371448	 3.13211297	 -70.85325522
No	 2.55417704	 1.33605088	 -72.56834746
No	 3.18761828	 7.01180348	 -68.27712564
No	 2.12808084	 5.21574139	 -69.99221788
No	 1.06854340	 3.41967930	 -71.70731012
No	 0.00900596	 1.62361721	 -73.42240236
No	 1.70198463	 9.09543189	 -67.41608830
No	 0.64244719	 7.29936980	 -69.13118053
No	 -0.41709025	 5.50330771	 -70.84627277
No	 -1.47662768	 3.70724562	 -72.56136501
No	 -2.53616512	 1.91118353	 -74.27645725
No	 0.21635099	 11.17906030	 -66.55505095
No	 -0.84318645	 9.38299821	 -68.27014319
No	 -1.90272389	 7.58693612	 -69.98523543
No	 -2.96226133	 5.79087404	 -71.70032767
No	 -4.02179877	 3.99481195	 -73.41541990
No	 -5.08133621	 2.19874986	 -75.13051214
No	 8.28026731	 -1.23777711	 -69.15993144
No	 6.79463366	 0.84585131	 -68.29889410
No	 5.73509622	 -0.95021078	 -70.01398634
No	 5.30900002	 2.92947972	 -67.43785675
No	 4.24946258	 1.13341763	 -69.15294899
No	 3.18992514	 -0.66264446	 -70.86804123
No	 3.82336637	 5.01310813	 -66.57681941
No	 2.76382893	 3.21704604	 -68.29191165
No	 1.70429149	 1.42098395	 -70.00700388
No	 0.64475405	 -0.37507813	 -71.72209612
No	 2.33773273	 7.09673655	 -65.71578206
No	 1.27819529	 5.30067446	 -67.43087430
No	 0.21865785	 3.50461237	 -69.14596654
No	 -0.84087959	 1.70855028	 -70.86105878
No	 -1.90041703	 -0.08751181	 -72.57615102
No	 0.85209909	 9.18036496	 -64.85474472
No	 -0.20743835	 7.38430287	 -66.56983696
No	 -1.26697579	 5.58824078	 -68.28492919
No	 -2.32651323	 3.79217869	 -70.00002143
No	 -3.38605067	 1.99611660	 -71.71511367
No	 -4.44558811	 0.20005451	 -73.43020591
No	 -0.63353456	 11.26399337	 -63.99370737
No	 -1.69307200	 9.46793128	 -65.70879961
No	 -2.75260944	 7.67186919	 -67.42389185
No	 -3.81214688	 5.87580711	 -69.13898409
No	 -4.87168432	 4.07974502	 -70.85407633
No	 -5.93122176	 2.28368293	 -72.56916856
No	 -6.99075920	 0.48762084	 -74.28426080
No	 8.91601540	 -3.23647245	 -67.45962521
No	 7.43038176	 -1.15284404	 -66.59858786
No	 6.37084432	 -2.94890613	 -68.31368010
No	 5.94474811	 0.93078438	 -65.73755052
No	 4.88521067	 -0.86527771	 -67.45264276
No	 3.82567323	 -2.66133980	 -69.16773500
No	 4.45911447	 3.01441279	 -64.87651317
No	 3.39957703	 1.21835070	 -66.59160541
No	 2.34003959	 -0.57771139	 -68.30669765
No	 1.28050215	 -2.37377348	 -70.02178989
No	 2.97348082	 5.09804120	 -64.01547583
No	 1.91394338	 3.30197911	 -65.73056807
No	 0.85440594	 1.50591703	 -67.44566031
No	 -0.20513150	 -0.29014506	 -69.16075255
No	 -1.26466894	 -2.08620715	 -70.87584478
No	 1.48784718	 7.18166962	 -63.15443848
No	 0.42830974	 5.38560753	 -64.86953072
No	 -0.63122770	 3.58954544	 -66.58462296
No	 -1.69076514	 1.79348335	 -68.29971520
No	 -2.75030258	 -0.00257874	 -70.01480744
No	 -3.80984002	 -1.79864083	 -71.72989968
No	 0.00221354	 9.26529803	 -62.29340114
No	 -1.05732390	 7.46923594	 -64.00849338
No	 -2.11686134	 5.67317385	 -65.72358562
No	 -3.17639878	 3.87711176	 -67.43867785
No	 -4.23593622	 2.08104967	 -69.15377009
No	 -5.29547366	 0.28498759	 -70.86886233
No	 -6.35501110	 -1.51107450	 -72.58395457
No	 -1.48342011	 11.34892644	 -61.43236379
No	 -2.54295755	 9.55286435	 -63.14745603
No	 -3.60249499	 7.75680227	 -64.86254827
No	 -4.66203243	 5.96074018	 -66.57764051
No	 -5.72156987	 4.16467809	 -68.29273275
No	 -6.78110731	 2.36861600	 -70.00782499
No	 -7.84064475	 0.57255391	 -71.72291723
No	 -8.90018219	 -1.22350818	 -73.43800946
Au	 -8.98343741	 -12.20324989	 -47.01172822
No	 -8.41761600	 -9.70172263	 -47.85565207
Au	 -6.93198235	 -11.78535104	 -48.71668942
Au	 -9.47715344	 -11.49778472	 -49.57074431
No	 -7.85179458	 -7.20019536	 -48.69957593
Au	 -4.88052729	 -11.36745219	 -50.42165062
Au	 -9.97086946	 -10.79231954	 -52.12976041
No	 -7.28597317	 -4.69866810	 -49.54349979
Au	 -2.82907224	 -10.94955334	 -52.12661182
Au	 -10.46458549	 -10.08685436	 -54.68877650
No	 -6.72015176	 -2.19714083	 -50.38742364
Au	 -0.77761718	 -10.53165449	 -53.83157302
Au	 -10.95830151	 -9.38138919	 -57.24779259
No	 -6.15433034	 0.30438643	 -51.23134750
Au	 1.27383788	 -10.11375564	 -55.53653422
Au	 -11.45201754	 -8.67592401	 -59.80680869
No	 -5.58850893	 2.80591369	 -52.07527135
Au	 3.32529294	 -9.69585679	 -57.24149542
Au	 -11.94573357	 -7.97045884	 -62.36582478
No	 -5.02268752	 5.30744096	 -52.91919521
Au	 5.37674799	 -9.27795793	 -58.94645662
Au	 -12.43944959	 -7.26499366	 -64.92484088
No	 -4.45686610	 7.80896822	 -53.76311906
Au	 7.42820305	 -8.86005908	 -60.65141783
Au	 -12.93316562	 -6.55952849	 -67.48385697
No	 -3.89104469	 10.31049549	 -54.60704292
Au	 9.47965811	 -8.44216023	 -62.35637903
Au	 -13.42688165	 -5.85406331	 -70.04287307
No	 -3.32522328	 12.81202275	 -55.45096678
Au	 11.53111317	 -8.02426138	 -64.06134023
Au	 -13.92059767	 -5.14859814	 -72.60188916
No	 10.04547952	 -5.94063297	 -63.20030288
No	 7.99402447	 -6.35853182	 -61.49534168
No	 8.55984588	 -3.85700456	 -62.33926554
No	 5.94256941	 -6.77643067	 -59.79038048
No	 6.50839082	 -4.27490341	 -60.63430434
No	 7.07421223	 -1.77337614	 -61.47822819
No	 3.89111435	 -7.19432952	 -58.08541928
No	 4.45693576	 -4.69280226	 -58.92934314
No	 5.02275718	 -2.19127499	 -59.77326699
No	 5.58857859	 0.31025227	 -60.61719085
No	 1.83965929	 -7.61222837	 -56.38045808
No	 2.40548071	 -5.11070111	 -57.22438193
No	 2.97130212	 -2.60917384	 -58.06830579
No	 3.53712353	 -0.10764658	 -58.91222965
No	 4.10294495	 2.39388068	 -59.75615350
No	 -0.21179576	 -8.03012722	 -54.67549688
No	 0.35402565	 -5.52859996	 -55.51942073
No	 0.91984706	 -3.02707269	 -56.36334459
No	 1.48566847	 -0.52554543	 -57.20726845
No	 2.05148989	 1.97598183	 -58.05119230
No	 2.61731130	 4.47750910	 -58.89511616
No	 -2.26325082	 -8.44802607	 -52.97053568
No	 -1.69742941	 -5.94649881	 -53.81445953
No	 -1.13160800	 -3.44497155	 -54.65838339
No	 -0.56578658	 -0.94344428	 -55.50230724
No	 0.00003483	 1.55808298	 -56.34623110
No	 0.56585624	 4.05961025	 -57.19015496
No	 1.13167766	 6.56113751	 -58.03407881
No	 -4.31470588	 -8.86592493	 -51.26557448
No	 -3.74888447	 -6.36439766	 -52.10949833
No	 -3.18306305	 -3.86287040	 -52.95342219
No	 -2.61724164	 -1.36134313	 -53.79734604
No	 -2.05142023	 1.14018413	 -54.64126990
No	 -1.48559881	 3.64171140	 -55.48519375
No	 -0.91977740	 6.14323866	 -56.32911761
No	 -0.35395599	 8.64476592	 -57.17304147
No	 -6.36616094	 -9.28382378	 -49.56061327
No	 -5.80033952	 -6.78229651	 -50.40453713
No	 -5.23451811	 -4.28076925	 -51.24846099
No	 -4.66869670	 -1.77924198	 -52.09238484
No	 -4.10287528	 0.72228528	 -52.93630870
No	 -3.53705387	 3.22381255	 -53.78023255
No	 -2.97123246	 5.72533981	 -54.62415641
No	 -2.40541105	 8.22686707	 -55.46808027
No	 -1.83958963	 10.72839434	 -56.31200412
No	 -4.38476072	 11.01596066	 -57.16605901
No	 -4.95058213	 8.51443340	 -56.32213516
No	 -5.44429816	 9.21989857	 -58.88115125
No	 -5.51640354	 6.01290613	 -55.47821130
No	 -6.01011957	 6.71837131	 -58.03722740
No	 -6.50383560	 7.42383648	 -60.59624349
No	 -6.08222496	 3.51137887	 -54.63428745
No	 -6.57594098	 4.21684405	 -57.19330354
No	 -7.06965701	 4.92230922	 -59.75231964
No	 -7.56337304	 5.62777440	 -62.31133573
No	 -6.64804637	 1.00985161	 -53.79036359
No	 -7.14176240	 1.71531678	 -56.34937969
No	 -7.63547842	 2.42078196	 -58.90839578
No	 -8.12919445	 3.12624713	 -61.46741187
No	 -8.62291048	 3.83171231	 -64.02642797
No	 -7.21386778	 -1.49167566	 -52.94643974
No	 -7.70758381	 -0.78621048	 -55.50545583
No	 -8.20129984	 -0.08074531	 -58.06447192
No	 -8.69501586	 0.62471987	 -60.62348802
No	 -9.18873189	 1.33018504	 -63.18250411
No	 -9.68244792	 2.03565022	 -65.74152021
No	 -7.77968920	 -3.99320292	 -52.10251588
No	 -8.27340522	 -3.28773775	 -54.66153197
No	 -8.76712125	 -2.58227257	 -57.22054807
No	 -9.26083728	 -1.87680740	 -59.77956416
No	 -9.75455330	 -1.17134222	 -62.33858026
No	 -10.24826933	 -0.46587705	 -64.89759635
No	 -10.74198536	 0.23958813	 -67.45661245
No	 -8.34551061	 -6.49473019	 -51.25859202
No	 -8.83922664	 -5.78926501	 -53.81760812
No	 -9.33294266	 -5.08379984	 -56.37662421
No	 -9.82665869	 -4.37833466	 -58.93564031
No	 -10.32037472	 -3.67286949	 -61.49465640
No	 -10.81409074	 -2.96740431	 -64.05367250
No	 -11.30780677	 -2.26193913	 -66.61268859
No	 -11.80152280	 -1.55647396	 -69.17170468
No	 -8.91133202	 -8.99625745	 -50.41466817
No	 -9.40504805	 -8.29079228	 -52.97368426
No	 -9.89876408	 -7.58532710	 -55.53270036
No	 -10.39248010	 -6.87986193	 -58.09171645
No	 -10.88619613	 -6.17439675	 -60.65073255
No	 -11.37991216	 -5.46893157	 -63.20974864
No	 -11.87362818	 -4.76346640	 -65.76876473
No	 -12.36734421	 -4.05800122	 -68.32778083
No	 -12.86106023	 -3.35253605	 -70.88679692
No	 -11.37542659	 -5.43616446	 -71.74783427
No	 -10.88171056	 -6.14162964	 -69.18881817
No	 -8.83025551	 -5.72373079	 -70.89377937
No	 -10.38799454	 -6.84709481	 -66.62980208
No	 -8.33653948	 -6.42919596	 -68.33476328
No	 -6.28508442	 -6.01129711	 -70.03972448
No	 -9.89427851	 -7.55255999	 -64.07078598
No	 -7.84282345	 -7.13466114	 -65.77574719
No	 -5.79136840	 -6.71676229	 -67.48070839
No	 -3.73991334	 -6.29886344	 -69.18566959
No	 -9.40056248	 -8.25802516	 -61.51176989
No	 -7.34910743	 -7.84012631	 -63.21673109
No	 -5.29765237	 -7.42222746	 -64.92169229
No	 -3.24619731	 -7.00432861	 -66.62665349
No	 -1.19474225	 -6.58642976	 -68.33161469
No	 -8.90684646	 -8.96349034	 -58.95275380
No	 -6.85539140	 -8.54559149	 -60.65771500
No	 -4.80393634	 -8.12769264	 -62.36267620
No	 -2.75248128	 -7.70979379	 -64.06763740
No	 -0.70102623	 -7.29189493	 -65.77259860
No	 1.35042883	 -6.87399608	 -67.47755980
No	 -8.41313043	 -9.66895551	 -56.39373770
No	 -6.36167537	 -9.25105666	 -58.09869890
No	 -4.31022032	 -8.83315781	 -59.80366010
No	 -2.25876526	 -8.41525896	 -61.50862130
No	 -0.20731020	 -7.99736011	 -63.21358251
No	 1.84414486	 -7.57946126	 -64.91854371
No	 3.89559991	 -7.16156241	 -66.62350491
No	 -7.91941440	 -10.37442069	 -53.83472161
No	 -5.86795935	 -9.95652184	 -55.53968281
No	 -3.81650429	 -9.53862299	 -57.24464401
No	 -1.76504923	 -9.12072414	 -58.94960521
No	 0.28640583	 -8.70282529	 -60.65456641
No	 2.33786088	 -8.28492643	 -62.35952761
No	 4.38931594	 -7.86702758	 -64.06448881
No	 6.44077100	 -7.44912873	 -65.76945001
No	 -7.42569838	 -11.07988586	 -51.27570551
No	 -5.37424332	 -10.66198701	 -52.98066671
No	 -3.32278826	 -10.24408816	 -54.68562791
No	 -1.27133320	 -9.82618931	 -56.39058912
No	 0.78012185	 -9.40829046	 -58.09555032
No	 2.83157691	 -8.99039161	 -59.80051152
No	 4.88303197	 -8.57249276	 -61.50547272
No	 6.93448703	 -8.15459391	 -63.21043392
No	 8.98594208	 -7.73669506	 -64.91539512
No	 -6.85987696	 -8.57835860	 -52.11962937
No	 -4.80842191	 -8.16045975	 -53.82459057
No	 -6.29405555	 -6.07683134	 -52.96355322
No	 -7.35359299	 -7.87289343	 -54.67864546
No	 -2.75696685	 -7.74256090	 -55.52955177
No	 -4.24260049	 -5.65893249	 -54.66851443
No	 -5.30213793	 -7.45499457	 -56.38360666
No	 -5.72823414	 -3.57530407	 -53.80747708
No	 -6.78777158	 -5.37136616	 -55.52256932
No	 -7.84730902	 -7.16742825	 -57.23766156
No	 -0.70551179	 -7.32466205	 -57.23451297
No	 -2.19114544	 -5.24103363	 -56.37347563
No	 -3.25068288	 -7.03709572	 -58.08856787
No	 -3.67677908	 -3.15740522	 -55.51243828
No	 -4.73631652	 -4.95346731	 -57.22753052
No	 -5.79585396	 -6.74952940	 -58.94262276
No	 -5.16241272	 -1.07377681	 -54.65140094
No	 -6.22195016	 -2.86983890	 -56.36649317
No	 -7.28148760	 -4.66590099	 -58.08158541
No	 -8.34102504	 -6.46196307	 -59.79667765
No	 1.34594327	 -6.90676320	 -58.93947417
No	 -0.13969038	 -4.82313478	 -58.07843683
No	 -1.19922782	 -6.61919687	 -59.79352907
No	 -1.62532402	 -2.73950637	 -57.21739948
No	 -2.68486146	 -4.53556846	 -58.93249172
No	 -3.74439890	 -6.33163055	 -60.64758396
No	 -3.11095767	 -0.65587796	 -56.35636214
No	 -4.17049511	 -2.45194005	 -58.07145438
No	 -5.23003255	 -4.24800213	 -59.78654661
No	 -6.28956999	 -6.04406422	 -61.50163885
No	 -4.59659131	 1.42775046	 -55.49532479
No	 -5.65612875	 -0.36831163	 -57.21041703
No	 -6.71566619	 -2.16437372	 -58.92550927
No	 -7.77520363	 -3.96043581	 -60.64060151
No	 -8.83474107	 -5.75649790	 -62.35569375
No	 3.39739832	 -6.48886435	 -60.64443537
No	 1.91176468	 -4.40523593	 -59.78339803
No	 0.85222724	 -6.20129802	 -61.49849027
No	 0.42613104	 -2.32160752	 -58.92236068
No	 -0.63340640	 -4.11766961	 -60.63745292
No	 -1.69294384	 -5.91373170	 -62.35254516
No	 -1.05950261	 -0.23797911	 -58.06132334
No	 -2.11904005	 -2.03404119	 -59.77641558
No	 -3.17857749	 -3.83010328	 -61.49150782
No	 -4.23811493	 -5.62616537	 -63.20660005
No	 -2.54513625	 1.84564931	 -57.20028599
No	 -3.60467369	 0.04958722	 -58.91537823
No	 -4.66421113	 -1.74647487	 -60.63047047
No	 -5.72374857	 -3.54253696	 -62.34556271
No	 -6.78328601	 -5.33859905	 -64.06065495
No	 -4.03076990	 3.92927772	 -56.33924865
No	 -5.09030734	 2.13321563	 -58.05434089
No	 -6.14984478	 0.33715354	 -59.76943313
No	 -7.20938222	 -1.45890855	 -61.48452536
No	 -8.26891966	 -3.25497063	 -63.19961760
No	 -9.32845710	 -5.05103272	 -64.91470984
No	 5.44885338	 -6.07096550	 -62.34939657
No	 3.96321974	 -3.98733708	 -61.48835923
No	 2.90368230	 -5.78339917	 -63.20345147
No	 2.47758609	 -1.90370867	 -60.62732188
No	 1.41804865	 -3.69977076	 -62.34241412
No	 0.35851121	 -5.49583285	 -64.05750636
No	 0.99195245	 0.17991974	 -59.76628454
No	 -0.06758499	 -1.61614234	 -61.48137678
No	 -1.12712243	 -3.41220443	 -63.19646902
No	 -2.18665987	 -5.20826652	 -64.91156125
No	 -0.49368120	 2.26354816	 -58.90524719
No	 -1.55321864	 0.46748607	 -60.62033943
No	 -2.61275608	 -1.32857602	 -62.33543167
No	 -3.67229352	 -3.12463811	 -64.05052391
No	 -4.73183096	 -4.92070020	 -65.76561615
No	 -1.97931484	 4.34717657	 -58.04420985
No	 -3.03885228	 2.55111448	 -59.75930209
No	 -4.09838972	 0.75505239	 -61.47439433
No	 -5.15792716	 -1.04100969	 -63.18948656
No	 -6.21746460	 -2.83707178	 -64.90457880
No	 -7.27700204	 -4.63313387	 -66.61967104
No	 -3.46494848	 6.43080499	 -57.18317250
No	 -4.52448592	 4.63474290	 -58.89826474
No	 -5.58402336	 2.83868081	 -60.61335698
No	 -6.64356080	 1.04261872	 -62.32844922
No	 -7.70309824	 -0.75344337	 -64.04354146
No	 -8.76263568	 -2.54950546	 -65.75863370
No	 -9.82217312	 -4.34556755	 -67.47372594
No	 7.50030844	 -5.65306664	 -64.05435778
No	 6.01467479	 -3.56943823	 -63.19332043
No	 4.95513735	 -5.36550032	 -64.90841267
No	 4.52904115	 -1.48580982	 -62.33228309
No	 3.46950371	 -3.28187191	 -64.04737532
No	 2.40996627	 -5.07793400	 -65.76246756
No	 3.04340751	 0.59781860	 -61.47124574
No	 1.98387007	 -1.19824349	 -63.18633798
No	 0.92433263	 -2.99430558	 -64.90143022
No	 -0.13520481	 -4.79036767	 -66.61652246
No	 1.55777386	 2.68144701	 -60.61020840
No	 0.49823642	 0.88538492	 -62.32530063
No	 -0.56130102	 -0.91067717	 -64.04039287
No	 -1.62083846	 -2.70673926	 -65.75548511
No	 -2.68037590	 -4.50280135	 -67.47057735
No	 0.07214022	 4.76507542	 -59.74917105
No	 -0.98739722	 2.96901333	 -61.46426329
No	 -2.04693466	 1.17295124	 -63.17935553
No	 -3.10647210	 -0.62311084	 -64.89444777
No	 -4.16600954	 -2.41917293	 -66.60954000
No	 -5.22554698	 -4.21523502	 -68.32463224
No	 -1.41349343	 6.84870384	 -58.88813371
No	 -2.47303087	 5.05264175	 -60.60322594
No	 -3.53256831	 3.25657966	 -62.31831818
No	 -4.59210575	 1.46051757	 -64.03341042
No	 -5.65164319	 -0.33554452	 -65.74850266
No	 -6.71118063	 -2.13160661	 -67.46359490
No	 -7.77071807	 -3.92766870	 -69.17868714
No	 -2.89912707	 8.93233225	 -58.02709636
No	 -3.95866451	 7.13627016	 -59.74218860
No	 -5.01820195	 5.34020807	 -61.45728084
No	 -6.07773939	 3.54414598	 -63.17237308
No	 -7.13727683	 1.74808389	 -64.88746531
No	 -8.19681427	 -0.04797819	 -66.60255755
No	 -9.25635171	 -1.84404028	 -68.31764979
No	 -10.31588915	 -3.64010237	 -70.03274203
Au	 15.64079967	 1.44575802	 -37.55437493
No	 -6.74487040	 -10.96243099	 -46.15196883
Au	 -1.08665627	 14.05284165	 -54.59120739
Au	 13.76968017	 -6.78344248	 -63.20158084
No	 -4.50630339	 -9.72161209	 -45.29220944
Au	 0.58608932	 12.79213329	 -52.88752414
Au	 13.95679212	 -5.96052243	 -60.63686025
No	 -2.26773639	 -8.48079319	 -44.43245005
Au	 2.25883492	 11.53142493	 -51.18384090
Au	 14.14390407	 -5.13760238	 -58.07213966
No	 -0.02916938	 -7.23997429	 -43.57269066
Au	 3.93158051	 10.27071656	 -49.48015765
Au	 14.33101602	 -4.31468233	 -55.50741907
No	 2.20939763	 -5.99915538	 -42.71293127
Au	 5.60432611	 9.01000820	 -47.77647440
Au	 14.51812797	 -3.49176228	 -52.94269847
No	 4.44796463	 -4.75833648	 -41.85317188
Au	 7.27707170	 7.74929984	 -46.07279116
Au	 14.70523992	 -2.66884223	 -50.37797788
No	 6.68653164	 -3.51751758	 -40.99341249
Au	 8.94981729	 6.48859148	 -44.36910791
Au	 14.89235187	 -1.84592218	 -47.81325729
No	 8.92509865	 -2.27669868	 -40.13365310
Au	 10.62256289	 5.22788311	 -42.66542467
Au	 15.07946382	 -1.02300213	 -45.24853670
No	 11.16366566	 -1.03587978	 -39.27389371
Au	 12.29530848	 3.96717475	 -40.96174142
Au	 15.26657577	 -0.20008208	 -42.68381611
No	 13.40223266	 0.20493912	 -38.41413432
Au	 13.96805408	 2.70646639	 -39.25805818
Au	 15.45368772	 0.62283797	 -40.11909552
No	 -1.65247768	 11.55131439	 -53.74728353
No	 -2.21829910	 9.04978712	 -52.90335967
No	 0.02026791	 10.29060603	 -52.04360029
No	 -2.78412051	 6.54825986	 -52.05943582
No	 -0.54555350	 7.78907876	 -51.19967643
No	 1.69301351	 9.02989766	 -50.33991704
No	 -3.34994192	 4.04673260	 -51.21551196
No	 -1.11137491	 5.28755150	 -50.35575257
No	 1.12719209	 6.52837040	 -49.49599318
No	 3.36575910	 7.76918930	 -48.63623379
No	 -3.91576334	 1.54520533	 -50.37158811
No	 -1.67719633	 2.78602423	 -49.51182872
No	 0.56137068	 4.02684313	 -48.65206933
No	 2.79993769	 5.26766204	 -47.79230994
No	 5.03850469	 6.50848094	 -46.93255055
No	 -4.48158475	 -0.95632193	 -49.52766425
No	 -2.24301774	 0.28449697	 -48.66790486
No	 -0.00445073	 1.52531587	 -47.80814547
No	 2.23411627	 2.76613477	 -46.94838608
No	 4.47268328	 4.00695367	 -46.08862669
No	 6.71125029	 5.24777257	 -45.22886730
No	 -5.04740616	 -3.45784920	 -48.68374040
No	 -2.80883915	 -2.21703030	 -47.82398101
No	 -0.57027215	 -0.97621139	 -46.96422162
No	 1.66829486	 0.26460751	 -46.10446223
No	 3.90686187	 1.50542641	 -45.24470284
No	 6.14542887	 2.74624531	 -44.38494345
No	 8.38399588	 3.98706421	 -43.52518406
No	 -5.61322757	 -5.95937646	 -47.83981654
No	 -3.37466057	 -4.71855756	 -46.98005715
No	 -1.13609356	 -3.47773866	 -46.12029776
No	 1.10247345	 -2.23691976	 -45.26053837
No	 3.34104045	 -0.99610086	 -44.40077898
No	 5.57960746	 0.24471805	 -43.54101959
No	 7.81817447	 1.48553695	 -42.68126020
No	 10.05674148	 2.72635585	 -41.82150081
No	 -6.17904899	 -8.46090373	 -46.99589268
No	 -3.94048198	 -7.22008482	 -46.13613329
No	 -1.70191497	 -5.97926592	 -45.27637390
No	 0.53665203	 -4.73844702	 -44.41661451
No	 2.77521904	 -3.49762812	 -43.55685512
No	 5.01378605	 -2.25680922	 -42.69709573
No	 7.25235306	 -1.01599032	 -41.83733634
No	 9.49092006	 0.22482858	 -40.97757696
No	 11.72948707	 1.46564749	 -40.11781757
No	 13.21512071	 -0.61798093	 -40.97885491
No	 10.97655371	 -1.85879983	 -41.83861430
No	 13.02800876	 -1.44090098	 -43.54357550
No	 8.73798670	 -3.09961873	 -42.69837369
No	 10.78944176	 -2.68171988	 -44.40333489
No	 12.84089681	 -2.26382103	 -46.10829609
No	 6.49941969	 -4.34043763	 -43.55813308
No	 8.55087475	 -3.92253878	 -45.26309428
No	 10.60232981	 -3.50463993	 -46.96805548
No	 12.65378487	 -3.08674108	 -48.67301668
No	 4.26085269	 -5.58125653	 -44.41789247
No	 6.31230774	 -5.16335768	 -46.12285367
No	 8.36376280	 -4.74545883	 -47.82781487
No	 10.41521786	 -4.32755998	 -49.53277607
No	 12.46667292	 -3.90966113	 -51.23773727
No	 2.02228568	 -6.82207543	 -45.27765186
No	 4.07374074	 -6.40417658	 -46.98261306
No	 6.12519579	 -5.98627773	 -48.68757426
No	 8.17665085	 -5.56837888	 -50.39253546
No	 10.22810591	 -5.15048003	 -52.09749666
No	 12.27956097	 -4.73258118	 -53.80245786
No	 -0.21628133	 -8.06289434	 -46.13741125
No	 1.83517373	 -7.64499549	 -47.84237245
No	 3.88662879	 -7.22709663	 -49.54733365
No	 5.93808384	 -6.80919778	 -51.25229485
No	 7.98953890	 -6.39129893	 -52.95725605
No	 10.04099396	 -5.97340008	 -54.66221725
No	 12.09244902	 -5.55550123	 -56.36717846
No	 -2.45484834	 -9.30371324	 -46.99717064
No	 -0.40339328	 -8.88581439	 -48.70213184
No	 1.64806178	 -8.46791554	 -50.40709304
No	 3.69951684	 -8.05001668	 -52.11205424
No	 5.75097189	 -7.63211783	 -53.81701544
No	 7.80242695	 -7.21421898	 -55.52197664
No	 9.85388201	 -6.79632013	 -57.22693785
No	 11.90533707	 -6.37842128	 -58.93189905
No	 -4.69341534	 -10.54453214	 -47.85693003
No	 -2.64196029	 -10.12663329	 -49.56189123
No	 -0.59050523	 -9.70873444	 -51.26685243
No	 1.46094983	 -9.29083559	 -52.97181363
No	 3.51240489	 -8.87293674	 -54.67677483
No	 5.56385994	 -8.45503788	 -56.38173603
No	 7.61531500	 -8.03713903	 -58.08669723
No	 9.66677006	 -7.61924018	 -59.79165844
No	 11.71822512	 -7.20134133	 -61.49661964
No	 12.28404653	 -4.69981407	 -62.34054349
No	 10.79841289	 -2.61618565	 -61.47950615
No	 12.47115848	 -3.87689402	 -59.77582290
No	 9.31277924	 -0.53255724	 -60.61846880
No	 10.98552484	 -1.79326560	 -58.91478556
No	 12.65827043	 -3.05397397	 -57.21110231
No	 7.82714560	 1.55107117	 -59.75743146
No	 9.49989119	 0.29036281	 -58.05374821
No	 11.17263679	 -0.97034555	 -56.35006497
No	 12.84538238	 -2.23105392	 -54.64638172
No	 6.34151195	 3.63469959	 -58.89639411
No	 8.01425755	 2.37399122	 -57.19271087
No	 9.68700314	 1.11328286	 -55.48902762
No	 11.35974873	 -0.14742550	 -53.78534438
No	 13.03249433	 -1.40813387	 -52.08166113
No	 4.85587831	 5.71832800	 -58.03535677
No	 6.52862390	 4.45761964	 -56.33167352
No	 8.20136950	 3.19691127	 -54.62799028
No	 9.87411509	 1.93620291	 -52.92430703
No	 11.54686068	 0.67549455	 -51.22062378
No	 13.21960628	 -0.58521382	 -49.51694054
No	 3.37024466	 7.80195641	 -57.17431942
No	 5.04299026	 6.54124805	 -55.47063618
No	 6.71573585	 5.28053969	 -53.76695293
No	 8.38848145	 4.01983132	 -52.06326968
No	 10.06122704	 2.75912296	 -50.35958644
No	 11.73397263	 1.49841460	 -48.65590319
No	 13.40671823	 0.23770624	 -46.95221995
No	 1.88461102	 9.88558483	 -56.31328208
No	 3.55735661	 8.62487646	 -54.60959883
No	 5.23010221	 7.36416810	 -52.90591559
No	 6.90284780	 6.10345974	 -51.20223234
No	 8.57559340	 4.84275137	 -49.49854909
No	 10.24833899	 3.58204301	 -47.79486585
No	 11.92108458	 2.32133465	 -46.09118260
No	 13.59383018	 1.06062629	 -44.38749936
No	 0.39897738	 11.96921324	 -55.45224473
No	 2.07172297	 10.70850488	 -53.74856149
No	 3.74446856	 9.44779651	 -52.04487824
No	 5.41721416	 8.18708815	 -50.34119499
No	 7.08995975	 6.92637979	 -48.63751175
No	 8.76270535	 5.66567143	 -46.93382850
No	 10.43545094	 4.40496306	 -45.23014526
No	 12.10819653	 3.14425470	 -43.52646201
No	 13.78094213	 1.88354634	 -41.82277877
No	 -4.12759393	 -8.04300487	 -48.70085388
No	 -2.07613887	 -7.62510602	 -50.40581509
No	 -3.56177252	 -5.54147761	 -49.54477774
No	 -1.88902692	 -6.80218597	 -47.84109449
No	 -0.02468382	 -7.20720717	 -52.11077629
No	 -1.51031746	 -5.12357876	 -51.24973894
No	 0.16242813	 -6.38428712	 -49.54605570
No	 -2.99595110	 -3.03995035	 -50.38870160
No	 -1.32320551	 -4.30065871	 -48.68501835
No	 0.34954008	 -5.56136707	 -46.98133510
No	 2.02677124	 -6.78930832	 -53.81573749
No	 0.54113760	 -4.70567991	 -52.95470014
No	 2.21388319	 -5.96638827	 -51.25101690
No	 -0.94449605	 -2.62205150	 -52.09366280
No	 0.72824955	 -3.88275986	 -50.38997955
No	 2.40099514	 -5.14346822	 -48.68629631
No	 -2.43012969	 -0.53842308	 -51.23262545
No	 -0.75738410	 -1.79913144	 -49.52894221
No	 0.91536150	 -3.05983981	 -47.82525896
No	 2.58810709	 -4.32054817	 -46.12157572
No	 4.07822630	 -6.37140947	 -55.52069869
No	 2.59259266	 -4.28778106	 -54.65966134
No	 4.26533825	 -5.54848942	 -52.95597810
No	 1.10695901	 -2.20415264	 -53.79862400
No	 2.77970461	 -3.46486101	 -52.09494075
No	 4.45245020	 -4.72556937	 -50.39125751
No	 -0.37867463	 -0.12052423	 -52.93758665
No	 1.29407096	 -1.38123259	 -51.23390341
No	 2.96681655	 -2.64194096	 -49.53022016
No	 4.63956215	 -3.90264932	 -47.82653692
No	 -1.86430828	 1.96310418	 -52.07654931
No	 -0.19156268	 0.70239582	 -50.37286606
No	 1.48118291	 -0.55831254	 -48.66918282
No	 3.15392850	 -1.81902091	 -46.96549957
No	 4.82667410	 -3.07972927	 -45.26181633
No	 6.12968136	 -5.95351062	 -57.22565989
No	 4.64404771	 -3.86988221	 -56.36462254
No	 6.31679331	 -5.13059057	 -54.66093930
No	 3.15841407	 -1.78625379	 -55.50358520
No	 4.83115966	 -3.04696216	 -53.79990195
No	 6.50390526	 -4.30767052	 -52.09621871
No	 1.67278042	 0.29737462	 -54.64254785
No	 3.34552602	 -0.96333374	 -52.93886461
No	 5.01827161	 -2.22404211	 -51.23518136
No	 6.69101721	 -3.48475047	 -49.53149812
No	 0.18714678	 2.38100303	 -53.78151051
No	 1.85989237	 1.12029467	 -52.07782726
No	 3.53263797	 -0.14041369	 -50.37414402
No	 5.20538356	 -1.40112206	 -48.67046077
No	 6.87812916	 -2.66183042	 -46.96677753
No	 -1.29848686	 4.46463145	 -52.92047316
No	 0.37425873	 3.20392308	 -51.21678992
No	 2.04700432	 1.94321472	 -49.51310667
No	 3.71974992	 0.68250636	 -47.80942343
No	 5.39249551	 -0.57820200	 -46.10574018
No	 7.06524111	 -1.83891037	 -44.40205694
No	 8.18113642	 -5.53561177	 -58.93062109
No	 6.69550277	 -3.45198336	 -58.06958375
No	 8.36824836	 -4.71269172	 -56.36590050
No	 5.20986913	 -1.36835494	 -57.20854640
No	 6.88261472	 -2.62906331	 -55.50486315
No	 8.55536031	 -3.88977167	 -53.80117991
No	 3.72423548	 0.71527347	 -56.34750906
No	 5.39698108	 -0.54543489	 -54.64382581
No	 7.06972667	 -1.80614325	 -52.94014256
No	 8.74247226	 -3.06685162	 -51.23645932
No	 2.23860184	 2.79890188	 -55.48647171
No	 3.91134743	 1.53819352	 -53.78278846
No	 5.58409303	 0.27748516	 -52.07910522
No	 7.25683862	 -0.98322320	 -50.37542197
No	 8.92958421	 -2.24393157	 -48.67173873
No	 0.75296819	 4.88253030	 -54.62543437
No	 2.42571379	 3.62182193	 -52.92175112
No	 4.09845938	 2.36111357	 -51.21806787
No	 5.77120498	 1.10040521	 -49.51438463
No	 7.44395057	 -0.16030315	 -47.81070138
No	 9.11669616	 -1.42101152	 -46.10701814
No	 -0.73266545	 6.96615871	 -53.76439702
No	 0.94008014	 5.70545035	 -52.06071377
No	 2.61282574	 4.44474199	 -50.35703053
No	 4.28557133	 3.18403362	 -48.65334728
No	 5.95831692	 1.92332526	 -46.94966404
No	 7.63106252	 0.66261690	 -45.24598079
No	 9.30380811	 -0.59809147	 -43.54229755
No	 10.23259147	 -5.11771292	 -60.63558229
No	 8.74695783	 -3.03408450	 -59.77454495
No	 10.41970342	 -4.29479287	 -58.07086170
No	 7.26132418	 -0.95045609	 -58.91350760
No	 8.93406978	 -2.21116445	 -57.20982436
No	 10.60681537	 -3.47187282	 -55.50614111
No	 5.77569054	 1.13317232	 -58.05247026
No	 7.44843613	 -0.12753604	 -56.34878701
No	 9.12118173	 -1.38824440	 -54.64510377
No	 10.79392732	 -2.64895277	 -52.94142052
No	 4.29005690	 3.21680074	 -57.19143291
No	 5.96280249	 1.95609237	 -55.48774967
No	 7.63554808	 0.69538401	 -53.78406642
No	 9.30829368	 -0.56532435	 -52.08038317
No	 10.98103927	 -1.82603272	 -50.37669993
No	 2.80442325	 5.30042915	 -56.33039557
No	 4.47716884	 4.03972079	 -54.62671232
No	 6.14991444	 2.77901242	 -52.92302907
No	 7.82266003	 1.51830406	 -51.21934583
No	 9.49540563	 0.25759570	 -49.51566258
No	 11.16815122	 -1.00311267	 -47.81197934
No	 1.31878961	 7.38405756	 -55.46935822
No	 2.99153520	 6.12334920	 -53.76567498
No	 4.66428079	 4.86264084	 -52.06199173
No	 6.33702639	 3.60193247	 -50.35830848
No	 8.00977198	 2.34122411	 -48.65462524
No	 9.68251758	 1.08051575	 -46.95094199
No	 11.35526317	 -0.18019262	 -45.24725875
No	 -0.16684404	 9.46768598	 -54.60832088
No	 1.50590156	 8.20697761	 -52.90463763
No	 3.17864715	 6.94626925	 -51.20095438
No	 4.85139274	 5.68556089	 -49.49727114
No	 6.52413834	 4.42485252	 -47.79358789
No	 8.19688393	 3.16414416	 -46.08990465
No	 9.86962953	 1.90343580	 -44.38622140
No	 11.54237512	 0.64272744	 -42.68253816
Au	 -10.98392796	 10.64373463	 -28.14102776
Au	 -9.16530019	 -10.12625130	 -45.29620999
Au	 -3.50708605	 14.88902134	 -53.73544855
No	 -8.56349817	 9.80755494	 -28.99678659
Au	 -9.34716296	 -8.04925271	 -43.58069177
Au	 -4.25477024	 14.46449267	 -51.17600647
No	 -6.14306839	 8.97137525	 -29.85254543
Au	 -9.52902574	 -5.97225411	 -41.86517355
Au	 -5.00245443	 14.03996400	 -48.61656439
No	 -3.72263861	 8.13519556	 -30.70830426
Au	 -9.71088852	 -3.89525552	 -40.14965532
Au	 -5.75013863	 13.61543533	 -46.05712231
No	 -1.30220882	 7.29901586	 -31.56406309
Au	 -9.89275130	 -1.81825693	 -38.43413710
Au	 -6.49782282	 13.19090666	 -43.49768023
No	 1.11822096	 6.46283617	 -32.41982193
Au	 -10.07461407	 0.25874167	 -36.71861888
Au	 -7.24550701	 12.76637799	 -40.93823816
No	 3.53865075	 5.62665648	 -33.27558076
Au	 -10.25647685	 2.33574026	 -35.00310065
Au	 -7.99319120	 12.34184932	 -38.37879608
No	 5.95908053	 4.79047679	 -34.13133959
Au	 -10.43833963	 4.41273885	 -33.28758243
Au	 -8.74087539	 11.91732064	 -35.81935400
No	 8.37951032	 3.95429710	 -34.98709843
Au	 -10.62020240	 6.48973744	 -31.57206420
Au	 -9.48855958	 11.49279197	 -33.25991192
No	 10.79994010	 3.11811741	 -35.84285726
Au	 -10.80206518	 8.56673604	 -29.85654598
Au	 -10.23624377	 11.06826330	 -30.70046984
No	 13.22036989	 2.28193772	 -36.69861610
No	 -10.05438099	 8.99126471	 -32.41598806
No	 -9.87251821	 6.91426612	 -34.13150628
No	 -9.30669680	 9.41579338	 -34.97543014
No	 -9.69065544	 4.83726752	 -35.84702451
No	 -9.12483402	 7.33879479	 -36.69094836
No	 -8.55901261	 9.84032205	 -37.53487222
No	 -9.50879266	 2.76026893	 -37.56254273
No	 -8.94297125	 5.26179619	 -38.40646659
No	 -8.37714983	 7.76332346	 -39.25039044
No	 -7.81132842	 10.26485072	 -40.09431430
No	 -9.32692988	 0.68327034	 -39.27806096
No	 -8.76110847	 3.18479760	 -40.12198481
No	 -8.19528706	 5.68632487	 -40.96590867
No	 -7.62946564	 8.18785213	 -41.80983252
No	 -7.06364423	 10.68937939	 -42.65375638
No	 -9.14506710	 -1.39372826	 -40.99357918
No	 -8.57924569	 1.10779901	 -41.83750303
No	 -8.01342428	 3.60932627	 -42.68142689
No	 -7.44760286	 6.11085354	 -43.52535075
No	 -6.88178145	 8.61238080	 -44.36927460
No	 -6.31596004	 11.11390807	 -45.21319846
No	 -8.96320433	 -3.47072685	 -42.70909740
No	 -8.39738291	 -0.96919958	 -43.55302126
No	 -7.83156150	 1.53232768	 -44.39694511
No	 -7.26574009	 4.03385494	 -45.24086897
No	 -6.69991867	 6.53538221	 -46.08479283
No	 -6.13409726	 9.03690947	 -46.92871668
No	 -5.56827585	 11.53843674	 -47.77264054
No	 -8.78134155	 -5.54772544	 -44.42461563
No	 -8.21552014	 -3.04619818	 -45.26853948
No	 -7.64969872	 -0.54467091	 -46.11246334
No	 -7.08387731	 1.95685635	 -46.95638719
No	 -6.51805590	 4.45838362	 -47.80031105
No	 -5.95223448	 6.95991088	 -48.64423491
No	 -5.38641307	 9.46143814	 -49.48815876
No	 -4.82059166	 11.96296541	 -50.33208262
No	 -8.59947877	 -7.62472403	 -46.14013385
No	 -8.03365736	 -5.12319677	 -46.98405771
No	 -7.46783595	 -2.62166951	 -47.82798156
No	 -6.90201453	 -0.12014224	 -48.67190542
No	 -6.33619312	 2.38138502	 -49.51582927
No	 -5.77037171	 4.88291229	 -50.35975313
No	 -5.20455029	 7.38443955	 -51.20367699
No	 -4.63872888	 9.88596682	 -52.04760084
No	 -4.07290747	 12.38749408	 -52.89152470
No	 10.98180288	 1.04111881	 -37.55837549
No	 8.74323587	 -0.19970009	 -38.41813488
No	 8.56137309	 1.87729851	 -36.70261665
No	 6.50466886	 -1.44051899	 -39.27789427
No	 6.32280609	 0.63647960	 -37.56237604
No	 6.14094331	 2.71347820	 -35.84685782
No	 4.26610186	 -2.68133789	 -40.13765366
No	 4.08423908	 -0.60433930	 -38.42213543
No	 3.90237630	 1.47265930	 -36.70661721
No	 3.72051353	 3.54965789	 -34.99109898
No	 2.02753485	 -3.92215679	 -40.99741304
No	 1.84567207	 -1.84515820	 -39.28189482
No	 1.66380930	 0.23184039	 -37.56637660
No	 1.48194652	 2.30883899	 -35.85085837
No	 1.30008374	 4.38583758	 -34.13534015
No	 -0.21103216	 -5.16297569	 -41.85717243
No	 -0.39289493	 -3.08597710	 -40.14165421
No	 -0.57475771	 -1.00897851	 -38.42613599
No	 -0.75662049	 1.06802009	 -36.71061776
No	 -0.93848327	 3.14501868	 -34.99509954
No	 -1.12034604	 5.22201727	 -33.27958132
No	 -2.44959916	 -6.40379459	 -42.71693182
No	 -2.63146194	 -4.32679600	 -41.00141360
No	 -2.81332472	 -2.24979741	 -39.28589538
No	 -2.99518750	 -0.17279882	 -37.57037715
No	 -3.17705027	 1.90419978	 -35.85485893
No	 -3.35891305	 3.98119837	 -34.13934071
No	 -3.54077583	 6.05819696	 -32.42382248
No	 -4.68816617	 -7.64461350	 -43.57669121
No	 -4.87002895	 -5.56761490	 -41.86117299
No	 -5.05189173	 -3.49061631	 -40.14565477
No	 -5.23375450	 -1.41361772	 -38.43013654
No	 -5.41561728	 0.66338088	 -36.71461832
No	 -5.59748006	 2.74037947	 -34.99910010
No	 -5.77934284	 4.81737806	 -33.28358187
No	 -5.96120561	 6.89437665	 -31.56806365
No	 -6.92673318	 -8.88543240	 -44.43645060
No	 -7.10859596	 -6.80843380	 -42.72093238
No	 -7.29045873	 -4.73143521	 -41.00541416
No	 -7.47232151	 -2.65443662	 -39.28989593
No	 -7.65418429	 -0.57743803	 -37.57437771
No	 -7.83604707	 1.49956057	 -35.85885949
No	 -8.01790984	 3.57655916	 -34.14334126
No	 -8.19977262	 5.65355775	 -32.42782304
No	 -8.38163540	 7.73055635	 -30.71230482
No	 -7.81581398	 10.23208361	 -31.55622867
No	 -7.06812979	 10.65661228	 -34.11567075
No	 -5.39538420	 9.39590392	 -32.41198750
No	 -6.32044560	 11.08114095	 -36.67511283
No	 -4.64770001	 9.82043259	 -34.97142958
No	 -2.97495441	 8.55972423	 -33.26774634
No	 -5.57276141	 11.50566962	 -39.23455491
No	 -3.90001582	 10.24496126	 -37.53087166
No	 -2.22727022	 8.98425290	 -35.82718842
No	 -0.55452463	 7.72354454	 -34.12350517
No	 -4.82507722	 11.93019830	 -41.79399699
No	 -3.15233163	 10.66948993	 -40.09031374
No	 -1.47958603	 9.40878157	 -38.38663050
No	 0.19315956	 8.14807321	 -36.68294725
No	 1.86590515	 6.88736484	 -34.97926401
No	 -4.07739303	 12.35472697	 -44.35343907
No	 -2.40464744	 11.09401860	 -42.64975582
No	 -0.73190184	 9.83331024	 -40.94607258
No	 0.94084375	 8.57260188	 -39.24238933
No	 2.61358934	 7.31189352	 -37.53870609
No	 4.28633494	 6.05118515	 -35.83502284
No	 -3.32970884	 12.77925564	 -46.91288115
No	 -1.65696325	 11.51854728	 -45.20919790
No	 0.01578235	 10.25783891	 -43.50551466
No	 1.68852794	 8.99713055	 -41.80183141
No	 3.36127354	 7.73642219	 -40.09814817
No	 5.03401913	 6.47571382	 -38.39446492
No	 6.70676472	 5.21500546	 -36.69078167
No	 -2.58202465	 13.20378431	 -49.47232323
No	 -0.90927906	 11.94307595	 -47.76863998
No	 0.76346654	 10.68236758	 -46.06495674
No	 2.43621213	 9.42165922	 -44.36127349
No	 4.10895773	 8.16095086	 -42.65759024
No	 5.78170332	 6.90024250	 -40.95390700
No	 7.45444891	 5.63953413	 -39.25022375
No	 9.12719451	 4.37882577	 -37.54654051
No	 -1.83434046	 13.62831298	 -52.03176531
No	 -0.16159487	 12.36760462	 -50.32808206
No	 1.51115073	 11.10689626	 -48.62439882
No	 3.18389632	 9.84618789	 -46.92071557
No	 4.85664192	 8.58547953	 -45.21703232
No	 6.52938751	 7.32477117	 -43.51334908
No	 8.20213310	 6.06406280	 -41.80966583
No	 9.87487870	 4.80335444	 -40.10598259
No	 11.54762429	 3.54264608	 -38.40229934
No	 -6.36091177	 -6.38390513	 -45.28037446
No	 -6.54277454	 -4.30690654	 -43.56485624
No	 -5.79509035	 -3.88237787	 -46.12429832
No	 -4.12234476	 -5.14308623	 -44.42061507
No	 -6.72463732	 -2.22990795	 -41.84933801
No	 -5.97695313	 -1.80537928	 -44.40878009
No	 -4.30420754	 -3.06608764	 -42.70509685
No	 -5.22926894	 -1.38085060	 -46.96822217
No	 -3.55652334	 -2.64155897	 -45.26453893
No	 -1.88377775	 -3.90226733	 -43.56085568
No	 -6.90650010	 -0.15290935	 -40.13381979
No	 -6.15881591	 0.27161932	 -42.69326187
No	 -4.48607031	 -0.98908905	 -40.98957862
No	 -5.41113172	 0.69614799	 -45.25270395
No	 -3.73838612	 -0.56456037	 -43.54902070
No	 -2.06564053	 -1.82526874	 -41.84533746
No	 -4.66344753	 1.12067666	 -47.81214603
No	 -2.99070193	 -0.14003170	 -46.10846278
No	 -1.31795634	 -1.40074007	 -44.40477954
No	 0.35478926	 -2.66144843	 -42.70109629
No	 -7.08836287	 1.92408924	 -38.41830157
No	 -6.34067868	 2.34861791	 -40.97774364
No	 -4.66793309	 1.08790955	 -39.27406040
No	 -5.59299449	 2.77314658	 -43.53718572
No	 -3.92024890	 1.51243822	 -41.83350248
No	 -2.24750331	 0.25172986	 -40.12981923
No	 -4.84531030	 3.19767525	 -46.09662780
No	 -3.17256471	 1.93696689	 -44.39294456
No	 -1.49981911	 0.67625853	 -42.68926131
No	 0.17292648	 -0.58444984	 -40.98557807
No	 -4.09762611	 3.62220392	 -48.65606988
No	 -2.42488052	 2.36149556	 -46.95238664
No	 -0.75213492	 1.10078720	 -45.24870339
No	 0.92061067	 -0.15992116	 -43.54502015
No	 2.59335626	 -1.42062953	 -41.84133690
No	 -7.27022565	 4.00108783	 -36.70278334
No	 -6.52254146	 4.42561650	 -39.26222542
No	 -4.84979587	 3.16490814	 -37.55854218
No	 -5.77485727	 4.85014517	 -41.82166750
No	 -4.10211168	 3.58943681	 -40.11798426
No	 -2.42936608	 2.32872845	 -38.41430101
No	 -5.02717308	 5.27467385	 -44.38110958
No	 -3.35442749	 4.01396548	 -42.67742633
No	 -1.68168189	 2.75325712	 -40.97374309
No	 -0.00893630	 1.49254876	 -39.27005984
No	 -4.27948889	 5.69920252	 -46.94055166
No	 -2.60674330	 4.43849415	 -45.23686841
No	 -0.93399770	 3.17778579	 -43.53318517
No	 0.73874789	 1.91707743	 -41.82950192
No	 2.41149349	 0.65636907	 -40.12581868
No	 -3.53180470	 6.12373119	 -49.49999374
No	 -1.85905911	 4.86302283	 -47.79631049
No	 -0.18631351	 3.60231446	 -46.09262725
No	 1.48643208	 2.34160610	 -44.38894400
No	 3.15917768	 1.08089774	 -42.68526076
No	 4.83192327	 -0.17981063	 -40.98157751
No	 -7.45208843	 6.07808642	 -34.98726512
No	 -6.70440424	 6.50261510	 -37.54670720
No	 -5.03165864	 5.24190673	 -35.84302395
No	 -5.95672005	 6.92714377	 -40.10614928
No	 -4.28397445	 5.66643540	 -38.40246603
No	 -2.61122886	 4.40572704	 -36.69878279
No	 -5.20903586	 7.35167244	 -42.66559136
No	 -3.53629026	 6.09096408	 -40.96190811
No	 -1.86354467	 4.83025571	 -39.25822487
No	 -0.19079908	 3.56954735	 -37.55454162
No	 -4.46135167	 7.77620111	 -45.22503344
No	 -2.78860607	 6.51549275	 -43.52135019
No	 -1.11586048	 5.25478438	 -41.81766694
No	 0.55688511	 3.99407602	 -40.11398370
No	 2.22963071	 2.73336766	 -38.41030045
No	 -3.71366748	 8.20072978	 -47.78447552
No	 -2.04092188	 6.94002142	 -46.08079227
No	 -0.36817629	 5.67931306	 -44.37710902
No	 1.30456931	 4.41860469	 -42.67342578
No	 2.97731490	 3.15789633	 -40.96974253
No	 4.65006049	 1.89718797	 -39.26605929
No	 -2.96598329	 8.62525845	 -50.34391760
No	 -1.29323769	 7.36455009	 -48.64023435
No	 0.37950790	 6.10384173	 -46.93655110
No	 2.05225350	 4.84313336	 -45.23286786
No	 3.72499909	 3.58242500	 -43.52918461
No	 5.39774468	 2.32171664	 -41.82550137
No	 7.07049028	 1.06100828	 -40.12181812
No	 -7.63395121	 8.15508502	 -33.27174689
No	 -6.88626702	 8.57961369	 -35.83118897
No	 -5.21352142	 7.31890533	 -34.12750573
No	 -6.13858283	 9.00414236	 -38.39063105
No	 -4.46583723	 7.74343400	 -36.68694781
No	 -2.79309164	 6.48272563	 -34.98326456
No	 -5.39089863	 9.42867103	 -40.95007313
No	 -3.71815304	 8.16796267	 -39.24638989
No	 -2.04540745	 6.90725431	 -37.54270664
No	 -0.37266185	 5.64654594	 -35.83902340
No	 -4.64321444	 9.85319970	 -43.50951521
No	 -2.97046885	 8.59249134	 -41.80583197
No	 -1.29772326	 7.33178298	 -40.10214872
No	 0.37502234	 6.07107461	 -38.39846548
No	 2.04776793	 4.81036625	 -36.69478223
No	 -3.89553025	 10.27772837	 -46.06895729
No	 -2.22278466	 9.01702001	 -44.36527405
No	 -0.55003907	 7.75631165	 -42.66159080
No	 1.12270653	 6.49560329	 -40.95790756
No	 2.79545212	 5.23489492	 -39.25422431
No	 4.46819772	 3.97418656	 -37.55054106
No	 -3.14784606	 10.70225705	 -48.62839937
No	 -1.47510047	 9.44154868	 -46.92471613
No	 0.19764512	 8.18084032	 -45.22103288
No	 1.87039072	 6.92013196	 -43.51734963
No	 3.54313631	 5.65942359	 -41.81366639
No	 5.21588191	 4.39871523	 -40.10998314
No	 6.88862750	 3.13800687	 -38.40629990
No	 -2.40016187	 11.12678572	 -51.18784145
No	 -0.72741628	 9.86607735	 -49.48415821
No	 0.94532932	 8.60536899	 -47.78047496
No	 2.61807491	 7.34466063	 -46.07679171
No	 4.29082050	 6.08395227	 -44.37310847
No	 5.96356610	 4.82324390	 -42.66942522
No	 7.63631169	 3.56253554	 -40.96574198
No	 9.30905729	 2.30182718	 -39.26205873
Au	 -0.12497527	 -15.38938817	 -18.84319664
Au	 -8.17812267	 -12.49289883	 -44.45095262
No	 -1.11215279	 -13.02274065	 -19.68845401
Au	 1.30827700	 -13.85892034	 -20.54421285
Au	 -7.37280793	 -12.78254776	 -41.89017702
No	 -2.09933030	 -10.65609312	 -20.53371139
Au	 2.74152927	 -12.32845250	 -22.24522905
Au	 -6.56749319	 -13.07219670	 -39.32940142
No	 -3.08650782	 -8.28944559	 -21.37896876
Au	 4.17478153	 -10.79798467	 -23.94624526
Au	 -5.76217845	 -13.36184563	 -36.76862582
No	 -4.07368534	 -5.92279806	 -22.22422614
Au	 5.60803380	 -9.26751683	 -25.64726147
Au	 -4.95686371	 -13.65149456	 -34.20785023
No	 -5.06086285	 -3.55615054	 -23.06948351
Au	 7.04128607	 -7.73704899	 -27.34827768
Au	 -4.15154897	 -13.94114350	 -31.64707463
No	 -6.04804037	 -1.18950301	 -23.91474088
Au	 8.47453833	 -6.20658116	 -29.04929389
Au	 -3.34623423	 -14.23079243	 -29.08629903
No	 -7.03521789	 1.17714452	 -24.75999826
Au	 9.90779060	 -4.67611332	 -30.75031010
Au	 -2.54091949	 -14.52044137	 -26.52552343
No	 -8.02239541	 3.54379205	 -25.60525563
Au	 11.34104287	 -3.14564548	 -32.45132630
Au	 -1.73560475	 -14.81009030	 -23.96474783
No	 -9.00957292	 5.91043958	 -26.45051301
Au	 12.77429514	 -1.61517765	 -34.15234251
Au	 -0.93029001	 -15.09973924	 -21.40397224
No	 -9.99675044	 8.27708710	 -27.29577038
Au	 14.20754740	 -0.08470981	 -35.85335872
No	 -9.81488766	 6.20008851	 -29.01128861
No	 -9.63302489	 4.12308992	 -30.72680683
No	 -8.82771015	 3.83344098	 -28.16603123
No	 -9.45116211	 2.04609132	 -32.44232505
No	 -8.64584737	 1.75644239	 -29.88154946
No	 -7.84053263	 1.46679345	 -27.32077386
No	 -9.26929933	 -0.03090727	 -34.15784328
No	 -8.46398459	 -0.32055620	 -31.59706768
No	 -7.65866985	 -0.61020514	 -29.03629208
No	 -6.85335511	 -0.89985407	 -26.47551648
No	 -9.08743655	 -2.10790586	 -35.87336150
No	 -8.28212181	 -2.39755480	 -33.31258590
No	 -7.47680707	 -2.68720373	 -30.75181030
No	 -6.67149233	 -2.97685267	 -28.19103471
No	 -5.86617759	 -3.26650160	 -25.63025911
No	 -8.90557378	 -4.18490445	 -37.58887972
No	 -8.10025904	 -4.47455339	 -35.02810413
No	 -7.29494430	 -4.76420232	 -32.46732853
No	 -6.48962956	 -5.05385126	 -29.90655293
No	 -5.68431482	 -5.34350019	 -27.34577733
No	 -4.87900008	 -5.63314913	 -24.78500173
No	 -8.72371100	 -6.26190305	 -39.30439795
No	 -7.91839626	 -6.55155198	 -36.74362235
No	 -7.11308152	 -6.84120092	 -34.18284675
No	 -6.30776678	 -7.13084985	 -31.62207115
No	 -5.50245204	 -7.42049879	 -29.06129556
No	 -4.69713730	 -7.71014772	 -26.50051996
No	 -3.89182256	 -7.99979666	 -23.93974436
No	 -8.54184822	 -8.33890164	 -41.01991617
No	 -7.73653348	 -8.62855057	 -38.45914057
No	 -6.93121874	 -8.91819951	 -35.89836498
No	 -6.12590400	 -9.20784844	 -33.33758938
No	 -5.32058926	 -9.49749738	 -30.77681378
No	 -4.51527452	 -9.78714631	 -28.21603818
No	 -3.70995978	 -10.07679525	 -25.65526258
No	 -2.90464504	 -10.36644418	 -23.09448698
No	 -8.35998545	 -10.41590023	 -42.73543440
No	 -7.55467071	 -10.70554917	 -40.17465880
No	 -6.74935597	 -10.99519810	 -37.61388320
No	 -5.94404123	 -11.28484704	 -35.05310760
No	 -5.13872649	 -11.57449597	 -32.49233200
No	 -4.33341175	 -11.86414491	 -29.93155640
No	 -3.52809701	 -12.15379384	 -27.37078081
No	 -2.72278227	 -12.44344278	 -24.81000521
No	 -1.91746753	 -12.73309171	 -22.24922961
No	 0.50296226	 -13.56927140	 -23.10498844
No	 -0.30235248	 -13.27962247	 -25.66576404
No	 1.93621453	 -12.03880357	 -24.80600465
No	 -1.10766722	 -12.98997353	 -28.22653964
No	 1.13089979	 -11.74915463	 -27.36678025
No	 3.36946679	 -10.50833573	 -26.50702086
No	 -1.91298196	 -12.70032460	 -30.78731524
No	 0.32558505	 -11.45950570	 -29.92755585
No	 2.56415205	 -10.21868680	 -29.06779646
No	 4.80271906	 -8.97786789	 -28.20803707
No	 -2.71829670	 -12.41067566	 -33.34809084
No	 -0.47972969	 -11.16985676	 -32.48833145
No	 1.75883731	 -9.92903786	 -31.62857206
No	 3.99740432	 -8.68821896	 -30.76881267
No	 6.23597133	 -7.44740006	 -29.90905328
No	 -3.52361144	 -12.12102673	 -35.90886644
No	 -1.28504443	 -10.88020783	 -35.04910705
No	 0.95352257	 -9.63938893	 -34.18934766
No	 3.19208958	 -8.39857002	 -33.32958827
No	 5.43065659	 -7.15775112	 -32.46982888
No	 7.66922359	 -5.91693222	 -31.61006949
No	 -4.32892618	 -11.83137779	 -38.46964203
No	 -2.09035917	 -10.59055889	 -37.60988264
No	 0.14820783	 -9.34973999	 -36.75012325
No	 2.38677484	 -8.10892109	 -35.89036386
No	 4.62534185	 -6.86810219	 -35.03060447
No	 6.86390885	 -5.62728329	 -34.17084508
No	 9.10247586	 -4.38646439	 -33.31108569
No	 -5.13424092	 -11.54172886	 -41.03041763
No	 -2.89567391	 -10.30090996	 -40.17065824
No	 -0.65710691	 -9.06009106	 -39.31089885
No	 1.58146010	 -7.81927216	 -38.45113946
No	 3.82002711	 -6.57845325	 -37.59138007
No	 6.05859411	 -5.33763435	 -36.73162068
No	 8.29716112	 -4.09681545	 -35.87186129
No	 10.53572813	 -2.85599655	 -35.01210190
No	 -5.93955566	 -11.25207992	 -43.59119323
No	 -3.70098865	 -10.01126102	 -42.73143384
No	 -1.46242165	 -8.77044212	 -41.87167445
No	 0.77614536	 -7.52962322	 -41.01191506
No	 3.01471237	 -6.28880432	 -40.15215567
No	 5.25327937	 -5.04798542	 -39.29239628
No	 7.49184638	 -3.80716652	 -38.43263689
No	 9.73041339	 -2.56634761	 -37.57287750
No	 11.96898040	 -1.32552871	 -36.71311811
No	 -7.57632066	 7.44090741	 -28.15152922
No	 -6.58914314	 5.07425988	 -27.30627184
No	 -5.15589087	 6.60472772	 -29.00728805
No	 -5.60196562	 2.70761236	 -26.46101447
No	 -4.16871336	 4.23808019	 -28.16203068
No	 -2.73546109	 5.76854803	 -29.86304688
No	 -4.61478811	 0.34096483	 -25.61575709
No	 -3.18153584	 1.87143266	 -27.31677330
No	 -1.74828357	 3.40190050	 -29.01778951
No	 -0.31503130	 4.93236834	 -30.71880572
No	 -3.62761059	 -2.02568270	 -24.77049972
No	 -2.19435832	 -0.49521486	 -26.47151593
No	 -0.76110605	 1.03525297	 -28.17253214
No	 0.67214621	 2.56572081	 -29.87354834
No	 2.10539848	 4.09618865	 -31.57456455
No	 -2.64043307	 -4.39233023	 -23.92524234
No	 -1.20718080	 -2.86186239	 -25.62625855
No	 0.22607146	 -1.33139455	 -27.32727476
No	 1.65932373	 0.19907328	 -29.02829097
No	 3.09257600	 1.72954112	 -30.72930718
No	 4.52582827	 3.26000895	 -32.43032339
No	 -1.65325555	 -6.75897775	 -23.07998497
No	 -0.22000329	 -5.22850992	 -24.78100118
No	 1.21324898	 -3.69804208	 -26.48201739
No	 2.64650125	 -2.16757425	 -28.18303359
No	 4.07975352	 -0.63710641	 -29.88404980
No	 5.51300578	 0.89336143	 -31.58506601
No	 6.94625805	 2.42382926	 -33.28608222
No	 -0.66607804	 -9.12562528	 -22.23472760
No	 0.76717423	 -7.59515745	 -23.93574380
No	 2.20042650	 -6.06468961	 -25.63676001
No	 3.63367877	 -4.53422177	 -27.33777622
No	 5.06693103	 -3.00375394	 -29.03879243
No	 6.50018330	 -1.47328610	 -30.73980864
No	 7.93343557	 0.05718173	 -32.44082485
No	 9.36668783	 1.58764957	 -34.14184105
No	 0.32109948	 -11.49227281	 -21.38947022
No	 1.75435175	 -9.96180497	 -23.09048643
No	 3.18760402	 -8.43133714	 -24.79150264
No	 4.62085628	 -6.90086930	 -26.49251885
No	 6.05410855	 -5.37040147	 -28.19353505
No	 7.48736082	 -3.83993363	 -29.89455126
No	 8.92061308	 -2.30946579	 -31.59556747
No	 10.35386535	 -0.77899796	 -33.29658368
No	 11.78711762	 0.75146988	 -34.99759989
No	 -6.12141844	 -9.17508133	 -41.87567501
No	 -6.30328122	 -7.09808274	 -40.16015678
No	 -5.31610370	 -9.46473027	 -39.31489941
No	 -3.88285143	 -7.93426243	 -41.01591562
No	 -6.48514399	 -5.02108415	 -38.44463856
No	 -5.49796648	 -7.38773167	 -37.59938118
No	 -4.06471421	 -5.85726384	 -39.30039739
No	 -4.51078896	 -9.75437920	 -36.75412381
No	 -3.07753669	 -8.22391137	 -38.45514002
No	 -1.64428442	 -6.69344353	 -40.15615623
No	 -6.66700677	 -2.94408555	 -36.72912034
No	 -5.67982925	 -5.31073308	 -35.88386296
No	 -4.24657699	 -3.78026524	 -37.58487917
No	 -4.69265174	 -7.67738061	 -35.03860559
No	 -3.25939947	 -6.14691277	 -36.73962179
No	 -1.82614720	 -4.61644494	 -38.44063800
No	 -3.70547422	 -10.04402814	 -34.19334821
No	 -2.27222195	 -8.51356030	 -35.89436442
No	 -0.83896968	 -6.98309246	 -37.59538063
No	 0.59428258	 -5.45262463	 -39.29639684
No	 -6.84886955	 -0.86708696	 -35.01360211
No	 -5.86169203	 -3.23373449	 -34.16834474
No	 -4.42843976	 -1.70326665	 -35.86936095
No	 -4.87451451	 -5.60038202	 -33.32308736
No	 -3.44126225	 -4.06991418	 -35.02410357
No	 -2.00800998	 -2.53944634	 -36.72511978
No	 -3.88733700	 -7.96702954	 -32.47782999
No	 -2.45408473	 -6.43656171	 -34.17884620
No	 -1.02083246	 -4.90609387	 -35.87986240
No	 0.41241981	 -3.37562603	 -37.58087861
No	 -2.90015948	 -10.33367707	 -31.63257261
No	 -1.46690721	 -8.80320923	 -33.33358882
No	 -0.03365494	 -7.27274140	 -35.03460503
No	 1.39959732	 -5.74227356	 -36.73562124
No	 2.83284959	 -4.21180573	 -38.43663745
No	 -7.03073233	 1.20991163	 -33.29808389
No	 -6.04355481	 -1.15673590	 -32.45282651
No	 -4.61030254	 0.37373194	 -34.15384272
No	 -5.05637729	 -3.52338342	 -31.60756914
No	 -3.62312502	 -1.99291559	 -33.30858535
No	 -2.18987276	 -0.46244775	 -35.00960156
No	 -4.06919977	 -5.89003095	 -30.76231176
No	 -2.63594751	 -4.35956311	 -32.46332797
No	 -1.20269524	 -2.82909528	 -34.16434418
No	 0.23055703	 -1.29862744	 -35.86536039
No	 -3.08202226	 -8.25667848	 -29.91705439
No	 -1.64876999	 -6.72621064	 -31.61807060
No	 -0.21551772	 -5.19574281	 -33.31908681
No	 1.21773455	 -3.66527497	 -35.02010301
No	 2.65098681	 -2.13480713	 -36.72111922
No	 -2.09484474	 -10.62332601	 -29.07179702
No	 -0.66159247	 -9.09285817	 -30.77281322
No	 0.77165980	 -7.56239033	 -32.47382943
No	 2.20491206	 -6.03192250	 -34.17484564
No	 3.63816433	 -4.50145466	 -35.87586185
No	 5.07141660	 -2.97098682	 -37.57687806
No	 -7.21259510	 3.28691023	 -31.58256566
No	 -6.22541759	 0.92026270	 -30.73730829
No	 -4.79216532	 2.45073053	 -32.43832450
No	 -5.23824007	 -1.44638483	 -29.89205092
No	 -3.80498780	 0.08408301	 -31.59306712
No	 -2.37173553	 1.61455084	 -33.29408333
No	 -4.25106255	 -3.81303236	 -29.04679354
No	 -2.81781028	 -2.28256452	 -30.74780975
No	 -1.38455802	 -0.75209669	 -32.44882596
No	 0.04869425	 0.77837115	 -34.14984217
No	 -3.26388503	 -6.17967989	 -28.20153617
No	 -1.83063277	 -4.64921205	 -29.90255237
No	 -0.39738050	 -3.11874421	 -31.60356858
No	 1.03587177	 -1.58827638	 -33.30458479
No	 2.46912404	 -0.05780854	 -35.00560100
No	 -2.27670752	 -8.54632741	 -27.35627879
No	 -0.84345525	 -7.01585958	 -29.05729500
No	 0.58979702	 -5.48539174	 -30.75831121
No	 2.02304929	 -3.95492390	 -32.45932742
No	 3.45630155	 -2.42445607	 -34.16034363
No	 4.88955382	 -0.89398823	 -35.86135983
No	 -1.28953000	 -10.91297494	 -26.51102142
No	 0.14372227	 -9.38250710	 -28.21203763
No	 1.57697454	 -7.85203927	 -29.91305383
No	 3.01022680	 -6.32157143	 -31.61407004
No	 4.44347907	 -4.79110360	 -33.31508625
No	 5.87673134	 -3.26063576	 -35.01610246
No	 7.30998360	 -1.73016792	 -36.71711867
No	 -7.39445788	 5.36390882	 -29.86704744
No	 -6.40728036	 2.99726129	 -29.02179007
No	 -4.97402810	 4.52772913	 -30.72280627
No	 -5.42010285	 0.63061376	 -28.17653269
No	 -3.98685058	 2.16108160	 -29.87754890
No	 -2.55359831	 3.69154944	 -31.57856511
No	 -4.43292533	 -1.73603376	 -27.33127532
No	 -2.99967306	 -0.20556593	 -29.03229153
No	 -1.56642079	 1.32490191	 -30.73330773
No	 -0.13316853	 2.85536974	 -32.43432394
No	 -3.44574781	 -4.10268129	 -26.48601794
No	 -2.01249554	 -2.57221346	 -28.18703415
No	 -0.57924328	 -1.04174562	 -29.88805036
No	 0.85400899	 0.48872222	 -31.58906657
No	 2.28726126	 2.01919005	 -33.29008278
No	 -2.45857029	 -6.46932882	 -25.64076057
No	 -1.02531803	 -4.93886098	 -27.34177678
No	 0.40793424	 -3.40839315	 -29.04279298
No	 1.84118651	 -1.87792531	 -30.74380919
No	 3.27443878	 -0.34745748	 -32.44482540
No	 4.70769104	 1.18301036	 -34.14584161
No	 -1.47139278	 -8.83597635	 -24.79550319
No	 -0.03814051	 -7.30550851	 -26.49651940
No	 1.39511176	 -5.77504068	 -28.19753561
No	 2.82836403	 -4.24457284	 -29.89855182
No	 4.26161629	 -2.71410500	 -31.59956803
No	 5.69486856	 -1.18363717	 -33.30058424
No	 7.12812083	 0.34683067	 -35.00160044
No	 -0.48421526	 -11.20262388	 -23.95024582
No	 0.94903701	 -9.67215604	 -25.65126203
No	 2.38228928	 -8.14168820	 -27.35227824
No	 3.81554154	 -6.61122037	 -29.05329444
No	 5.24879381	 -5.08075253	 -30.75431065
No	 6.68204608	 -3.55028469	 -32.45532686
No	 8.11529834	 -2.01981686	 -34.15634307
No	 9.54855061	 -0.48934902	 -35.85735928
Au	 12.00470170	 10.00331954	 -9.34733800
No	 10.90200380	 7.69489157	 -10.21059788
Au	 9.91482628	 10.06153910	 -11.05585525
Au	 12.33525606	 9.22535941	 -11.91161408
No	 9.79930589	 5.38646360	 -11.07385775
Au	 7.82495086	 10.11975865	 -12.76437250
Au	 12.66581043	 8.44739927	 -14.47589017
No	 8.69660798	 3.07803562	 -11.93711763
Au	 5.73507543	 10.17797820	 -14.47288975
Au	 12.99636479	 7.66943913	 -17.04016625
No	 7.59391008	 0.76960765	 -12.80037750
Au	 3.64520001	 10.23619776	 -16.18140700
Au	 13.32691915	 6.89147899	 -19.60444234
No	 6.49121217	 -1.53882033	 -13.66363738
Au	 1.55532458	 10.29441731	 -17.88992425
Au	 13.65747351	 6.11351885	 -22.16871842
No	 5.38851426	 -3.84724830	 -14.52689726
Au	 -0.53455084	 10.35263686	 -19.59844150
Au	 13.98802787	 5.33555872	 -24.73299451
No	 4.28581636	 -6.15567628	 -15.39015713
Au	 -2.62442626	 10.41085642	 -21.30695875
Au	 14.31858223	 4.55759858	 -27.29727059
No	 3.18311845	 -8.46410425	 -16.25341701
Au	 -4.71430169	 10.46907597	 -23.01547601
Au	 14.64913659	 3.77963844	 -29.86154668
No	 2.08042055	 -10.77253222	 -17.11667689
Au	 -6.80417711	 10.52729552	 -24.72399326
Au	 14.97969095	 3.00167830	 -32.42582276
No	 0.97772264	 -13.08096020	 -17.97993676
Au	 -8.89405254	 10.58551508	 -26.43251051
Au	 15.31024531	 2.22371816	 -34.99009885
No	 -7.90687502	 8.21886755	 -25.58725313
No	 -5.81699959	 8.16064800	 -23.87873588
No	 -6.91969750	 5.85222002	 -24.74199576
No	 -3.72712417	 8.10242844	 -22.17021863
No	 -4.82982208	 5.79400047	 -23.03347851
No	 -5.93251998	 3.48557249	 -23.89673838
No	 -1.63724875	 8.04420889	 -20.46170138
No	 -2.73994665	 5.73578092	 -21.32496126
No	 -3.84264456	 3.42735294	 -22.18822113
No	 -4.94534247	 1.11892497	 -23.05148101
No	 0.45262668	 7.98598934	 -18.75318413
No	 -0.65007123	 5.67756136	 -19.61644401
No	 -1.75276914	 3.36913339	 -20.47970388
No	 -2.85546704	 1.06070541	 -21.34296376
No	 -3.95816495	 -1.24772256	 -22.20622363
No	 2.54250210	 7.92776978	 -17.04466688
No	 1.43980420	 5.61934181	 -17.90792675
No	 0.33710629	 3.31091383	 -18.77118663
No	 -0.76559162	 1.00248586	 -19.63444651
No	 -1.86828952	 -1.30594211	 -20.49770638
No	 -2.97098743	 -3.61437009	 -21.36096626
No	 4.63237753	 7.86955023	 -15.33614963
No	 3.52967962	 5.56112226	 -16.19940950
No	 2.42698171	 3.25269428	 -17.06266938
No	 1.32428381	 0.94426631	 -17.92592926
No	 0.22158590	 -1.36416167	 -18.78918913
No	 -0.88111201	 -3.67258964	 -19.65244901
No	 -1.98380991	 -5.98101762	 -20.51570889
No	 6.72225295	 7.81133068	 -13.62763238
No	 5.61955504	 5.50290270	 -14.49089225
No	 4.51685714	 3.19447473	 -15.35415213
No	 3.41415923	 0.88604675	 -16.21741201
No	 2.31146132	 -1.42238122	 -17.08067188
No	 1.20876342	 -3.73080920	 -17.94393176
No	 0.10606551	 -6.03923717	 -18.80719163
No	 -0.99663240	 -8.34766514	 -19.67045151
No	 8.81212837	 7.75311112	 -11.91911513
No	 7.70943047	 5.44468315	 -12.78237500
No	 6.60673256	 3.13625517	 -13.64563488
No	 5.50403465	 0.82782720	 -14.50889476
No	 4.40133675	 -1.48060077	 -15.37215463
No	 3.29863884	 -3.78902875	 -16.23541451
No	 2.19594093	 -6.09745672	 -17.09867438
No	 1.09324303	 -8.40588470	 -17.96193426
No	 -0.00945488	 -10.71431267	 -18.82519414
No	 2.41097491	 -11.55049236	 -19.68095297
No	 3.51367281	 -9.24206439	 -18.81769309
No	 3.84422717	 -10.02002453	 -21.38196918
No	 4.61637072	 -6.93363641	 -17.95443322
No	 4.94692508	 -7.71159655	 -20.51870930
No	 5.27747944	 -8.48955669	 -23.08298539
No	 5.71906863	 -4.62520844	 -17.09117334
No	 6.04962299	 -5.40316858	 -19.65544943
No	 6.38017735	 -6.18112872	 -22.21972551
No	 6.71073171	 -6.95908885	 -24.78400160
No	 6.82176653	 -2.31678047	 -16.22791347
No	 7.15232089	 -3.09474060	 -18.79218955
No	 7.48287525	 -3.87270074	 -21.35646563
No	 7.81342961	 -4.65066088	 -23.92074172
No	 8.14398397	 -5.42862102	 -26.48501780
No	 7.92446444	 -0.00835249	 -15.36465359
No	 8.25501880	 -0.78631263	 -17.92892967
No	 8.58557316	 -1.56427277	 -20.49320576
No	 8.91612752	 -2.34223291	 -23.05748184
No	 9.24668188	 -3.12019304	 -25.62175793
No	 9.57723624	 -3.89815318	 -28.18603401
No	 9.02716235	 2.30007548	 -14.50139371
No	 9.35771671	 1.52211535	 -17.06566980
No	 9.68827107	 0.74415521	 -19.62994588
No	 10.01882543	 -0.03380493	 -22.19422197
No	 10.34937979	 -0.81176507	 -24.75849805
No	 10.67993415	 -1.58972521	 -27.32277414
No	 11.01048851	 -2.36768535	 -29.88705022
No	 10.12986025	 4.60850346	 -13.63813384
No	 10.46041461	 3.83054332	 -16.20240992
No	 10.79096897	 3.05258318	 -18.76668601
No	 11.12152333	 2.27462304	 -21.33096209
No	 11.45207769	 1.49666290	 -23.89523817
No	 11.78263205	 0.71870277	 -26.45951426
No	 12.11318642	 -0.05925737	 -29.02379034
No	 12.44374078	 -0.83721751	 -31.58806643
No	 11.23255816	 6.91693143	 -12.77487396
No	 11.56311252	 6.13897129	 -15.33915004
No	 11.89366688	 5.36101116	 -17.90342613
No	 12.22422124	 4.58305102	 -20.46770221
No	 12.55477560	 3.80509088	 -23.03197830
No	 12.88532996	 3.02713074	 -25.59625438
No	 13.21588432	 2.24917060	 -28.16053047
No	 13.54643868	 1.47121046	 -30.72480655
No	 13.87699304	 0.69325033	 -33.28908264
No	 12.88981553	 3.05989785	 -34.13434001
No	 12.55926117	 3.83785799	 -31.57006393
No	 10.46938574	 3.89607755	 -33.27858118
No	 12.22870680	 4.61581813	 -29.00578784
No	 10.13883138	 4.67403768	 -30.71430509
No	 8.04895596	 4.73225724	 -32.42282234
No	 11.89815244	 5.39377827	 -26.44151176
No	 9.80827702	 5.45199782	 -28.15002901
No	 7.71840160	 5.51021737	 -29.85854626
No	 5.62852617	 5.56843693	 -31.56706351
No	 11.56759808	 6.17173841	 -23.87723567
No	 9.47772266	 6.22995796	 -25.58575292
No	 7.38784724	 6.28817751	 -27.29427017
No	 5.29797181	 6.34639707	 -29.00278743
No	 3.20809639	 6.40461662	 -30.71130468
No	 11.23704372	 6.94969854	 -21.31295959
No	 9.14716830	 7.00791810	 -23.02147684
No	 7.05729287	 7.06613765	 -24.72999409
No	 4.96741745	 7.12435720	 -26.43851134
No	 2.87754203	 7.18257676	 -28.14702859
No	 0.78766660	 7.24079631	 -29.85554584
No	 10.90648936	 7.72765868	 -18.74868350
No	 8.81661394	 7.78587824	 -20.45720075
No	 6.72673851	 7.84409779	 -22.16571801
No	 4.63686309	 7.90231734	 -23.87423526
No	 2.54698767	 7.96053690	 -25.58275251
No	 0.45711224	 8.01875645	 -27.29126976
No	 -1.63276318	 8.07697600	 -28.99978701
No	 10.57593500	 8.50561882	 -16.18440742
No	 8.48605958	 8.56383837	 -17.89292467
No	 6.39618415	 8.62205793	 -19.60144192
No	 4.30630873	 8.68027748	 -21.30995917
No	 2.21643331	 8.73849703	 -23.01847642
No	 0.12655788	 8.79671659	 -24.72699367
No	 -1.96331754	 8.85493614	 -26.43551092
No	 -4.05319297	 8.91315569	 -28.14402817
No	 10.24538064	 9.28357896	 -13.62013133
No	 8.15550522	 9.34179851	 -15.32864859
No	 6.06562979	 9.40001807	 -17.03716584
No	 3.97575437	 9.45823762	 -18.74568309
No	 1.88587895	 9.51645717	 -20.45420034
No	 -0.20399648	 9.57467673	 -22.16271759
No	 -2.29387190	 9.63289628	 -23.87123484
No	 -4.38374733	 9.69111583	 -25.57975209
No	 -6.47362275	 9.74933539	 -27.28826934
No	 9.14268273	 6.97515099	 -14.48339121
No	 7.05280731	 7.03337054	 -16.19190846
No	 8.03998483	 4.66672301	 -15.34665109
No	 9.47323709	 6.19719085	 -17.04766730
No	 4.96293189	 7.09159009	 -17.90042571
No	 5.95010940	 4.72494256	 -17.05516834
No	 7.38336167	 6.25541040	 -18.75618455
No	 6.93728692	 2.35829504	 -16.20991096
No	 8.37053919	 3.88876287	 -17.91092717
No	 9.80379146	 5.41923071	 -19.61194338
No	 2.87305646	 7.14980965	 -19.60894296
No	 3.86023398	 4.78316212	 -18.76368559
No	 5.29348625	 6.31362995	 -20.46470180
No	 4.84741150	 2.41651459	 -17.91842821
No	 6.28066376	 3.94698243	 -19.61944442
No	 7.71391603	 5.47745026	 -21.32046063
No	 5.83458901	 0.04986706	 -17.07317084
No	 7.26784128	 1.58033490	 -18.77418705
No	 8.70109355	 3.11080273	 -20.47520326
No	 10.13434582	 4.64127057	 -22.17621946
No	 0.78318104	 7.20802920	 -21.31746021
No	 1.77035856	 4.84138167	 -20.47220284
No	 3.20361082	 6.37184951	 -22.17321905
No	 2.75753607	 2.47473414	 -19.62694546
No	 4.19078834	 4.00520198	 -21.32796167
No	 5.62404061	 5.53566982	 -23.02897788
No	 3.74471359	 0.10808662	 -18.78168809
No	 5.17796586	 1.63855445	 -20.48270430
No	 6.61121813	 3.16902229	 -22.18372051
No	 8.04447039	 4.69949012	 -23.88473672
No	 4.73189111	 -2.25856091	 -17.93643072
No	 6.16514338	 -0.72809308	 -19.63744692
No	 7.59839564	 0.80237476	 -21.33846313
No	 9.03164791	 2.33284260	 -23.03947934
No	 10.46490018	 3.86331043	 -24.74049555
No	 -1.30669439	 7.26624875	 -23.02597746
No	 -0.31951687	 4.89960122	 -22.18072009
No	 1.11373540	 6.43006906	 -23.88173630
No	 0.66766065	 2.53295370	 -21.33546272
No	 2.10091292	 4.06342153	 -23.03647892
No	 3.53416518	 5.59388937	 -24.73749513
No	 1.65483817	 0.16630617	 -20.49020534
No	 3.08809043	 1.69677400	 -22.19122155
No	 4.52134270	 3.22724184	 -23.89223776
No	 5.95459497	 4.75770968	 -25.59325397
No	 2.64201568	 -2.20034136	 -19.64494797
No	 4.07526795	 -0.66987352	 -21.34596417
No	 5.50852022	 0.86059431	 -23.04698038
No	 6.94177249	 2.39106215	 -24.74799659
No	 8.37502475	 3.92152999	 -26.44901280
No	 3.62919320	 -4.56698889	 -18.79969059
No	 5.06244547	 -3.03652105	 -20.50070680
No	 6.49569774	 -1.50605321	 -22.20172301
No	 7.92895000	 0.02441462	 -23.90273922
No	 9.36220227	 1.55488246	 -25.60375543
No	 10.79545454	 3.08535029	 -27.30477163
No	 -3.39656981	 7.32446830	 -24.73449472
No	 -2.40939229	 4.95782078	 -23.88923734
No	 -0.97614002	 6.48828861	 -25.59025355
No	 -1.42221477	 2.59117325	 -23.04397997
No	 0.01103749	 4.12164109	 -24.74499617
No	 1.44428976	 5.65210892	 -26.44601238
No	 -0.43503726	 0.22452572	 -22.19872259
No	 0.99821501	 1.75499356	 -23.89973880
No	 2.43146728	 3.28546139	 -25.60075501
No	 3.86471954	 4.81592923	 -27.30177122
No	 0.55214026	 -2.14212181	 -21.35346522
No	 1.98539253	 -0.61165397	 -23.05448143
No	 3.41864479	 0.91881387	 -24.75549763
No	 4.85189706	 2.44928170	 -26.45651384
No	 6.28514933	 3.97974954	 -28.15753005
No	 1.53931778	 -4.50876933	 -20.50820784
No	 2.97257004	 -2.97830150	 -22.20922405
No	 4.40582231	 -1.44783366	 -23.91024026
No	 5.83907458	 0.08263418	 -25.61125647
No	 7.27232685	 1.61310201	 -27.31227268
No	 8.70557911	 3.14356985	 -29.01328888
No	 2.52649529	 -6.87541686	 -19.66295047
No	 3.95974756	 -5.34494902	 -21.36396668
No	 5.39299983	 -3.81448119	 -23.06498289
No	 6.82625210	 -2.28401335	 -24.76599909
No	 8.25950436	 -0.75354552	 -26.46701530
No	 9.69275663	 0.77692232	 -28.16803151
No	 11.12600890	 2.30739016	 -29.86904772
No	 -5.48644523	 7.38268786	 -26.44301197
No	 -4.49926772	 5.01604033	 -25.59775459
No	 -3.06601545	 6.54650817	 -27.29877080
No	 -3.51209020	 2.64939280	 -24.75249722
No	 -2.07883793	 4.17986064	 -26.45351343
No	 -0.64558566	 5.71032847	 -28.15452963
No	 -2.52491268	 0.28274528	 -23.90723984
No	 -1.09166041	 1.81321311	 -25.60825605
No	 0.34159185	 3.34368095	 -27.30927226
No	 1.77484412	 4.87414878	 -29.01028847
No	 -1.53773516	 -2.08390225	 -23.06198247
No	 -0.10448290	 -0.55343442	 -24.76299868
No	 1.32876937	 0.97703342	 -26.46401488
No	 2.76202164	 2.50750126	 -28.16503109
No	 4.19527390	 4.03796909	 -29.86604730
No	 -0.55055765	 -4.45054978	 -22.21672509
No	 0.88269462	 -2.92008194	 -23.91774130
No	 2.31594689	 -1.38961411	 -25.61875751
No	 3.74919916	 0.14085373	 -27.31977372
No	 5.18245142	 1.67132156	 -29.02078993
No	 6.61570369	 3.20178940	 -30.72180614
No	 0.43661987	 -6.81719731	 -21.37146772
No	 1.86987214	 -5.28672947	 -23.07248393
No	 3.30312441	 -3.75626164	 -24.77350014
No	 4.73637667	 -2.22579380	 -26.47451634
No	 6.16962894	 -0.69532596	 -28.17553255
No	 7.60288121	 0.83514187	 -29.87654876
No	 9.03613347	 2.36560971	 -31.57756497
No	 1.42379739	 -9.18384484	 -20.52621034
No	 2.85704966	 -7.65337700	 -22.22722655
No	 4.29030192	 -6.12290916	 -23.92824276
No	 5.72355419	 -4.59244133	 -25.62925897
No	 7.15680646	 -3.06197349	 -27.33027518
No	 8.59005872	 -1.53150565	 -29.03129139
No	 10.02331099	 -0.00103782	 -30.73230759
No	 11.45656326	 1.52943002	 -32.43332380
Au	 -15.04360069	 2.05935264	 0.00000000
No	 9.54576512	 9.28114074	 -8.49758000
Au	 -1.48121394	 -13.80313901	 -17.13017876
Au	 -11.35298912	 9.86333627	 -25.58275251
No	 7.08682854	 8.55896193	 -7.64782200
Au	 -2.83745262	 -12.21688984	 -15.41716089
Au	 -11.72205027	 9.08293791	 -23.02447726
No	 4.62789196	 7.83678312	 -6.79806400
Au	 -4.19369129	 -10.63064068	 -13.70414301
Au	 -12.09111143	 8.30253954	 -20.46620201
No	 2.16895538	 7.11460431	 -5.94830600
Au	 -5.54992997	 -9.04439151	 -11.99112513
Au	 -12.46017259	 7.52214118	 -17.90792675
No	 -0.28998120	 6.39242550	 -5.09854800
Au	 -6.90616864	 -7.45814235	 -10.27810726
Au	 -12.82923374	 6.74174282	 -15.34965150
No	 -2.74891778	 5.67024669	 -4.24879000
Au	 -8.26240731	 -5.87189318	 -8.56508938
Au	 -13.19829490	 5.96134446	 -12.79137625
No	 -5.20785436	 4.94806788	 -3.39903200
Au	 -9.61864599	 -4.28564402	 -6.85207150
Au	 -13.56735606	 5.18094609	 -10.23310100
No	 -7.66679094	 4.22588907	 -2.54927400
Au	 -10.97488466	 -2.69939485	 -5.13905363
Au	 -13.93641722	 4.40054773	 -7.67482575
No	 -10.12572752	 3.50371026	 -1.69951600
Au	 -12.33112334	 -1.11314569	 -3.42603575
Au	 -14.30547837	 3.62014937	 -5.11655050
No	 -12.58466411	 2.78153145	 -0.84975800
Au	 -13.68736201	 0.47310348	 -1.71301788
Au	 -14.67453953	 2.83975101	 -2.55827525
No	 -0.37851604	 -11.49471103	 -16.26691889
No	 0.72418187	 -9.18628306	 -15.40365901
No	 -1.73475471	 -9.90846187	 -14.55390101
No	 1.82687978	 -6.87785509	 -14.54039913
No	 -0.63205680	 -7.60003389	 -13.69064113
No	 -3.09099338	 -8.32221270	 -12.84088313
No	 2.92957768	 -4.56942711	 -13.67713926
No	 0.47064110	 -5.29160592	 -12.82738126
No	 -1.98829548	 -6.01378473	 -11.97762326
No	 -4.44723206	 -6.73596354	 -11.12786526
No	 4.03227559	 -2.26099914	 -12.81387938
No	 1.57333901	 -2.98317795	 -11.96412138
No	 -0.88559757	 -3.70535675	 -11.11436338
No	 -3.34453415	 -4.42753556	 -10.26460538
No	 -5.80347073	 -5.14971437	 -9.41484738
No	 5.13497350	 0.04742884	 -11.95061950
No	 2.67603692	 -0.67474997	 -11.10086150
No	 0.21710034	 -1.39692878	 -10.25110350
No	 -2.24183625	 -2.11910759	 -9.40134550
No	 -4.70077283	 -2.84128640	 -8.55158750
No	 -7.15970941	 -3.56346521	 -7.70182950
No	 6.23767140	 2.35585681	 -11.08735963
No	 3.77873482	 1.63367800	 -10.23760163
No	 1.31979824	 0.91149919	 -9.38784363
No	 -1.13913834	 0.18932038	 -8.53808563
No	 -3.59807492	 -0.53285842	 -7.68832763
No	 -6.05701150	 -1.25503723	 -6.83856963
No	 -8.51594808	 -1.97721604	 -5.98881163
No	 7.34036931	 4.66428479	 -10.22409975
No	 4.88143273	 3.94210598	 -9.37434175
No	 2.42249615	 3.21992717	 -8.52458375
No	 -0.03644043	 2.49774836	 -7.67482575
No	 -2.49537701	 1.77556955	 -6.82506775
No	 -4.95431359	 1.05339074	 -5.97530975
No	 -7.41325018	 0.33121193	 -5.12555175
No	 -9.87218676	 -0.39096688	 -4.27579375
No	 8.44306722	 6.97271276	 -9.36083988
No	 5.98413064	 6.25053395	 -8.51108188
No	 3.52519405	 5.52835514	 -7.66132388
No	 1.06625747	 4.80617633	 -6.81156588
No	 -1.39267911	 4.08399752	 -5.96180788
No	 -3.85161569	 3.36181872	 -5.11204988
No	 -6.31055227	 2.63963991	 -4.26229188
No	 -8.76948885	 1.91746110	 -3.41253388
No	 -11.22842543	 1.19528229	 -2.56277588
No	 -12.21560295	 3.56192982	 -3.40803325
No	 -9.75666637	 4.28410862	 -4.25779125
No	 -11.84654179	 4.34232818	 -5.96630850
No	 -7.29772979	 5.00628743	 -5.10754925
No	 -9.38760521	 5.06450699	 -6.81606650
No	 -11.47748063	 5.12272654	 -8.52458375
No	 -4.83879321	 5.72846624	 -5.95730725
No	 -6.92866863	 5.78668580	 -7.66582450
No	 -9.01854405	 5.84490535	 -9.37434175
No	 -11.10841948	 5.90312490	 -11.08285900
No	 -2.37985662	 6.45064505	 -6.80706525
No	 -4.46973205	 6.50886461	 -8.51558250
No	 -6.55960747	 6.56708416	 -10.22409975
No	 -8.64948290	 6.62530371	 -11.93261700
No	 -10.73935832	 6.68352326	 -13.64113425
No	 0.07907996	 7.17282386	 -7.65682325
No	 -2.01079547	 7.23104341	 -9.36534050
No	 -4.10067089	 7.28926297	 -11.07385775
No	 -6.19054632	 7.34748252	 -12.78237500
No	 -8.28042174	 7.40570207	 -14.49089225
No	 -10.37029716	 7.46392163	 -16.19940950
No	 2.53801654	 7.89500267	 -8.50658125
No	 0.44814111	 7.95322222	 -10.21509850
No	 -1.64173431	 8.01144178	 -11.92361575
No	 -3.73160973	 8.06966133	 -13.63213300
No	 -5.82148516	 8.12788088	 -15.34065025
No	 -7.91136058	 8.18610044	 -17.04916750
No	 -10.00123601	 8.24431999	 -18.75768475
No	 4.99695312	 8.61718148	 -9.35633925
No	 2.90707769	 8.67540103	 -11.06485650
No	 0.81720227	 8.73362059	 -12.77337375
No	 -1.27267315	 8.79184014	 -14.48189100
No	 -3.36254858	 8.85005969	 -16.19040825
No	 -5.45242400	 8.90827925	 -17.89892550
No	 -7.54229943	 8.96649880	 -19.60744275
No	 -9.63217485	 9.02471835	 -21.31596001
No	 7.45588970	 9.33936029	 -10.20609725
No	 5.36601428	 9.39757984	 -11.91461450
No	 3.27613885	 9.45579940	 -13.62313175
No	 1.18626343	 9.51401895	 -15.33164900
No	 -0.90361200	 9.57223850	 -17.04016625
No	 -2.99348742	 9.63045805	 -18.74868350
No	 -5.08336284	 9.68867761	 -20.45720075
No	 -7.17323827	 9.74689716	 -22.16571801
No	 -9.26311369	 9.80511671	 -23.87423526
No	 -10.36581160	 7.49668874	 -24.73749513
No	 -9.37863408	 5.13004121	 -23.89223776
No	 -10.73487276	 6.71629038	 -22.17921988
No	 -8.39145656	 2.76339368	 -23.04698038
No	 -9.74769524	 4.34964285	 -21.33396251
No	 -11.10393391	 5.93589202	 -19.62094463
No	 -7.40427905	 0.39674616	 -22.20172301
No	 -8.76051772	 1.98299532	 -20.48870513
No	 -10.11675640	 3.56924449	 -18.77568726
No	 -11.47299507	 5.15549365	 -17.06266938
No	 -6.41710153	 -1.96990137	 -21.35646563
No	 -7.77334020	 -0.38365221	 -19.64344776
No	 -9.12957888	 1.20259696	 -17.93042988
No	 -10.48581755	 2.78884613	 -16.21741201
No	 -11.84205623	 4.37509529	 -14.50439413
No	 -5.42992401	 -4.33654890	 -20.51120826
No	 -6.78616269	 -2.75029973	 -18.79819038
No	 -8.14240136	 -1.16405057	 -17.08517251
No	 -9.49864003	 0.42219860	 -15.37215463
No	 -10.85487871	 2.00844776	 -13.65913676
No	 -12.21111738	 3.59469693	 -11.94611888
No	 -4.44274649	 -6.70319643	 -19.66595089
No	 -5.79898517	 -5.11694726	 -17.95293301
No	 -7.15522384	 -3.53069810	 -16.23991513
No	 -8.51146252	 -1.94444893	 -14.52689726
No	 -9.86770119	 -0.35819976	 -12.81387938
No	 -11.22393987	 1.22804940	 -11.10086150
No	 -12.58017854	 2.81429857	 -9.38784363
No	 -3.45556898	 -9.06984395	 -18.82069351
No	 -4.81180765	 -7.48359479	 -17.10767563
No	 -6.16804633	 -5.89734562	 -15.39465776
No	 -7.52428500	 -4.31109646	 -13.68163988
No	 -8.88052367	 -2.72484729	 -11.96862201
No	 -10.23676235	 -1.13859813	 -10.25560413
No	 -11.59300102	 0.44765104	 -8.54258625
No	 -12.94923970	 2.03390020	 -6.82956838
No	 -2.46839146	 -11.43649148	 -17.97543614
No	 -3.82463013	 -9.85024232	 -16.26241826
No	 -5.18086881	 -8.26399315	 -14.54940038
No	 -6.53710748	 -6.67774399	 -12.83638251
No	 -7.89334616	 -5.09149482	 -11.12336463
No	 -9.24958483	 -3.50524565	 -9.41034676
No	 -10.60582351	 -1.91899649	 -7.69732888
No	 -11.96206218	 -0.33274732	 -5.98431100
No	 -13.31830085	 1.25350184	 -4.27129313
No	 6.35319179	 7.03093231	 -11.06935713
No	 4.26331637	 7.08915187	 -12.77787438
No	 5.25049389	 4.72250434	 -11.93261700
No	 3.89425521	 6.30875351	 -10.21959913
No	 2.17344094	 7.14737142	 -14.48639163
No	 3.16061846	 4.78072389	 -13.64113425
No	 1.80437979	 6.36697306	 -11.92811638
No	 4.14779598	 2.41407637	 -12.79587688
No	 2.79155731	 4.00032553	 -11.08285900
No	 1.43531863	 5.58657470	 -9.36984113
No	 0.08356552	 7.20559097	 -16.19490888
No	 1.07074304	 4.83894345	 -15.34965150
No	 -0.28549564	 6.42519261	 -13.63663363
No	 2.05792056	 2.47229592	 -14.50439413
No	 0.70168188	 4.05854508	 -12.79137625
No	 -0.65455679	 5.64479425	 -11.07835838
No	 3.04509807	 0.10564839	 -13.65913676
No	 1.68885940	 1.69189756	 -11.94611888
No	 0.33262072	 3.27814672	 -10.23310100
No	 -1.02361795	 4.86439589	 -8.52008313
No	 -2.00630990	 7.26381053	 -17.90342613
No	 -1.01913239	 4.89716300	 -17.05816875
No	 -2.37537106	 6.48341216	 -15.34515088
No	 -0.03195487	 2.53051547	 -16.21291138
No	 -1.38819354	 4.11676464	 -14.49989350
No	 -2.74443222	 5.70301380	 -12.78687563
No	 0.95522265	 0.16386794	 -15.36765401
No	 -0.40101603	 1.75011711	 -13.65463613
No	 -1.75725470	 3.33636627	 -11.94161825
No	 -3.11349337	 4.92261544	 -10.22860038
No	 1.94240017	 -2.20277958	 -14.52239663
No	 0.58616149	 -0.61653042	 -12.80937876
No	 -0.77007718	 0.96971875	 -11.09636088
No	 -2.12631586	 2.55596791	 -9.38334300
No	 -3.48255453	 4.14221708	 -7.67032513
No	 -4.09618533	 7.32203008	 -19.61194338
No	 -3.10900781	 4.95538255	 -18.76668601
No	 -4.46524648	 6.54163172	 -17.05366813
No	 -2.12183029	 2.58873503	 -17.92142863
No	 -3.47806897	 4.17498419	 -16.20841075
No	 -4.83430764	 5.76123336	 -14.49539288
No	 -1.13465277	 0.22208750	 -17.07617126
No	 -2.49089145	 1.80833666	 -15.36315338
No	 -3.84713012	 3.39458583	 -13.65013550
No	 -5.20336880	 4.98083499	 -11.93711763
No	 -0.14747526	 -2.14456003	 -16.23091388
No	 -1.50371393	 -0.55831086	 -14.51789601
No	 -2.85995261	 1.02793830	 -12.80487813
No	 -4.21619128	 2.61418747	 -11.09186025
No	 -5.57242995	 4.20043663	 -9.37884238
No	 0.83970226	 -4.51120756	 -15.38565651
No	 -0.51653641	 -2.92495839	 -13.67263863
No	 -1.87277509	 -1.33870923	 -11.95962076
No	 -3.22901376	 0.24753994	 -10.24660288
No	 -4.58525244	 1.83378910	 -8.53358500
No	 -5.94149111	 3.42003827	 -6.82056713
No	 -6.18606075	 7.38024963	 -21.32046063
No	 -5.19888323	 5.01360211	 -20.47520326
No	 -6.55512191	 6.59985127	 -18.76218538
No	 -4.21170572	 2.64695458	 -19.62994588
No	 -5.56794439	 4.23320374	 -17.91692801
No	 -6.92418306	 5.81945291	 -16.20391013
No	 -3.22452820	 0.28030705	 -18.78468851
No	 -4.58076687	 1.86655622	 -17.07167063
No	 -5.93700555	 3.45280538	 -15.35865276
No	 -7.29324422	 5.03905455	 -13.64563488
No	 -2.23735068	 -2.08634048	 -17.93943113
No	 -3.59358936	 -0.50009131	 -16.22641326
No	 -4.94982803	 1.08615785	 -14.51339538
No	 -6.30606670	 2.67240702	 -12.80037750
No	 -7.66230538	 4.25865618	 -11.08735963
No	 -1.25017316	 -4.45298800	 -17.09417376
No	 -2.60641184	 -2.86673884	 -15.38115588
No	 -3.96265051	 -1.28048967	 -13.66813801
No	 -5.31888919	 0.30575949	 -11.95512013
No	 -6.67512786	 1.89200866	 -10.24210225
No	 -8.03136654	 3.47825782	 -8.52908438
No	 -0.26299565	 -6.81963553	 -16.24891638
No	 -1.61923432	 -5.23338637	 -14.53589851
No	 -2.97547300	 -3.64713720	 -12.82288063
No	 -4.33171167	 -2.06088804	 -11.10986276
No	 -5.68795034	 -0.47463887	 -9.39684488
No	 -7.04418902	 1.11161029	 -7.68382700
No	 -8.40042769	 2.69785946	 -5.97080913
No	 -8.27593617	 7.43846919	 -23.02897788
No	 -7.28875866	 5.07182166	 -22.18372051
No	 -8.64499733	 6.65807082	 -20.47070263
No	 -6.30158114	 2.70517413	 -21.33846313
No	 -7.65781981	 4.29142330	 -19.62544526
No	 -9.01405849	 5.87767246	 -17.91242738
No	 -5.31440362	 0.33852660	 -20.49320576
No	 -6.67064230	 1.92477577	 -18.78018788
No	 -8.02688097	 3.51102493	 -17.06717001
No	 -9.38311965	 5.09727410	 -15.35415213
No	 -4.32722611	 -2.02812092	 -19.64794838
No	 -5.68346478	 -0.44187176	 -17.93493051
No	 -7.03970345	 1.14437741	 -16.22191263
No	 -8.39594213	 2.73062657	 -14.50889476
No	 -9.75218080	 4.31687574	 -12.79587688
No	 -3.34004859	 -4.39476845	 -18.80269101
No	 -4.69628726	 -2.80851929	 -17.08967313
No	 -6.05252594	 -1.22227012	 -15.37665526
No	 -7.40876461	 0.36397904	 -13.66363738
No	 -8.76500329	 1.95022821	 -11.95061950
No	 -10.12124196	 3.53647737	 -10.23760163
No	 -2.35287107	 -6.76141598	 -17.95743363
No	 -3.70910974	 -5.17516681	 -16.24441576
No	 -5.06534842	 -3.58891765	 -14.53139788
No	 -6.42158709	 -2.00266848	 -12.81838001
No	 -7.77782577	 -0.41641932	 -11.10536213
No	 -9.13406444	 1.16982985	 -9.39234425
No	 -10.49030312	 2.75607901	 -7.67932638
No	 -1.36569355	 -9.12806351	 -17.11217626
No	 -2.72193223	 -7.54181434	 -15.39915838
No	 -4.07817090	 -5.95556518	 -13.68614051
No	 -5.43440958	 -4.36931601	 -11.97312263
No	 -6.79064825	 -2.78306685	 -10.26010476
No	 -8.14688693	 -1.19681768	 -8.54708688
No	 -9.50312560	 0.38943148	 -6.83406900
No	 -10.85936427	 1.97568065	 -5.12105113
Au	 8.87467846	 -12.86154529	 9.34733800
Au	 11.72015414	 7.92469547	 -7.64782200
Au	 0.69317507	 -15.15958427	 -16.28042076
No	 6.70028945	 -11.50510002	 8.49758000
Au	 11.43560657	 5.84607139	 -5.94830600
Au	 1.51132541	 -14.92978038	 -13.71764489
No	 4.52590043	 -10.14865475	 7.64782200
Au	 11.15105900	 3.76744732	 -4.24879000
Au	 2.32947575	 -14.69997648	 -11.15486901
No	 2.35151142	 -8.79220949	 6.79806400
Au	 10.86651143	 1.68882324	 -2.54927400
Au	 3.14762609	 -14.47017258	 -8.59209313
No	 0.17712241	 -7.43576422	 5.94830600
Au	 10.58196387	 -0.38980083	 -0.84975800
Au	 3.96577643	 -14.24036868	 -6.02931726
No	 -1.99726661	 -6.07931895	 5.09854800
Au	 10.29741630	 -2.46842491	 0.84975800
Au	 4.78392676	 -14.01056478	 -3.46654138
No	 -4.17165562	 -4.72287369	 4.24879000
Au	 10.01286873	 -4.54704898	 2.54927400
Au	 5.60207710	 -13.78076088	 -0.90376550
No	 -6.34604463	 -3.36642842	 3.39903200
Au	 9.72832116	 -6.62567306	 4.24879000
Au	 6.42022744	 -13.55095698	 1.65901037
No	 -8.52043365	 -2.00998316	 2.54927400
Au	 9.44377359	 -8.70429714	 5.94830600
Au	 7.23837778	 -13.32115308	 4.22178625
No	 -10.69482266	 -0.65353789	 1.69951600
Au	 9.15922603	 -10.78292121	 7.64782200
Au	 8.05652812	 -13.09134919	 6.78456212
No	 -12.86921167	 0.70290738	 0.84975800
No	 8.34107569	 -11.01272511	 5.08504612
No	 8.62562326	 -8.93410103	 3.38553012
No	 7.52292535	 -11.24252901	 2.52227025
No	 8.91017082	 -6.85547696	 1.68601412
No	 7.80747292	 -9.16390493	 0.82275425
No	 6.70477501	 -11.47233291	 -0.04050563
No	 9.19471839	 -4.77685288	 -0.01350188
No	 8.09202048	 -7.08528086	 -0.87676175
No	 6.98932258	 -9.39370883	 -1.74002163
No	 5.88662467	 -11.70213681	 -2.60328150
No	 9.47926596	 -2.69822881	 -1.71301788
No	 8.37656805	 -5.00665678	 -2.57627775
No	 7.27387015	 -7.31508476	 -3.43953763
No	 6.17117224	 -9.62351273	 -4.30279750
No	 5.06847433	 -11.93194071	 -5.16605738
No	 9.76381353	 -0.61960473	 -3.41253388
No	 8.66111562	 -2.92803271	 -4.27579375
No	 7.55841771	 -5.23646068	 -5.13905363
No	 6.45571981	 -7.54488866	 -6.00231350
No	 5.35302190	 -9.85331663	 -6.86557338
No	 4.25032399	 -12.16174460	 -7.72883326
No	 10.04836109	 1.45901934	 -5.11204988
No	 8.94566319	 -0.84940863	 -5.97530975
No	 7.84296528	 -3.15783661	 -6.83856963
No	 6.74026737	 -5.46626458	 -7.70182950
No	 5.63756947	 -7.77469255	 -8.56508938
No	 4.53487156	 -10.08312053	 -9.42834926
No	 3.43217365	 -12.39154850	 -10.29160913
No	 10.33290866	 3.53764342	 -6.81156588
No	 9.23021076	 1.22921544	 -7.67482575
No	 8.12751285	 -1.07921253	 -8.53808563
No	 7.02481494	 -3.38764050	 -9.40134550
No	 5.92211704	 -5.69606848	 -10.26460538
No	 4.81941913	 -8.00449645	 -11.12786526
No	 3.71672122	 -10.31292443	 -11.99112513
No	 2.61402332	 -12.62135240	 -12.85438501
No	 10.61745623	 5.61626749	 -8.51108188
No	 9.51475832	 3.30783952	 -9.37434175
No	 8.41206042	 0.99941155	 -10.23760163
No	 7.30936251	 -1.30901643	 -11.10086150
No	 6.20666460	 -3.61744440	 -11.96412138
No	 5.10396670	 -5.92587238	 -12.82738126
No	 4.00126879	 -8.23430035	 -13.69064113
No	 2.89857088	 -10.54272833	 -14.55390101
No	 1.79587298	 -12.85115630	 -15.41716089
No	 -10.41027509	 1.42508619	 0.00000000
No	 -7.95133851	 2.14726500	 -0.84975800
No	 -8.23588608	 0.06864092	 0.84975800
No	 -5.49240193	 2.86944380	 -1.69951600
No	 -5.77694950	 0.79081973	 0.00000000
No	 -6.06149707	 -1.28780435	 1.69951600
No	 -3.03346535	 3.59162261	 -2.54927400
No	 -3.31801292	 1.51299854	 -0.84975800
No	 -3.60256048	 -0.56562554	 0.84975800
No	 -3.88710805	 -2.64424961	 2.54927400
No	 -0.57452877	 4.31380142	 -3.39903200
No	 -0.85907634	 2.23517735	 -1.69951600
No	 -1.14362390	 0.15655327	 0.00000000
No	 -1.42817147	 -1.92207080	 1.69951600
No	 -1.71271904	 -4.00069488	 3.39903200
No	 1.88440781	 5.03598023	 -4.24879000
No	 1.59986024	 2.95735616	 -2.54927400
No	 1.31531268	 0.87873208	 -0.84975800
No	 1.03076511	 -1.19989199	 0.84975800
No	 0.74621754	 -3.27851607	 2.54927400
No	 0.46166997	 -5.35714015	 4.24879000
No	 4.34334439	 5.75815904	 -5.09854800
No	 4.05879683	 3.67953497	 -3.39903200
No	 3.77424926	 1.60091089	 -1.69951600
No	 3.48970169	 -0.47771319	 0.00000000
No	 3.20515412	 -2.55633726	 1.69951600
No	 2.92060655	 -4.63496134	 3.39903200
No	 2.63605899	 -6.71358541	 5.09854800
No	 6.80228097	 6.48033785	 -5.94830600
No	 6.51773341	 4.40171378	 -4.24879000
No	 6.23318584	 2.32308970	 -2.54927400
No	 5.94863827	 0.24446562	 -0.84975800
No	 5.66409070	 -1.83415845	 0.84975800
No	 5.37954314	 -3.91278253	 2.54927400
No	 5.09499557	 -5.99140660	 4.24879000
No	 4.81044800	 -8.07003068	 5.94830600
No	 9.26121756	 7.20251666	 -6.79806400
No	 8.97666999	 5.12389258	 -5.09854800
No	 8.69212242	 3.04526851	 -3.39903200
No	 8.40757485	 0.96664443	 -1.69951600
No	 8.12302728	 -1.11197964	 0.00000000
No	 7.83847972	 -3.19060372	 1.69951600
No	 7.55393215	 -5.26922779	 3.39903200
No	 7.26938458	 -7.34785187	 5.09854800
No	 6.98483701	 -9.42647594	 6.79806400
No	 5.88213911	 -11.73490392	 5.93480412
No	 5.06398877	 -11.96470782	 3.37202825
No	 3.70775009	 -10.37845865	 5.08504612
No	 4.24583843	 -12.19451172	 0.80925237
No	 2.88959975	 -10.60826255	 2.52227025
No	 1.53336108	 -9.02201339	 4.23528812
No	 3.42768809	 -12.42431562	 -1.75352350
No	 2.07144942	 -10.83806645	 -0.04050563
No	 0.71521074	 -9.25181729	 1.67251225
No	 -0.64102793	 -7.66556812	 3.38553012
No	 2.60953775	 -12.65411951	 -4.31629938
No	 1.25329908	 -11.06787035	 -2.60328150
No	 -0.10293960	 -9.48162118	 -0.89026363
No	 -1.45917827	 -7.89537202	 0.82275425
No	 -2.81541695	 -6.30912285	 2.53577212
No	 1.79138741	 -12.88392341	 -6.87907526
No	 0.43514874	 -11.29767425	 -5.16605738
No	 -0.92108994	 -9.71142508	 -3.45303950
No	 -2.27732861	 -8.12517592	 -1.74002163
No	 -3.63356728	 -6.53892675	 -0.02700375
No	 -4.98980596	 -4.95267759	 1.68601412
No	 0.97323707	 -13.11372731	 -9.44185113
No	 -0.38300160	 -11.52747815	 -7.72883326
No	 -1.73924027	 -9.94122898	 -6.01581538
No	 -3.09547895	 -8.35497982	 -4.30279750
No	 -4.45171762	 -6.76873065	 -2.58977963
No	 -5.80795630	 -5.18248149	 -0.87676175
No	 -7.16419497	 -3.59623232	 0.83625612
No	 0.15508674	 -13.34353121	 -12.00462701
No	 -1.20115194	 -11.75728205	 -10.29160913
No	 -2.55739061	 -10.17103288	 -8.57859126
No	 -3.91362929	 -8.58478372	 -6.86557338
No	 -5.26986796	 -6.99853455	 -5.15255550
No	 -6.62610664	 -5.41228538	 -3.43953763
No	 -7.98234531	 -3.82603622	 -1.72651975
No	 -9.33858399	 -2.23978705	 -0.01350188
No	 -0.66306360	 -13.57333511	 -14.56740289
No	 -2.01930228	 -11.98708594	 -12.85438501
No	 -3.37554095	 -10.40083678	 -11.14136713
No	 -4.73177963	 -8.81458761	 -9.42834926
No	 -6.08801830	 -7.22833845	 -7.71533138
No	 -7.44425698	 -5.64208928	 -6.00231350
No	 -8.80049565	 -4.05584012	 -4.28929563
No	 -10.15673432	 -2.46959095	 -2.57627775
No	 -11.51297300	 -0.88334179	 -0.86325988
No	 8.15851965	 4.89408869	 -7.66132388
No	 7.87397208	 2.81546461	 -5.96180788
No	 7.05582174	 2.58566071	 -8.52458375
No	 5.69958307	 4.17190988	 -6.81156588
No	 7.58942451	 0.73684053	 -4.26229188
No	 6.77127417	 0.50703664	 -6.82506775
No	 5.41503550	 2.09328580	 -5.11204988
No	 5.95312384	 0.27723274	 -9.38784363
No	 4.59688516	 1.86348190	 -7.67482575
No	 3.24064649	 3.44973107	 -5.96180788
No	 7.30487695	 -1.34178354	 -2.56277588
No	 6.48672661	 -1.57158744	 -5.12555175
No	 5.13048793	 0.01466173	 -3.41253388
No	 5.66857627	 -1.80139134	 -7.68832763
No	 4.31233759	 -0.21514217	 -5.97530975
No	 2.95609892	 1.37110699	 -4.26229188
No	 4.85042593	 -2.03119524	 -10.25110350
No	 3.49418725	 -0.44494607	 -8.53808563
No	 2.13794858	 1.14130309	 -6.82506775
No	 0.78170991	 2.72755226	 -5.11204988
No	 7.02032938	 -3.42040762	 -0.86325988
No	 6.20217904	 -3.65021152	 -3.42603575
No	 4.84594036	 -2.06396235	 -1.71301788
No	 5.38402870	 -3.88001541	 -5.98881163
No	 4.02779003	 -2.29376625	 -4.27579375
No	 2.67155135	 -0.70751708	 -2.56277588
No	 4.56587836	 -4.10981931	 -8.55158750
No	 3.20963969	 -2.52357015	 -6.83856963
No	 1.85340101	 -0.93732098	 -5.12555175
No	 0.49716234	 0.64892818	 -3.41253388
No	 3.74772802	 -4.33962321	 -11.11436338
No	 2.39148935	 -2.75337405	 -9.40134550
No	 1.03525067	 -1.16712488	 -7.68832763
No	 -0.32098800	 0.41912428	 -5.97530975
No	 -1.67722667	 2.00537345	 -4.26229188
No	 6.73578181	 -5.49903169	 0.83625612
No	 5.91763147	 -5.72883559	 -1.72651975
No	 4.56139280	 -4.14258643	 -0.01350188
No	 5.09948113	 -5.95863949	 -4.28929563
No	 3.74324246	 -4.37239032	 -2.57627775
No	 2.38700378	 -2.78614116	 -0.86325988
No	 4.28133079	 -6.18844339	 -6.85207150
No	 2.92509212	 -4.60219422	 -5.13905363
No	 1.56885345	 -3.01594506	 -3.42603575
No	 0.21261477	 -1.42969589	 -1.71301788
No	 3.46318045	 -6.41824729	 -9.41484738
No	 2.10694178	 -4.83199812	 -7.70182950
No	 0.75070311	 -3.24574896	 -5.98881163
No	 -0.60553557	 -1.65949979	 -4.27579375
No	 -1.96177424	 -0.07325063	 -2.56277588
No	 2.64503012	 -6.64805119	 -11.97762326
No	 1.28879144	 -5.06180202	 -10.26460538
No	 -0.06744723	 -3.47555286	 -8.55158750
No	 -1.42368591	 -1.88930369	 -6.83856963
No	 -2.77992458	 -0.30305453	 -5.12555175
No	 -4.13616326	 1.28319464	 -3.41253388
No	 6.45123424	 -7.57765577	 2.53577212
No	 5.63308390	 -7.80745967	 -0.02700375
No	 4.27684523	 -6.22121050	 1.68601412
No	 4.81493356	 -8.03726357	 -2.58977963
No	 3.45869489	 -6.45101440	 -0.87676175
No	 2.10245622	 -4.86476524	 0.83625612
No	 3.99678323	 -8.26706746	 -5.15255550
No	 2.64054455	 -6.68081830	 -3.43953763
No	 1.28430588	 -5.09456913	 -1.72651975
No	 -0.07193280	 -3.50831997	 -0.01350188
No	 3.17863289	 -8.49687136	 -7.71533138
No	 1.82239421	 -6.91062220	 -6.00231350
No	 0.46615554	 -5.32437303	 -4.28929563
No	 -0.89008314	 -3.73812387	 -2.57627775
No	 -2.24632181	 -2.15187470	 -0.86325988
No	 2.36048255	 -8.72667526	 -10.27810726
No	 1.00424387	 -7.14042610	 -8.56508938
No	 -0.35199480	 -5.55417693	 -6.85207150
No	 -1.70823347	 -3.96792777	 -5.13905363
No	 -3.06447215	 -2.38167860	 -3.42603575
No	 -4.42071082	 -0.79542944	 -1.71301788
No	 1.54233221	 -8.95647916	 -12.84088313
No	 0.18609354	 -7.37023000	 -11.12786526
No	 -1.17014514	 -5.78398083	 -9.41484738
No	 -2.52638381	 -4.19773167	 -7.70182950
No	 -3.88262249	 -2.61148250	 -5.98881163
No	 -5.23886116	 -1.02523333	 -4.27579375
No	 -6.59509984	 0.56101583	 -2.56277588
No	 6.16668667	 -9.65627984	 4.23528812
No	 5.34853634	 -9.88608374	 1.67251225
No	 3.99229766	 -8.29983458	 3.38553012
No	 4.53038600	 -10.11588764	 -0.89026363
No	 3.17414732	 -8.52963848	 0.82275425
No	 1.81790865	 -6.94338931	 2.53577212
No	 3.71223566	 -10.34569154	 -3.45303950
No	 2.35599698	 -8.75944237	 -1.74002163
No	 0.99975831	 -7.17319321	 -0.02700375
No	 -0.35648036	 -5.58694404	 1.68601412
No	 2.89408532	 -10.57549544	 -6.01581538
No	 1.53784665	 -8.98924627	 -4.30279750
No	 0.18160797	 -7.40299711	 -2.58977963
No	 -1.17463070	 -5.81674794	 -0.87676175
No	 -2.53086938	 -4.23049878	 0.83625612
No	 2.07593498	 -10.80529934	 -8.57859126
No	 0.71969631	 -9.21905017	 -6.86557338
No	 -0.63654237	 -7.63280101	 -5.15255550
No	 -1.99278104	 -6.04655184	 -3.43953763
No	 -3.34901972	 -4.46030268	 -1.72651975
No	 -4.70525839	 -2.87405351	 -0.01350188
No	 1.25778464	 -11.03510324	 -11.14136713
No	 -0.09845403	 -9.44885407	 -9.42834926
No	 -1.45469271	 -7.86260491	 -7.71533138
No	 -2.81093138	 -6.27635574	 -6.00231350
No	 -4.16717006	 -4.69010658	 -4.28929563
No	 -5.52340873	 -3.10385741	 -2.57627775
No	 -6.87964740	 -1.51760825	 -0.86325988
No	 0.43963430	 -11.26490714	 -13.70414301
No	 -0.91660437	 -9.67865797	 -11.99112513
No	 -2.27284305	 -8.09240880	 -10.27810726
No	 -3.62908172	 -6.50615964	 -8.56508938
No	 -4.98532039	 -4.91991047	 -6.85207150
No	 -6.34155907	 -3.33366131	 -5.13905363
No	 -7.69779774	 -1.74741214	 -3.42603575
No	 -9.05403642	 -0.16116298	 -1.71301788
Au	 4.01549492	 14.85680611	 18.84319664
Au	 11.27841018	 10.44454560	 -6.78456212
No	 4.45723888	 12.33695598	 17.97993676
Au	 2.28284986	 13.69340125	 17.13017876
Au	 10.55211865	 10.88577165	 -4.22178625
No	 4.89898284	 9.81710585	 17.11667689
Au	 0.55020481	 12.52999639	 15.41716089
Au	 9.82582713	 11.32699770	 -1.65901037
No	 5.34072679	 7.29725573	 16.25341701
Au	 -1.18244025	 11.36659153	 13.70414301
Au	 9.09953560	 11.76822375	 0.90376550
No	 5.78247075	 4.77740560	 15.39015713
Au	 -2.91508530	 10.20318667	 11.99112513
Au	 8.37324407	 12.20944980	 3.46654138
No	 6.22421471	 2.25755547	 14.52689726
Au	 -4.64773036	 9.03978181	 10.27810726
Au	 7.64695255	 12.65067585	 6.02931726
No	 6.66595867	 -0.26229465	 13.66363738
Au	 -6.38037541	 7.87637695	 8.56508938
Au	 6.92066102	 13.09190190	 8.59209313
No	 7.10770263	 -2.78214478	 12.80037750
Au	 -8.11302047	 6.71297209	 6.85207150
Au	 6.19436950	 13.53312795	 11.15486901
No	 7.54944658	 -5.30199491	 11.93711763
Au	 -9.84566552	 5.54956722	 5.13905363
Au	 5.46807797	 13.97435401	 13.71764489
No	 7.99119054	 -7.82184503	 11.07385775
Au	 -11.57831058	 4.38616236	 3.42603575
Au	 4.74178645	 14.41558006	 16.28042076
No	 8.43293450	 -10.34169516	 10.21059788
Au	 -13.31095563	 3.22275750	 1.71301788
No	 8.71748207	 -8.26307108	 8.51108188
No	 9.00202964	 -6.18444701	 6.81156588
No	 8.27573811	 -5.74322096	 9.37434175
No	 9.28657720	 -4.10582293	 5.11204988
No	 8.56028568	 -3.66459688	 7.67482575
No	 7.83399415	 -3.22337083	 10.23760163
No	 9.57112477	 -2.02719886	 3.41253388
No	 8.84483325	 -1.58597281	 5.97530975
No	 8.11854172	 -1.14474676	 8.53808563
No	 7.39225019	 -0.70352070	 11.10086150
No	 9.85567234	 0.05142522	 1.71301788
No	 9.12938081	 0.49265127	 4.27579375
No	 8.40308929	 0.93387732	 6.83856963
No	 7.67679776	 1.37510337	 9.40134550
No	 6.95050624	 1.81632942	 11.96412138
No	 10.14021991	 2.13004929	 0.01350188
No	 9.41392838	 2.57127534	 2.57627775
No	 8.68763686	 3.01250140	 5.13905363
No	 7.96134533	 3.45372745	 7.70182950
No	 7.23505380	 3.89495350	 10.26460538
No	 6.50876228	 4.33617955	 12.82738126
No	 10.42476748	 4.20867337	 -1.68601412
No	 9.69847595	 4.64989942	 0.87676175
No	 8.97218442	 5.09112547	 3.43953763
No	 8.24589290	 5.53235152	 6.00231350
No	 7.51960137	 5.97357757	 8.56508938
No	 6.79330985	 6.41480363	 11.12786526
No	 6.06701832	 6.85602968	 13.69064113
No	 10.70931504	 6.28729744	 -3.38553012
No	 9.98302352	 6.72852350	 -0.82275425
No	 9.25673199	 7.16974955	 1.74002163
No	 8.53044047	 7.61097560	 4.30279750
No	 7.80414894	 8.05220165	 6.86557338
No	 7.07785741	 8.49342770	 9.42834926
No	 6.35156589	 8.93465375	 11.99112513
No	 5.62527436	 9.37587980	 14.55390101
No	 10.99386261	 8.36592152	 -5.08504612
No	 10.26757108	 8.80714757	 -2.52227025
No	 9.54127956	 9.24837362	 0.04050563
No	 8.81498803	 9.68959967	 2.60328150
No	 8.08869651	 10.13082573	 5.16605738
No	 7.36240498	 10.57205178	 7.72883326
No	 6.63611346	 11.01327783	 10.29160913
No	 5.90982193	 11.45450388	 12.85438501
No	 5.18353040	 11.89572993	 15.41716089
No	 3.00914139	 13.25217520	 14.56740289
No	 3.73543292	 12.81094915	 12.00462701
No	 1.27649634	 12.08877034	 12.85438501
No	 4.46172444	 12.36972309	 9.44185113
No	 2.00278786	 11.64754428	 10.29160913
No	 -0.45614872	 10.92536548	 11.14136713
No	 5.18801597	 11.92849704	 6.87907526
No	 2.72907939	 11.20631823	 7.72883326
No	 0.27014281	 10.48413942	 8.57859126
No	 -2.18879377	 9.76196062	 9.42834926
No	 5.91430749	 11.48727099	 4.31629938
No	 3.45537091	 10.76509218	 5.16605738
No	 0.99643433	 10.04291337	 6.01581538
No	 -1.46250225	 9.32073456	 6.86557338
No	 -3.92143883	 8.59855575	 7.71533138
No	 6.64059902	 11.04604494	 1.75352350
No	 4.18166244	 10.32386613	 2.60328150
No	 1.72272586	 9.60168732	 3.45303950
No	 -0.73621072	 8.87950851	 4.30279750
No	 -3.19514730	 8.15732970	 5.15255550
No	 -5.65408388	 7.43515089	 6.00231350
No	 7.36689055	 10.60481889	 -0.80925237
No	 4.90795396	 9.88264008	 0.04050563
No	 2.44901738	 9.16046127	 0.89026363
No	 -0.00991920	 8.43828246	 1.74002163
No	 -2.46885578	 7.71610365	 2.58977963
No	 -4.92779236	 6.99392484	 3.43953763
No	 -7.38672894	 6.27174603	 4.28929563
No	 8.09318207	 10.16359284	 -3.37202825
No	 5.63424549	 9.44141403	 -2.52227025
No	 3.17530891	 8.71923522	 -1.67251225
No	 0.71637233	 7.99705641	 -0.82275425
No	 -1.74256425	 7.27487760	 0.02700375
No	 -4.20150083	 6.55269879	 0.87676175
No	 -6.66043741	 5.83051998	 1.72651975
No	 -9.11937400	 5.10834117	 2.57627775
No	 8.81947360	 9.72236679	 -5.93480412
No	 6.36053702	 9.00018798	 -5.08504612
No	 3.90160044	 8.27800917	 -4.23528812
No	 1.44266385	 7.55583036	 -3.38553012
No	 -1.01627273	 6.83365155	 -2.53577212
No	 -3.47520931	 6.11147274	 -1.68601412
No	 -5.93414589	 5.38929393	 -0.83625612
No	 -8.39308247	 4.66711512	 0.01350188
No	 -10.85201905	 3.94493631	 0.86325988
No	 6.25854549	 -8.98524989	 9.36083988
No	 5.81680153	 -6.46539977	 10.22409975
No	 4.08415647	 -7.62880463	 8.51108188
No	 5.37505757	 -3.94554964	 11.08735963
No	 3.64241252	 -5.10895450	 9.37434175
No	 1.90976746	 -6.27235936	 7.66132388
No	 4.93331361	 -1.42569951	 11.95061950
No	 3.20066856	 -2.58910437	 10.23760163
No	 1.46802350	 -3.75250923	 8.52458375
No	 -0.26462155	 -4.91591409	 6.81156588
No	 4.49156966	 1.09415061	 12.81387938
No	 2.75892460	 -0.06925425	 11.10086150
No	 1.02627955	 -1.23265911	 9.38784363
No	 -0.70636551	 -2.39606397	 7.67482575
No	 -2.43901057	 -3.55946883	 5.96180788
No	 4.04982570	 3.61400074	 13.67713926
No	 2.31718064	 2.45059588	 11.96412138
No	 0.58453559	 1.28719102	 10.25110350
No	 -1.14810947	 0.12378616	 8.53808563
No	 -2.88075452	 -1.03961870	 6.82506775
No	 -4.61339958	 -2.20302356	 5.11204988
No	 3.60808174	 6.13385087	 14.54039913
No	 1.87543668	 4.97044601	 12.82738126
No	 0.14279163	 3.80704115	 11.11436338
No	 -1.58985343	 2.64363629	 9.40134550
No	 -3.32249848	 1.48023143	 7.68832763
No	 -5.05514354	 0.31682657	 5.97530975
No	 -6.78778859	 -0.84657830	 4.26229188
No	 3.16633778	 8.65370099	 15.40365901
No	 1.43369273	 7.49029613	 13.69064113
No	 -0.29895233	 6.32689127	 11.97762326
No	 -2.03159738	 5.16348641	 10.26460538
No	 -3.76424244	 4.00008155	 8.55158750
No	 -5.49688749	 2.83667669	 6.83856963
No	 -7.22953255	 1.67327183	 5.12555175
No	 -8.96217760	 0.50986697	 3.41253388
No	 2.72459382	 11.17355112	 16.26691889
No	 0.99194877	 10.01014626	 14.55390101
No	 -0.74069629	 8.84674140	 12.84088313
No	 -2.47334134	 7.68333654	 11.12786526
No	 -4.20598640	 6.51993168	 9.41484738
No	 -5.93863145	 5.35652682	 7.70182950
No	 -7.67127651	 4.19312196	 5.98881163
No	 -9.40392156	 3.02971710	 4.27579375
No	 -11.13656662	 1.86631224	 2.56277588
No	 8.53492603	 7.64374271	 -4.23528812
No	 8.25037846	 5.56511864	 -2.53577212
No	 7.80863450	 8.08496876	 -1.67251225
No	 6.07598945	 6.92156390	 -3.38553012
No	 7.96583089	 3.48649456	 -0.83625612
No	 7.52408694	 6.00634469	 0.02700375
No	 5.79144188	 4.84293983	 -1.68601412
No	 7.08234298	 8.52619481	 0.89026363
No	 5.34969792	 7.36278995	 -0.82275425
No	 3.61705287	 6.19938509	 -2.53577212
No	 7.68128333	 1.40787048	 0.86325988
No	 7.23953937	 3.92772061	 1.72651975
No	 5.50689431	 2.76431575	 0.01350188
No	 6.79779541	 6.44757074	 2.58977963
No	 5.06515036	 5.28416588	 0.87676175
No	 3.33250530	 4.12076102	 -0.83625612
No	 6.35605145	 8.96742086	 3.45303950
No	 4.62340640	 7.80401600	 1.74002163
No	 2.89076134	 6.64061114	 0.02700375
No	 1.15811629	 5.47720628	 -1.68601412
No	 7.39673576	 -0.67075359	 2.56277588
No	 6.95499180	 1.84909654	 3.42603575
No	 5.22234675	 0.68569168	 1.71301788
No	 6.51324784	 4.36894666	 4.28929563
No	 4.78060279	 3.20554180	 2.57627775
No	 3.04795773	 2.04213694	 0.86325988
No	 6.07150388	 6.88879679	 5.15255550
No	 4.33885883	 5.72539193	 3.43953763
No	 2.60621377	 4.56198707	 1.72651975
No	 0.87356872	 3.39858221	 0.01350188
No	 5.62975993	 9.40864692	 6.01581538
No	 3.89711487	 8.24524206	 4.30279750
No	 2.16446982	 7.08183720	 2.58977963
No	 0.43182476	 5.91843233	 0.87676175
No	 -1.30082029	 4.75502747	 -0.83625612
No	 7.11218819	 -2.74937767	 4.26229188
No	 6.67044423	 -0.22952754	 5.12555175
No	 4.93779918	 -1.39293240	 3.41253388
No	 6.22870027	 2.29032259	 5.98881163
No	 4.49605522	 1.12691773	 4.27579375
No	 2.76341016	 -0.03648713	 2.56277588
No	 5.78695632	 4.81017271	 6.85207150
No	 4.05431126	 3.64676785	 5.13905363
No	 2.32166621	 2.48336299	 3.42603575
No	 0.58902115	 1.31995813	 1.71301788
No	 5.34521236	 7.33002284	 7.71533138
No	 3.61256730	 6.16661798	 6.00231350
No	 1.87992225	 5.00321312	 4.28929563
No	 0.14727719	 3.83980826	 2.57627775
No	 -1.58536786	 2.67640340	 0.86325988
No	 4.90346840	 9.84987297	 8.57859126
No	 3.17082335	 8.68646811	 6.86557338
No	 1.43817829	 7.52306325	 5.15255550
No	 -0.29446676	 6.35965839	 3.43953763
No	 -2.02711182	 5.19625353	 1.72651975
No	 -3.75975688	 4.03284867	 0.01350188
No	 6.82764062	 -4.82800174	 5.96180788
No	 6.38589667	 -2.30815162	 6.82506775
No	 4.65325161	 -3.47155648	 5.11204988
No	 5.94415271	 0.21169851	 7.68832763
No	 4.21150765	 -0.95170635	 5.97530975
No	 2.47886260	 -2.11511121	 4.26229188
No	 5.50240875	 2.73154864	 8.55158750
No	 3.76976369	 1.56814378	 6.83856963
No	 2.03711864	 0.40473892	 5.12555175
No	 0.30447358	 -0.75866594	 3.41253388
No	 5.06066479	 5.25139876	 9.41484738
No	 3.32801974	 4.08799390	 7.70182950
No	 1.59537468	 2.92458904	 5.98881163
No	 -0.13727037	 1.76118418	 4.27579375
No	 -1.86991543	 0.59777932	 2.56277588
No	 4.61892083	 7.77124889	 10.27810726
No	 2.88627578	 6.60784403	 8.56508938
No	 1.15363072	 5.44443917	 6.85207150
No	 -0.57901433	 4.28103431	 5.13905363
No	 -2.31165939	 3.11762945	 3.42603575
No	 -4.04430444	 1.95422459	 1.71301788
No	 4.17717687	 10.29109902	 11.14136713
No	 2.44453182	 9.12769416	 9.42834926
No	 0.71188676	 7.96428930	 7.71533138
No	 -1.02075829	 6.80088444	 6.00231350
No	 -2.75340335	 5.63747958	 4.28929563
No	 -4.48604840	 4.47407472	 2.57627775
No	 -6.21869346	 3.31066986	 0.86325988
No	 6.54309306	 -6.90662582	 7.66132388
No	 6.10134910	 -4.38677569	 8.52458375
No	 4.36870404	 -5.55018055	 6.81156588
No	 5.65960514	 -1.86692556	 9.38784363
No	 3.92696008	 -3.03033042	 7.67482575
No	 2.19431503	 -4.19373529	 5.96180788
No	 5.21786118	 0.65292456	 10.25110350
No	 3.48521613	 -0.51048030	 8.53808563
No	 1.75257107	 -1.67388516	 6.82506775
No	 0.01992602	 -2.83729002	 5.11204988
No	 4.77611722	 3.17277469	 11.11436338
No	 3.04347217	 2.00936983	 9.40134550
No	 1.31082711	 0.84596497	 7.68832763
No	 -0.42181794	 -0.31743989	 5.97530975
No	 -2.15446300	 -1.48084475	 4.26229188
No	 4.33437326	 5.69262482	 11.97762326
No	 2.60172821	 4.52921996	 10.26460538
No	 0.86908315	 3.36581510	 8.55158750
No	 -0.86356190	 2.20241023	 6.83856963
No	 -2.59620696	 1.03900537	 5.12555175
No	 -4.32885201	 -0.12439949	 3.41253388
No	 3.89262931	 8.21247494	 12.84088313
No	 2.15998425	 7.04907008	 11.12786526
No	 0.42733920	 5.88566522	 9.41484738
No	 -1.30530586	 4.72226036	 7.70182950
No	 -3.03795091	 3.55885550	 5.98881163
No	 -4.77059597	 2.39545064	 4.27579375
No	 -6.50324102	 1.23204578	 2.56277588
No	 3.45088535	 10.73232507	 13.70414301
No	 1.71824029	 9.56892021	 11.99112513
No	 -0.01440476	 8.40551535	 10.27810726
No	 -1.74704982	 7.24211049	 8.56508938
No	 -3.47969487	 6.07870563	 6.85207150
No	 -5.21233993	 4.91530077	 5.13905363
No	 -6.94498498	 3.75189591	 3.42603575
No	 -8.67763004	 2.58849105	 1.71301788
Au	 -13.44031991	 -7.30024390	 28.14102776
No	 -11.85342765	 -5.28596663	 27.29577038
Au	 -11.41168369	 -7.80581675	 26.43251051
Au	 -13.58607271	 -6.44937149	 25.58275251
No	 -10.26653539	 -3.27168935	 26.45051301
Au	 -9.38304748	 -8.31138961	 24.72399326
Au	 -13.73182551	 -5.59849908	 23.02447726
No	 -8.67964314	 -1.25741208	 25.60525563
Au	 -7.35441126	 -8.81696246	 23.01547601
Au	 -13.87757830	 -4.74762666	 20.46620201
No	 -7.09275088	 0.75686519	 24.75999826
Au	 -5.32577505	 -9.32253531	 21.30695875
Au	 -14.02333110	 -3.89675425	 17.90792675
No	 -5.50585862	 2.77114247	 23.91474088
Au	 -3.29713883	 -9.82810817	 19.59844150
Au	 -14.16908390	 -3.04588184	 15.34965150
No	 -3.91896637	 4.78541974	 23.06948351
Au	 -1.26850262	 -10.33368102	 17.88992425
Au	 -14.31483670	 -2.19500942	 12.79137625
No	 -2.33207411	 6.79969701	 22.22422614
Au	 0.76013360	 -10.83925387	 16.18140700
Au	 -14.46058949	 -1.34413701	 10.23310100
No	 -0.74518185	 8.81397429	 21.37896876
Au	 2.78876981	 -11.34482673	 14.47288975
Au	 -14.60634229	 -0.49326460	 7.67482575
No	 0.84171041	 10.82825156	 20.53371139
Au	 4.81740603	 -11.85039958	 12.76437250
Au	 -14.75209509	 0.35760782	 5.11655050
No	 2.42860266	 12.84252883	 19.68845401
Au	 6.84604224	 -12.35597243	 11.05585525
Au	 -14.89784789	 1.20848023	 2.55827525
No	 6.40429829	 -9.83612231	 11.91911513
No	 4.37566207	 -9.33054945	 13.62763238
No	 5.96255433	 -7.31627218	 12.78237500
No	 2.34702586	 -8.82497660	 15.33614963
No	 3.93391811	 -6.81069933	 14.49089225
No	 5.52081037	 -4.79642205	 13.64563488
No	 0.31838964	 -8.31940375	 17.04466688
No	 1.90528190	 -6.30512647	 16.19940950
No	 3.49217415	 -4.29084920	 15.35415213
No	 5.07906641	 -2.27657193	 14.50889476
No	 -1.71024658	 -7.81383089	 18.75318413
No	 -0.12335432	 -5.79955362	 17.90792675
No	 1.46353794	 -3.78527635	 17.06266938
No	 3.05043020	 -1.77099907	 16.21741201
No	 4.63732245	 0.24327820	 15.37215463
No	 -3.73888279	 -7.30825804	 20.46170138
No	 -2.15199053	 -5.29398077	 19.61644401
No	 -0.56509828	 -3.27970349	 18.77118663
No	 1.02179398	 -1.26542622	 17.92592926
No	 2.60868624	 0.74885105	 17.08067188
No	 4.19557849	 2.76312833	 16.23541451
No	 -5.76751901	 -6.80268519	 22.17021863
No	 -4.18062675	 -4.78840791	 21.32496126
No	 -2.59373449	 -2.77413064	 20.47970388
No	 -1.00684223	 -0.75985337	 19.63444651
No	 0.58005002	 1.25442391	 18.78918913
No	 2.16694228	 3.26870118	 17.94393176
No	 3.75383454	 5.28297845	 17.09867438
No	 -7.79615522	 -6.29711233	 23.87873588
No	 -6.20926296	 -4.28283506	 23.03347851
No	 -4.62237071	 -2.26855779	 22.18822113
No	 -3.03547845	 -0.25428051	 21.34296376
No	 -1.44858619	 1.75999676	 20.49770638
No	 0.13830606	 3.77427403	 19.65244901
No	 1.72519832	 5.78855131	 18.80719163
No	 3.31209058	 7.80282858	 17.96193426
No	 -9.82479144	 -5.79153948	 25.58725313
No	 -8.23789918	 -3.77726221	 24.74199576
No	 -6.65100692	 -1.76298493	 23.89673838
No	 -5.06411467	 0.25129234	 23.05148101
No	 -3.47722241	 2.26556961	 22.20622363
No	 -1.89033015	 4.27984689	 21.36096626
No	 -0.30343789	 6.29412416	 20.51570889
No	 1.28345436	 8.30840143	 19.67045151
No	 2.87034662	 10.32267871	 18.82519414
No	 0.69595761	 11.67912397	 17.97543614
No	 -0.89093465	 9.66484670	 18.82069351
No	 -1.03668745	 10.51571911	 16.26241826
No	 -2.47782691	 7.65056943	 19.66595089
No	 -2.62357970	 8.50144184	 17.10767563
No	 -2.76933250	 9.35231425	 14.54940038
No	 -4.06471916	 5.63629215	 20.51120826
No	 -4.21047196	 6.48716457	 17.95293301
No	 -4.35622476	 7.33803698	 15.39465776
No	 -4.50197756	 8.18890939	 12.83638251
No	 -5.65161142	 3.62201488	 21.35646563
No	 -5.79736422	 4.47288729	 18.79819038
No	 -5.94311702	 5.32375971	 16.23991513
No	 -6.08886982	 6.17463212	 13.68163988
No	 -6.23462261	 7.02550453	 11.12336463
No	 -7.23850368	 1.60773761	 22.20172301
No	 -7.38425648	 2.45861002	 19.64344776
No	 -7.53000927	 3.30948243	 17.08517251
No	 -7.67576207	 4.16035485	 14.52689726
No	 -7.82151487	 5.01122726	 11.96862201
No	 -7.96726767	 5.86209967	 9.41034676
No	 -8.82539594	 -0.40653967	 23.04698038
No	 -8.97114873	 0.44433275	 20.48870513
No	 -9.11690153	 1.29520516	 17.93042988
No	 -9.26265433	 2.14607757	 15.37215463
No	 -9.40840713	 2.99694999	 12.81387938
No	 -9.55415993	 3.84782240	 10.25560413
No	 -9.69991272	 4.69869481	 7.69732888
No	 -10.41228819	 -2.42081694	 23.89223776
No	 -10.55804099	 -1.56994453	 21.33396251
No	 -10.70379379	 -0.71907211	 18.77568726
No	 -10.84954659	 0.13180030	 16.21741201
No	 -10.99529938	 0.98267271	 13.65913676
No	 -11.14105218	 1.83354512	 11.10086150
No	 -11.28680498	 2.68441754	 8.54258625
No	 -11.43255778	 3.53528995	 5.98431100
No	 -11.99918045	 -4.43509421	 24.73749513
No	 -12.14493325	 -3.58422180	 22.17921988
No	 -12.29068605	 -2.73334939	 19.62094463
No	 -12.43643884	 -1.88247698	 17.06266938
No	 -12.58219164	 -1.03160456	 14.50439413
No	 -12.72794444	 -0.18073215	 11.94611888
No	 -12.87369724	 0.67014026	 9.38784363
No	 -13.01945004	 1.52101268	 6.82956838
No	 -13.16520283	 2.37188509	 4.27129313
No	 -12.72345888	 -0.14796504	 3.40803325
No	 -12.57770608	 -0.99883745	 5.96630850
No	 -10.54906986	 -1.50441030	 4.25779125
No	 -12.43195328	 -1.84970986	 8.52458375
No	 -10.40331706	 -2.35528272	 6.81606650
No	 -8.37468085	 -2.86085557	 5.10754925
No	 -12.28620048	 -2.70058228	 11.08285900
No	 -10.25756427	 -3.20615513	 9.37434175
No	 -8.22892805	 -3.71172798	 7.66582450
No	 -6.20029184	 -4.21730084	 5.95730725
No	 -12.14044768	 -3.55145469	 13.64113425
No	 -10.11181147	 -4.05702754	 11.93261700
No	 -8.08317525	 -4.56260040	 10.22409975
No	 -6.05453904	 -5.06817325	 8.51558250
No	 -4.02590282	 -5.57374610	 6.80706525
No	 -11.99469489	 -4.40232710	 16.19940950
No	 -9.96605867	 -4.90789996	 14.49089225
No	 -7.93742245	 -5.41347281	 12.78237500
No	 -5.90878624	 -5.91904566	 11.07385775
No	 -3.88015002	 -6.42461851	 9.36534050
No	 -1.85151381	 -6.93019137	 7.65682325
No	 -11.84894209	 -5.25319952	 18.75768475
No	 -9.82030587	 -5.75877237	 17.04916750
No	 -7.79166966	 -6.26434522	 15.34065025
No	 -5.76303344	 -6.76991807	 13.63213300
No	 -3.73439723	 -7.27549093	 11.92361575
No	 -1.70576101	 -7.78106378	 10.21509850
No	 0.32287520	 -8.28663663	 8.50658125
No	 -11.70318929	 -6.10407193	 21.31596001
No	 -9.67455307	 -6.60964478	 19.60744275
No	 -7.64591686	 -7.11521763	 17.89892550
No	 -5.61728064	 -7.62079049	 16.19040825
No	 -3.58864443	 -8.12636334	 14.48189100
No	 -1.56000821	 -8.63193619	 12.77337375
No	 0.46862800	 -9.13750905	 11.06485650
No	 2.49726422	 -9.64308190	 9.35633925
No	 -11.55743649	 -6.95494434	 23.87423526
No	 -9.52880028	 -7.46051719	 22.16571801
No	 -7.50016406	 -7.96609005	 20.45720075
No	 -5.47152785	 -8.47166290	 18.74868350
No	 -3.44289163	 -8.97723575	 17.04016625
No	 -1.41425542	 -9.48280861	 15.33164900
No	 0.61438080	 -9.98838146	 13.62313175
No	 2.64301702	 -10.49395431	 11.91461450
No	 4.67165323	 -10.99952717	 10.20609725
No	 -9.97054423	 -4.94066707	 23.02897788
No	 -7.94190802	 -5.44623992	 21.32046063
No	 -8.38365198	 -2.92638979	 22.18372051
No	 -10.11629703	 -4.08979465	 20.47070263
No	 -5.91327180	 -5.95181277	 19.61194338
No	 -6.35501576	 -3.43196265	 20.47520326
No	 -8.08766082	 -4.59536751	 18.76218538
No	 -6.79675972	 -0.91211252	 21.33846313
No	 -8.52940478	 -2.07551738	 19.62544526
No	 -10.26204983	 -3.23892224	 17.91242738
No	 -3.88463559	 -6.45738563	 17.90342613
No	 -4.32637955	 -3.93753550	 18.76668601
No	 -6.05902460	 -5.10094036	 17.05366813
No	 -4.76812351	 -1.41768537	 19.62994588
No	 -6.50076856	 -2.58109023	 17.91692801
No	 -8.23341362	 -3.74449509	 16.20391013
No	 -5.20986746	 1.10216475	 20.49320576
No	 -6.94251252	 -0.06124011	 18.78018788
No	 -8.67515757	 -1.22464497	 17.06717001
No	 -10.40780263	 -2.38804983	 15.35415213
No	 -1.85599937	 -6.96295848	 16.19490888
No	 -2.29774333	 -4.44310835	 17.05816875
No	 -4.03038839	 -5.60651321	 15.34515088
No	 -2.73948729	 -1.92325823	 17.92142863
No	 -4.47213234	 -3.08666309	 16.20841075
No	 -6.20477740	 -4.25006795	 14.49539288
No	 -3.18123125	 0.59659190	 18.78468851
No	 -4.91387630	 -0.56681296	 17.07167063
No	 -6.64652136	 -1.73021782	 15.35865276
No	 -8.37916641	 -2.89362268	 13.64563488
No	 -3.62297521	 3.11644203	 19.64794838
No	 -5.35562026	 1.95303717	 17.93493051
No	 -7.08826532	 0.78963231	 16.22191263
No	 -8.82091037	 -0.37377255	 14.50889476
No	 -10.55355543	 -1.53717742	 12.79587688
No	 0.17263684	 -7.46853133	 14.48639163
No	 -0.26910712	 -4.94868121	 15.34965150
No	 -2.00175217	 -6.11208607	 13.63663363
No	 -0.71085107	 -2.42883108	 16.21291138
No	 -2.44349613	 -3.59223594	 14.49989350
No	 -4.17614118	 -4.75564080	 12.78687563
No	 -1.15259503	 0.09101905	 17.07617126
No	 -2.88524009	 -1.07238581	 15.36315338
No	 -4.61788514	 -2.23579067	 13.65013550
No	 -6.35053020	 -3.39919553	 11.93711763
No	 -1.59433899	 2.61086917	 17.93943113
No	 -3.32698405	 1.44746431	 16.22641326
No	 -5.05962910	 0.28405945	 14.51339538
No	 -6.79227416	 -0.87934541	 12.80037750
No	 -8.52491921	 -2.04275027	 11.08735963
No	 -2.03608295	 5.13071930	 18.80269101
No	 -3.76872800	 3.96731444	 17.08967313
No	 -5.50137306	 2.80390958	 15.37665526
No	 -7.23401811	 1.64050472	 13.66363738
No	 -8.96666317	 0.47709986	 11.95061950
No	 -10.69930822	 -0.68630500	 10.23760163
No	 2.20127306	 -7.97410419	 12.77787438
No	 1.75952910	 -5.45425406	 13.64113425
No	 0.02688404	 -6.61765892	 11.92811638
No	 1.31778514	 -2.93440393	 14.50439413
No	 -0.41485991	 -4.09780879	 12.79137625
No	 -2.14750497	 -5.26121365	 11.07835838
No	 0.87604118	 -0.41455381	 15.36765401
No	 -0.85660387	 -1.57795867	 13.65463613
No	 -2.58924893	 -2.74136353	 11.94161825
No	 -4.32189398	 -3.90476839	 10.22860038
No	 0.43429722	 2.10529632	 16.23091388
No	 -1.29834783	 0.94189146	 14.51789601
No	 -3.03099289	 -0.22151340	 12.80487813
No	 -4.76363794	 -1.38491826	 11.09186025
No	 -6.49628300	 -2.54832312	 9.37884238
No	 -0.00744673	 4.62514645	 17.09417376
No	 -1.74009179	 3.46174159	 15.38115588
No	 -3.47273684	 2.29833673	 13.66813801
No	 -5.20538190	 1.13493187	 11.95512013
No	 -6.93802695	 -0.02847299	 10.24210225
No	 -8.67067201	 -1.19187786	 8.52908438
No	 -0.44919069	 7.14499657	 17.95743363
No	 -2.18183575	 5.98159171	 16.24441576
No	 -3.91448080	 4.81818685	 14.53139788
No	 -5.64712586	 3.65478199	 12.81838001
No	 -7.37977091	 2.49137713	 11.10536213
No	 -9.11241597	 1.32797227	 9.39234425
No	 -10.84506102	 0.16456741	 7.67932638
No	 4.22990927	 -8.47967704	 11.06935713
No	 3.78816531	 -5.95982691	 11.93261700
No	 2.05552026	 -7.12323177	 10.21959913
No	 3.34642136	 -3.43997679	 12.79587688
No	 1.61377630	 -4.60338165	 11.08285900
No	 -0.11886875	 -5.76678651	 9.36984113
No	 2.90467740	 -0.92012666	 13.65913676
No	 1.17203234	 -2.08353152	 11.94611888
No	 -0.56061271	 -3.24693638	 10.23310100
No	 -2.29325777	 -4.41034124	 8.52008313
No	 2.46293344	 1.59972347	 14.52239663
No	 0.73028838	 0.43631861	 12.80937876
No	 -1.00235667	 -0.72708625	 11.09636088
No	 -2.73500173	 -1.89049111	 9.38334300
No	 -4.46764678	 -3.05389597	 7.67032513
No	 2.02118948	 4.11957359	 15.38565651
No	 0.28854443	 2.95616873	 13.67263863
No	 -1.44410063	 1.79276387	 11.95962076
No	 -3.17674568	 0.62935901	 10.24660288
No	 -4.90939074	 -0.53404585	 8.53358500
No	 -6.64203579	 -1.69745071	 6.82056713
No	 1.57944552	 6.63942372	 16.24891638
No	 -0.15319953	 5.47601886	 14.53589851
No	 -1.88584459	 4.31261400	 12.82288063
No	 -3.61848964	 3.14920914	 11.10986276
No	 -5.35113470	 1.98580428	 9.39684488
No	 -7.08377975	 0.82239942	 7.68382700
No	 -8.81642481	 -0.34100544	 5.97080913
No	 1.13770157	 9.15927385	 17.11217626
No	 -0.59494349	 7.99586899	 15.39915838
No	 -2.32758854	 6.83246413	 13.68614051
No	 -4.06023360	 5.66905927	 11.97312263
No	 -5.79287865	 4.50565441	 10.26010476
No	 -7.52552371	 3.34224955	 8.54708688
No	 -9.25816876	 2.17884468	 6.83406900
No	 -10.99081382	 1.01543982	 5.12105113
Au	 14.67683633	 -5.59600803	 37.55437493
No	 -10.88421480	 -7.14531337	 28.99678659
Au	 4.98470778	 12.99745937	 20.54421285
Au	 9.40214736	 -12.20104190	 11.91161408
No	 -8.32810968	 -6.99038283	 29.85254543
Au	 5.95392063	 11.13811263	 22.24522905
Au	 9.92961625	 -11.54053851	 14.47589017
No	 -5.77200457	 -6.83545230	 30.70830426
Au	 6.92313349	 9.27876589	 23.94624526
Au	 10.45708515	 -10.88003513	 17.04016625
No	 -3.21589946	 -6.68052177	 31.56406309
Au	 7.89234634	 7.41941915	 25.64726147
Au	 10.98455405	 -10.21953174	 19.60444234
No	 -0.65979434	 -6.52559123	 32.41982193
Au	 8.86155920	 5.56007241	 27.34827768
Au	 11.51202295	 -9.55902835	 22.16871842
No	 1.89631077	 -6.37066070	 33.27558076
Au	 9.83077205	 3.70072567	 29.04929389
Au	 12.03949184	 -8.89852497	 24.73299451
No	 4.45241588	 -6.21573017	 34.13133959
Au	 10.79998491	 1.84137893	 30.75031010
Au	 12.56696074	 -8.23802158	 27.29727059
No	 7.00852099	 -6.06079963	 34.98709843
Au	 11.76919777	 -0.01796781	 32.45132630
Au	 13.09442964	 -7.57751819	 29.86154668
No	 9.56462611	 -5.90586910	 35.84285726
Au	 12.73841062	 -1.87731455	 34.15234251
Au	 13.62189854	 -6.91701480	 32.42582276
No	 12.12073122	 -5.75093856	 36.69861610
Au	 13.70762348	 -3.73666129	 35.85335872
Au	 14.14936743	 -6.25651142	 34.99009885
No	 3.39781552	 10.98318209	 21.38947022
No	 1.81092326	 8.96890482	 22.23472760
No	 4.36702837	 9.12383535	 23.09048643
No	 0.22403100	 6.95462755	 23.07998497
No	 2.78013612	 7.10955808	 23.93574380
No	 5.33624123	 7.26448861	 24.79150264
No	 -1.36286125	 4.94035027	 23.92524234
No	 1.19324386	 5.09528081	 24.78100118
No	 3.74934897	 5.25021134	 25.63676001
No	 6.30545409	 5.40514187	 26.49251885
No	 -2.94975351	 2.92607300	 24.77049972
No	 -0.39364840	 3.08100353	 25.62625855
No	 2.16245672	 3.23593407	 26.48201739
No	 4.71856183	 3.39086460	 27.33777622
No	 7.27466694	 3.54579513	 28.19353505
No	 -4.53664577	 0.91179573	 25.61575709
No	 -1.98054065	 1.06672626	 26.47151593
No	 0.57556446	 1.22165679	 27.32727476
No	 3.13166957	 1.37658733	 28.18303359
No	 5.68777468	 1.53151786	 29.03879243
No	 8.24387980	 1.68644839	 29.89455126
No	 -6.12353802	 -1.10248155	 26.46101447
No	 -3.56743291	 -0.94755101	 27.31677330
No	 -1.01132780	 -0.79262048	 28.17253214
No	 1.54477731	 -0.63768995	 29.02829097
No	 4.10088243	 -0.48275941	 29.88404980
No	 6.65698754	 -0.32782888	 30.73980864
No	 9.21309265	 -0.17289834	 31.59556747
No	 -7.71043028	 -3.11675882	 27.30627184
No	 -5.15432517	 -2.96182829	 28.16203068
No	 -2.59822006	 -2.80689775	 29.01778951
No	 -0.04211494	 -2.65196722	 29.87354834
No	 2.51399017	 -2.49703669	 30.72930718
No	 5.07009528	 -2.34210615	 31.58506601
No	 7.62620040	 -2.18717562	 32.44082485
No	 10.18230551	 -2.03224508	 33.29658368
No	 -9.29732254	 -5.13103609	 28.15152922
No	 -6.74121743	 -4.97610556	 29.00728805
No	 -4.18511231	 -4.82117503	 29.86304688
No	 -1.62900720	 -4.66624449	 30.71880572
No	 0.92709791	 -4.51131396	 31.57456455
No	 3.48320303	 -4.35638343	 32.43032339
No	 6.03930814	 -4.20145289	 33.28608222
No	 8.59541325	 -4.04652236	 34.14184105
No	 11.15151836	 -3.89159182	 34.99759989
No	 11.59326232	 -6.41144195	 34.13434001
No	 9.03715721	 -6.56637249	 33.27858118
No	 11.06579342	 -7.07194534	 31.57006393
No	 6.48105210	 -6.72130302	 32.42282234
No	 8.50968831	 -7.22687587	 30.71430509
No	 10.53832453	 -7.73244873	 29.00578784
No	 3.92494698	 -6.87623355	 31.56706351
No	 5.95358320	 -7.38180641	 29.85854626
No	 7.98221941	 -7.88737926	 28.15002901
No	 10.01085563	 -8.39295211	 26.44151176
No	 1.36884187	 -7.03116409	 30.71130468
No	 3.39747809	 -7.53673694	 29.00278743
No	 5.42611430	 -8.04230979	 27.29427017
No	 7.45475052	 -8.54788265	 25.58575292
No	 9.48338673	 -9.05345550	 23.87723567
No	 -1.18726324	 -7.18609462	 29.85554584
No	 0.84137297	 -7.69166747	 28.14702859
No	 2.87000919	 -8.19724033	 26.43851134
No	 4.89864540	 -8.70281318	 24.72999409
No	 6.92728162	 -9.20838603	 23.02147684
No	 8.95591783	 -9.71395889	 21.31295959
No	 -3.74336836	 -7.34102515	 28.99978701
No	 -1.71473214	 -7.84659801	 27.29126976
No	 0.31390408	 -8.35217086	 25.58275251
No	 2.34254029	 -8.85774371	 23.87423526
No	 4.37117651	 -9.36331657	 22.16571801
No	 6.39981272	 -9.86888942	 20.45720075
No	 8.42844894	 -10.37446227	 18.74868350
No	 -6.29947347	 -7.49595569	 28.14402817
No	 -4.27083725	 -8.00152854	 26.43551092
No	 -2.24220104	 -8.50710139	 24.72699367
No	 -0.21356482	 -9.01267425	 23.01847642
No	 1.81507139	 -9.51824710	 21.30995917
No	 3.84370761	 -10.02381995	 19.60144192
No	 5.87234382	 -10.52939281	 17.89292467
No	 7.90098004	 -11.03496566	 16.18440742
No	 -8.85557858	 -7.65088622	 27.28826934
No	 -6.82694237	 -8.15645907	 25.57975209
No	 -4.79830615	 -8.66203193	 23.87123484
No	 -2.76966994	 -9.16760478	 22.16271759
No	 -0.74103372	 -9.67317763	 20.45420034
No	 1.28760250	 -10.17875049	 18.74568309
No	 3.31623871	 -10.68432334	 17.03716584
No	 5.34487493	 -11.18989619	 15.32864859
No	 7.37351114	 -11.69546905	 13.62013133
No	 8.96040340	 -9.68119177	 12.77487396
No	 8.51865944	 -7.16134165	 13.63813384
No	 9.48787230	 -9.02068839	 15.33915004
No	 8.07691548	 -4.64149152	 14.50139371
No	 9.04612834	 -6.50083826	 16.20240992
No	 10.01534119	 -8.36018500	 17.90342613
No	 7.63517152	 -2.12164139	 15.36465359
No	 8.60438438	 -3.98098813	 17.06566980
No	 9.57359724	 -5.84033487	 18.76668601
No	 10.54281009	 -7.69968161	 20.46770221
No	 7.19342757	 0.39820873	 16.22791347
No	 8.16264042	 -1.46113801	 17.92892967
No	 9.13185328	 -3.32048475	 19.62994588
No	 10.10106613	 -5.17983149	 21.33096209
No	 11.07027899	 -7.03917823	 23.03197830
No	 6.75168361	 2.91805886	 17.09117334
No	 7.72089646	 1.05871212	 18.79218955
No	 8.69010932	 -0.80063462	 20.49320576
No	 9.65932217	 -2.65998136	 22.19422197
No	 10.62853503	 -4.51932810	 23.89523817
No	 11.59774789	 -6.37867484	 25.59625438
No	 6.30993965	 5.43790899	 17.95443322
No	 7.27915251	 3.57856225	 19.65544943
No	 8.24836536	 1.71921551	 21.35646563
No	 9.21757822	 -0.14013123	 23.05748184
No	 10.18679107	 -1.99947797	 24.75849805
No	 11.15600393	 -3.85882471	 26.45951426
No	 12.12521678	 -5.71817145	 28.16053047
No	 5.86819569	 7.95775911	 18.81769309
No	 6.83740855	 6.09841237	 20.51870930
No	 7.80662140	 4.23906563	 22.21972551
No	 8.77583426	 2.37971889	 23.92074172
No	 9.74504711	 0.52037215	 25.62175793
No	 10.71425997	 -1.33897459	 27.32277414
No	 11.68347283	 -3.19832132	 29.02379034
No	 12.65268568	 -5.05766806	 30.72480655
No	 5.42645173	 10.47760924	 19.68095297
No	 6.39566459	 8.61826250	 21.38196918
No	 7.36487744	 6.75891576	 23.08298539
No	 8.33409030	 4.89956902	 24.78400160
No	 9.30330316	 3.04022228	 26.48501780
No	 10.27251601	 1.18087554	 28.18603401
No	 11.24172887	 -0.67847120	 29.88705022
No	 12.21094172	 -2.53781794	 31.58806643
No	 13.18015458	 -4.39716468	 33.28908264
No	 -7.26868632	 -5.63660895	 26.44301197
No	 -5.24005011	 -6.14218180	 24.73449472
No	 -5.68179407	 -3.62233167	 25.59775459
No	 -4.71258121	 -5.48167841	 27.29877080
No	 -3.21141389	 -6.64775465	 23.02597746
No	 -3.65315785	 -4.12790453	 23.88923734
No	 -2.68394500	 -5.98725127	 25.59025355
No	 -4.09490181	 -1.60805440	 24.75249722
No	 -3.12568895	 -3.46740114	 26.45351343
No	 -2.15647610	 -5.32674788	 28.15452963
No	 -1.18277768	 -7.15332751	 21.31746021
No	 -1.62452164	 -4.63347738	 22.18072009
No	 -0.65530878	 -6.49282412	 23.88173630
No	 -2.06626559	 -2.11362725	 23.04397997
No	 -1.09705274	 -3.97297399	 24.74499617
No	 -0.12783988	 -5.83232073	 26.44601238
No	 -2.50800955	 0.40622287	 23.90723984
No	 -1.53879670	 -1.45312387	 25.60825605
No	 -0.56958384	 -3.31247061	 27.30927226
No	 0.39962901	 -5.17181735	 29.01028847
No	 0.84585854	 -7.65890036	 19.60894296
No	 0.40411458	 -5.13905023	 20.47220284
No	 1.37332743	 -6.99839697	 22.17321905
No	 -0.03762938	 -2.61920011	 21.33546272
No	 0.93158348	 -4.47854685	 23.03647892
No	 1.90079633	 -6.33789359	 24.73749513
No	 -0.47937334	 -0.09934998	 22.19872259
No	 0.48983952	 -1.95869672	 23.89973880
No	 1.45905237	 -3.81804346	 25.60075501
No	 2.42826523	 -5.67739020	 27.30177122
No	 -0.92111730	 2.42050015	 23.06198247
No	 0.04809556	 0.56115341	 24.76299868
No	 1.01730842	 -1.29819333	 26.46401488
No	 1.98652127	 -3.15754007	 28.16503109
No	 2.95573413	 -5.01688681	 29.86604730
No	 2.87449475	 -8.16447321	 17.90042571
No	 2.43275079	 -5.64462309	 18.76368559
No	 3.40196365	 -7.50396983	 20.46470180
No	 1.99100684	 -3.12477296	 19.62694546
No	 2.96021969	 -4.98411970	 21.32796167
No	 3.92943255	 -6.84346644	 23.02897788
No	 1.54926288	 -0.60492283	 20.49020534
No	 2.51847573	 -2.46426957	 22.19122155
No	 3.48768859	 -4.32361631	 23.89223776
No	 4.45690145	 -6.18296305	 25.59325397
No	 1.10751892	 1.91492729	 21.35346522
No	 2.07673178	 0.05558055	 23.05448143
No	 3.04594463	 -1.80376619	 24.75549763
No	 4.01515749	 -3.66311293	 26.45651384
No	 4.98437034	 -5.52245967	 28.15753005
No	 0.66577496	 4.43477742	 22.21672509
No	 1.63498782	 2.57543068	 23.91774130
No	 2.60420067	 0.71608394	 25.61875751
No	 3.57341353	 -1.14326280	 27.31977372
No	 4.54262638	 -3.00260954	 29.02078993
No	 5.51183924	 -4.86195628	 30.72180614
No	 4.90313097	 -8.67004607	 16.19190846
No	 4.46138701	 -6.15019594	 17.05516834
No	 5.43059987	 -8.00954268	 18.75618455
No	 4.01964305	 -3.63034581	 17.91842821
No	 4.98885591	 -5.48969255	 19.61944442
No	 5.95806876	 -7.34903929	 21.32046063
No	 3.57789909	 -1.11049569	 18.78168809
No	 4.54711195	 -2.96984243	 20.48270430
No	 5.51632480	 -4.82918917	 22.18372051
No	 6.48553766	 -6.68853591	 23.88473672
No	 3.13615514	 1.40935444	 19.64494797
No	 4.10536799	 -0.44999230	 21.34596417
No	 5.07458085	 -2.30933904	 23.04698038
No	 6.04379370	 -4.16868578	 24.74799659
No	 7.01300656	 -6.02803252	 26.44901280
No	 2.69441118	 3.92920457	 20.50820784
No	 3.66362403	 2.06985783	 22.20922405
No	 4.63283689	 0.21051109	 23.91024026
No	 5.60204974	 -1.64883565	 25.61125647
No	 6.57126260	 -3.50818239	 27.31227268
No	 7.54047546	 -5.36752913	 29.01328888
No	 2.25266722	 6.44905469	 21.37146772
No	 3.22188007	 4.58970795	 23.07248393
No	 4.19109293	 2.73036121	 24.77350014
No	 5.16030579	 0.87101447	 26.47451634
No	 6.12951864	 -0.98833227	 28.17553255
No	 7.09873150	 -2.84767901	 29.87654876
No	 8.06794435	 -4.70702575	 31.57756497
No	 6.93176718	 -9.17561892	 14.48339121
No	 6.49002323	 -6.65576879	 15.34665109
No	 7.45923608	 -8.51511553	 17.04766730
No	 6.04827927	 -4.13591867	 16.20991096
No	 7.01749212	 -5.99526541	 17.91092717
No	 7.98670498	 -7.85461215	 19.61194338
No	 5.60653531	 -1.61606854	 17.07317084
No	 6.57574816	 -3.47541528	 18.77418705
No	 7.54496102	 -5.33476202	 20.47520326
No	 8.51417388	 -7.19410876	 22.17621946
No	 5.16479135	 0.90378159	 17.93643072
No	 6.13400421	 -0.95556515	 19.63744692
No	 7.10321706	 -2.81491189	 21.33846313
No	 8.07242992	 -4.67425863	 23.03947934
No	 9.04164277	 -6.53360537	 24.74049555
No	 4.72304739	 3.42363171	 18.79969059
No	 5.69226025	 1.56428497	 20.50070680
No	 6.66147310	 -0.29506177	 22.20172301
No	 7.63068596	 -2.15440851	 23.90273922
No	 8.59989882	 -4.01375525	 25.60375543
No	 9.56911167	 -5.87310199	 27.30477163
No	 4.28130343	 5.94348184	 19.66295047
No	 5.25051629	 4.08413510	 21.36396668
No	 6.21972915	 2.22478836	 23.06498289
No	 7.18894200	 0.36544162	 24.76599909
No	 8.15815486	 -1.49390512	 26.46701530
No	 9.12736771	 -3.35325186	 28.16803151
No	 10.09658057	 -5.21259860	 29.86904772
No	 3.83955948	 8.46333197	 20.52621034
No	 4.80877233	 6.60398523	 22.22722655
No	 5.77798519	 4.74463849	 23.92824276
No	 6.74719804	 2.88529175	 25.62925897
No	 7.71641090	 1.02594501	 27.33027518
No	 8.68562375	 -0.83340173	 29.03129139
No	 9.65483661	 -2.69274847	 30.73230759
No	 10.62404947	 -4.55209521	 32.43332380
Au	 -5.37333756	 14.16858140	 47.01172822
Au	 -12.70695788	 -5.34853251	 29.85654598
Au	 3.16196469	 14.79424023	 21.40397224
No	 -3.55059448	 12.37180055	 46.15196883
Au	 -11.97359585	 -3.39682112	 31.57206420
Au	 2.30843447	 14.73167434	 23.96474783
No	 -1.72785140	 10.57501969	 45.29220944
Au	 -11.24023382	 -1.44510973	 33.28758243
Au	 1.45490424	 14.66910846	 26.52552343
No	 0.09489168	 8.77823883	 44.43245005
Au	 -10.50687178	 0.50660166	 35.00310065
Au	 0.60137402	 14.60654258	 29.08629903
No	 1.91763476	 6.98145797	 43.57269066
Au	 -9.77350975	 2.45831306	 36.71861888
Au	 -0.25215621	 14.54397670	 31.64707463
No	 3.74037784	 5.18467712	 42.71293127
Au	 -9.04014772	 4.41002445	 38.43413710
Au	 -1.10568644	 14.48141081	 34.20785023
No	 5.56312092	 3.38789626	 41.85317188
Au	 -8.30678569	 6.36173584	 40.14965532
Au	 -1.95921666	 14.41884493	 36.76862582
No	 7.38586401	 1.59111540	 40.99341249
Au	 -7.57342366	 8.31344723	 41.86517355
Au	 -2.81274689	 14.35627905	 39.32940142
No	 9.20860709	 -0.20566546	 40.13365310
Au	 -6.84006163	 10.26515862	 43.58069177
Au	 -3.66627711	 14.29371317	 41.89017702
No	 11.03135017	 -2.00244632	 39.27389371
Au	 -6.10669960	 12.21687001	 45.29620999
Au	 -4.51980734	 14.23114729	 44.45095262
No	 12.85409325	 -3.79922717	 38.41413432
No	 -5.25316937	 12.27943589	 42.73543440
No	 -5.98653140	 10.32772450	 41.01991617
No	 -4.39963914	 12.34200178	 40.17465880
No	 -6.71989343	 8.37601311	 39.30439795
No	 -5.13300118	 10.39029039	 38.45914057
No	 -3.54610892	 12.40456766	 37.61388320
No	 -7.45325546	 6.42430172	 37.58887972
No	 -5.86636321	 8.43857899	 36.74362235
No	 -4.27947095	 10.45285627	 35.89836498
No	 -2.69257869	 12.46713354	 35.05310760
No	 -8.18661750	 4.47259033	 35.87336150
No	 -6.59972524	 6.48686760	 35.02810413
No	 -5.01283298	 8.50114488	 34.18284675
No	 -3.42594072	 10.51542215	 33.33758938
No	 -1.83904847	 12.52969942	 32.49233200
No	 -8.91997953	 2.52087894	 34.15784328
No	 -7.33308727	 4.53515621	 33.31258590
No	 -5.74619501	 6.54943348	 32.46732853
No	 -4.15930276	 8.56371076	 31.62207115
No	 -2.57241050	 10.57798803	 30.77681378
No	 -0.98551824	 12.59226531	 29.93155640
No	 -9.65334156	 0.56916755	 32.44232505
No	 -8.06644930	 2.58344482	 31.59706768
No	 -6.47955704	 4.59772209	 30.75181030
No	 -4.89266479	 6.61199937	 29.90655293
No	 -3.30577253	 8.62627664	 29.06129556
No	 -1.71888027	 10.64055391	 28.21603818
No	 -0.13198801	 12.65483119	 27.37078081
No	 -10.38670359	 -1.38254385	 30.72680683
No	 -8.79981133	 0.63173343	 29.88154946
No	 -7.21291908	 2.64601070	 29.03629208
No	 -5.62602682	 4.66028798	 28.19103471
No	 -4.03913456	 6.67456525	 27.34577733
No	 -2.45224230	 8.68884252	 26.50051996
No	 -0.86535005	 10.70311980	 25.65526258
No	 0.72154221	 12.71739707	 24.81000521
No	 -11.12006562	 -3.33425524	 29.01128861
No	 -9.53317336	 -1.31997796	 28.16603123
No	 -7.94628111	 0.69429931	 27.32077386
No	 -6.35938885	 2.70857658	 26.47551648
No	 -4.77249659	 4.72285386	 25.63025911
No	 -3.18560433	 6.73713113	 24.78500173
No	 -1.59871208	 8.75140840	 23.93974436
No	 -0.01181982	 10.76568568	 23.09448698
No	 1.57507244	 12.77996295	 22.24922961
No	 10.29798814	 -3.95415771	 37.55837549
No	 7.74188303	 -4.10908824	 36.70261665
No	 8.47524506	 -2.15737685	 38.41813488
No	 5.18577791	 -4.26401877	 35.84685782
No	 5.91913994	 -2.31230738	 37.56237604
No	 6.65250197	 -0.36059599	 39.27789427
No	 2.62967280	 -4.41894931	 34.99109898
No	 3.36303483	 -2.46723792	 36.70661721
No	 4.09639686	 -0.51552653	 38.42213543
No	 4.82975889	 1.43618487	 40.13765366
No	 0.07356769	 -4.57387984	 34.13534015
No	 0.80692972	 -2.62216845	 35.85085837
No	 1.54029175	 -0.67045706	 37.56637660
No	 2.27365378	 1.28125433	 39.28189482
No	 3.00701581	 3.23296572	 40.99741304
No	 -2.48253743	 -4.72881038	 33.27958132
No	 -1.74917540	 -2.77709898	 34.99509954
No	 -1.01581336	 -0.82538759	 36.71061776
No	 -0.28245133	 1.12632380	 38.42613599
No	 0.45091070	 3.07803519	 40.14165421
No	 1.18427273	 5.02974658	 41.85717243
No	 -5.03864254	 -4.88374091	 32.42382248
No	 -4.30528051	 -2.93202952	 34.13934071
No	 -3.57191848	 -0.98031813	 35.85485893
No	 -2.83855645	 0.97139327	 37.57037715
No	 -2.10519441	 2.92310466	 39.28589538
No	 -1.37183238	 4.87481605	 41.00141360
No	 -0.63847035	 6.82652744	 42.71693182
No	 -7.59474765	 -5.03867144	 31.56806365
No	 -6.86138562	 -3.08696005	 33.28358187
No	 -6.12802359	 -1.13524866	 34.99910010
No	 -5.39466156	 0.81646273	 36.71461832
No	 -4.66129953	 2.76817412	 38.43013654
No	 -3.92793750	 4.71988551	 40.14565477
No	 -3.19457546	 6.67159691	 41.86117299
No	 -2.46121343	 8.62330830	 43.57669121
No	 -10.15085276	 -5.19360198	 30.71230482
No	 -9.41749073	 -3.24189059	 32.42782304
No	 -8.68412870	 -1.29017919	 34.14334126
No	 -7.95076667	 0.66153220	 35.85885949
No	 -7.21740464	 2.61324359	 37.57437771
No	 -6.48404261	 4.56495498	 39.28989593
No	 -5.75068058	 6.51666637	 41.00541416
No	 -5.01731855	 8.46837776	 42.72093238
No	 -4.28395651	 10.42008915	 44.43645060
No	 -2.69706426	 12.43436643	 43.59119323
No	 -1.84353403	 12.49693231	 41.03041763
No	 -0.87432118	 10.63758557	 42.73143384
No	 -0.99000381	 12.55949819	 38.46964203
No	 -0.02079095	 10.70015145	 40.17065824
No	 0.94842191	 8.84080471	 41.87167445
No	 -0.13647358	 12.62206407	 35.90886644
No	 0.83273928	 10.76271733	 37.60988264
No	 1.80195213	 8.90337060	 39.31089885
No	 2.77116499	 7.04402386	 41.01191506
No	 0.71705665	 12.68462996	 33.34809084
No	 1.68626950	 10.82528322	 35.04910705
No	 2.65548236	 8.96593648	 36.75012325
No	 3.62469521	 7.10658974	 38.45113946
No	 4.59390807	 5.24724300	 40.15215567
No	 1.57058687	 12.74719584	 30.78731524
No	 2.53979973	 10.88784910	 32.48833145
No	 3.50901258	 9.02850236	 34.18934766
No	 4.47822544	 7.16915562	 35.89036386
No	 5.44743829	 5.30980888	 37.59138007
No	 6.41665115	 3.45046214	 39.29239628
No	 2.42411710	 12.80976172	 28.22653964
No	 3.39332995	 10.95041498	 29.92755585
No	 4.36254281	 9.09106824	 31.62857206
No	 5.33175567	 7.23172150	 33.32958827
No	 6.30096852	 5.37237476	 35.03060447
No	 7.27018138	 3.51302802	 36.73162068
No	 8.23939423	 1.65368128	 38.43263689
No	 3.27764732	 12.87232760	 25.66576404
No	 4.24686018	 11.01298086	 27.36678025
No	 5.21607304	 9.15363412	 29.06779646
No	 6.18528589	 7.29428738	 30.76881267
No	 7.15449875	 5.43494064	 32.46982888
No	 8.12371160	 3.57559390	 34.17084508
No	 9.09292446	 1.71624716	 35.87186129
No	 10.06213731	 -0.14309958	 37.57287750
No	 4.13117755	 12.93489349	 23.10498844
No	 5.10039041	 11.07554675	 24.80600465
No	 6.06960326	 9.21620001	 26.50702086
No	 7.03881612	 7.35685327	 28.20803707
No	 8.00802897	 5.49750653	 29.90905328
No	 8.97724183	 3.63815979	 31.61006949
No	 9.94645468	 1.77881305	 33.31108569
No	 10.91566754	 -0.08053369	 35.01210190
No	 11.88488040	 -1.93988043	 36.71311811
No	 -8.56396051	 -3.17932470	 29.86704744
No	 -7.83059848	 -1.22761331	 31.58256566
No	 -6.97706825	 -1.16504743	 29.02179007
No	 -6.00785539	 -3.02439417	 30.72280627
No	 -7.09723645	 0.72409808	 33.29808389
No	 -6.24370622	 0.78666396	 30.73730829
No	 -5.27449336	 -1.07268278	 32.43832450
No	 -5.39017599	 0.84922984	 28.17653269
No	 -4.42096314	 -1.01011690	 29.87754890
No	 -3.45175028	 -2.86946364	 31.57856511
No	 -6.36387441	 2.67580947	 35.01360211
No	 -5.51034419	 2.73837535	 32.45282651
No	 -4.54113133	 0.87902861	 34.15384272
No	 -4.65681396	 2.80094124	 29.89205092
No	 -3.68760111	 0.94159450	 31.59306712
No	 -2.71838825	 -0.91775224	 33.29408333
No	 -3.80328374	 2.86350712	 27.33127532
No	 -2.83407088	 1.00416038	 29.03229153
No	 -1.86485802	 -0.85518636	 30.73330773
No	 -0.89564517	 -2.71453310	 32.43432394
No	 -5.63051238	 4.62752086	 36.72912034
No	 -4.77698216	 4.69008674	 34.16834474
No	 -3.80776930	 2.83074000	 35.86936095
No	 -3.92345193	 4.75265263	 31.60756914
No	 -2.95423908	 2.89330589	 33.30858535
No	 -1.98502622	 1.03395915	 35.00960156
No	 -3.06992170	 4.81521851	 29.04679354
No	 -2.10070885	 2.95587177	 30.74780975
No	 -1.13149599	 1.09652503	 32.44882596
No	 -0.16228314	 -0.76282171	 34.14984217
No	 -2.21639148	 4.87778439	 26.48601794
No	 -1.24717862	 3.01843765	 28.18703415
No	 -0.27796577	 1.15909091	 29.88805036
No	 0.69124709	 -0.70025583	 31.58906657
No	 1.66045994	 -2.55960257	 33.29008278
No	 -4.89715035	 6.57923225	 38.44463856
No	 -4.04362013	 6.64179814	 35.88386296
No	 -3.07440727	 4.78245140	 37.58487917
No	 -3.19008990	 6.70436402	 33.32308736
No	 -2.22087704	 4.84501728	 35.02410357
No	 -1.25166419	 2.98567054	 36.72511978
No	 -2.33655967	 6.76692990	 30.76231176
No	 -1.36734682	 4.90758316	 32.46332797
No	 -0.39813396	 3.04823642	 34.16434418
No	 0.57107889	 1.18888968	 35.86536039
No	 -1.48302945	 6.82949578	 28.20153617
No	 -0.51381659	 4.97014904	 29.90255237
No	 0.45539626	 3.11080230	 31.60356858
No	 1.42460912	 1.25145556	 33.30458479
No	 2.39382198	 -0.60789118	 35.00560100
No	 -0.62949922	 6.89206166	 25.64076057
No	 0.33971363	 5.03271493	 27.34177678
No	 1.30892649	 3.17336819	 29.04279298
No	 2.27813935	 1.31402145	 30.74380919
No	 3.24735220	 -0.54532529	 32.44482540
No	 4.21656506	 -2.40467203	 34.14584161
No	 -4.16378832	 8.53094365	 40.16015678
No	 -3.31025809	 8.59350953	 37.59938118
No	 -2.34104524	 6.73416279	 39.30039739
No	 -2.45672787	 8.65607541	 35.03860559
No	 -1.48751501	 6.79672867	 36.73962179
No	 -0.51830216	 4.93738193	 38.44063800
No	 -1.60319764	 8.71864129	 32.47782999
No	 -0.63398479	 6.85929455	 34.17884620
No	 0.33522807	 4.99994781	 35.87986240
No	 1.30444092	 3.14060107	 37.58087861
No	 -0.74966742	 8.78120717	 29.91705439
No	 0.21954544	 6.92186043	 31.61807060
No	 1.18875829	 5.06251369	 33.31908681
No	 2.15797115	 3.20316695	 35.02010301
No	 3.12718401	 1.34382021	 36.72111922
No	 0.10386281	 8.84377306	 27.35627879
No	 1.07307567	 6.98442632	 29.05729500
No	 2.04228852	 5.12507958	 30.75831121
No	 3.01150138	 3.26573284	 32.45932742
No	 3.98071423	 1.40638610	 34.16034363
No	 4.94992709	 -0.45296064	 35.86135983
No	 0.95739304	 8.90633894	 24.79550319
No	 1.92660589	 7.04699220	 26.49651940
No	 2.89581875	 5.18764546	 28.19753561
No	 3.86503160	 3.32829872	 29.89855182
No	 4.83424446	 1.46895198	 31.59956803
No	 5.80345731	 -0.39039476	 33.30058424
No	 6.77267017	 -2.24974150	 35.00160044
No	 -3.43042629	 10.48265504	 41.87567501
No	 -2.57689606	 10.54522092	 39.31489941
No	 -1.60768321	 8.68587418	 41.01591562
No	 -1.72336584	 10.60778680	 36.75412381
No	 -0.75415298	 8.74844006	 38.45514002
No	 0.21505987	 6.88909332	 40.15615623
No	 -0.86983561	 10.67035268	 34.19334821
No	 0.09937724	 8.81100594	 35.89436442
No	 1.06859010	 6.95165920	 37.59538063
No	 2.03780296	 5.09231246	 39.29639684
No	 -0.01630539	 10.73291857	 31.63257261
No	 0.95290747	 8.87357183	 33.33358882
No	 1.92212033	 7.01422509	 35.03460503
No	 2.89133318	 5.15487835	 36.73562124
No	 3.86054604	 3.29553161	 38.43663745
No	 0.83722484	 10.79548445	 29.07179702
No	 1.80643770	 8.93613771	 30.77281322
No	 2.77565055	 7.07679097	 32.47382943
No	 3.74486341	 5.21744423	 34.17484564
No	 4.71407626	 3.35809749	 35.87586185
No	 5.68328912	 1.49875075	 37.57687806
No	 1.69075507	 10.85805033	 26.51102142
No	 2.65996792	 8.99870359	 28.21203763
No	 3.62918078	 7.13935685	 29.91305383
No	 4.59839363	 5.28001011	 31.61407004
No	 5.56760649	 3.42066337	 33.31508625
No	 6.53681935	 1.56131663	 35.01610246
No	 7.50603220	 -0.29803011	 36.71711867
No	 2.54428529	 10.92061621	 23.95024582
No	 3.51349815	 9.06126947	 25.65126203
No	 4.48271100	 7.20192273	 27.35227824
No	 5.45192386	 5.34257599	 29.05329444
No	 6.42113672	 3.48322925	 30.75431065
No	 7.39034957	 1.62388251	 32.45532686
No	 8.35956243	 -0.23546423	 34.15634307
No	 9.32877528	 -2.09481097	 35.85735928
Au	 -6.77337568	 -14.00858646	 56.29489063
Au	 -12.83423407	 -7.91009323	 30.70046984
No	 -6.64609949	 -11.44702575	 55.45096678
Au	 -4.82335641	 -13.24380660	 54.59120739
Au	 -12.22814823	 -8.51994255	 33.25991192
No	 -6.51882330	 -8.88546503	 54.60704292
Au	 -2.87333713	 -12.47902675	 52.88752414
Au	 -11.62206239	 -9.12979187	 35.81935400
No	 -6.39154710	 -6.32390432	 53.76311906
Au	 -0.92331786	 -11.71424689	 51.18384090
Au	 -11.01597655	 -9.73964120	 38.37879608
No	 -6.26427091	 -3.76234360	 52.91919521
Au	 1.02670142	 -10.94946703	 49.48015765
Au	 -10.40989071	 -10.34949052	 40.93823816
No	 -6.13699472	 -1.20078289	 52.07527135
Au	 2.97672069	 -10.18468717	 47.77647440
Au	 -9.80380488	 -10.95933984	 43.49768023
No	 -6.00971853	 1.36077783	 51.23134750
Au	 4.92673996	 -9.41990732	 46.07279116
Au	 -9.19771904	 -11.56918917	 46.05712231
No	 -5.88244233	 3.92233854	 50.38742364
Au	 6.87675924	 -8.65512746	 44.36910791
Au	 -8.59163320	 -12.17903849	 48.61656439
No	 -5.75516614	 6.48389926	 49.54349979
Au	 8.82677851	 -7.89034760	 42.66542467
Au	 -7.98554736	 -12.78888781	 51.17600647
No	 -5.62788995	 9.04545997	 48.69957593
Au	 10.77679778	 -7.12556775	 40.96174142
Au	 -7.37946152	 -13.39873714	 53.73544855
No	 -5.50061376	 11.60702069	 47.85565207
Au	 12.72681706	 -6.36078789	 39.25805818
No	 -6.23397579	 9.65530930	 46.14013385
No	 -6.96733782	 7.70359791	 44.42461563
No	 -6.36125198	 7.09374858	 46.98405771
No	 -7.70069985	 5.75188651	 42.70909740
No	 -7.09461401	 5.14203719	 45.26853948
No	 -6.48852817	 4.53218787	 47.82798156
No	 -8.43406188	 3.80017512	 40.99357918
No	 -7.82797604	 3.19032580	 43.55302126
No	 -7.22189020	 2.58047648	 46.11246334
No	 -6.61580436	 1.97062715	 48.67190542
No	 -9.16742391	 1.84846373	 39.27806096
No	 -8.56133807	 1.23861441	 41.83750303
No	 -7.95525224	 0.62876508	 44.39694511
No	 -7.34916640	 0.01891576	 46.95638719
No	 -6.74308056	 -0.59093356	 49.51582927
No	 -9.90078594	 -0.10324766	 37.56254273
No	 -9.29470011	 -0.71309698	 40.12198481
No	 -8.68861427	 -1.32294631	 42.68142689
No	 -8.08252843	 -1.93279563	 45.24086897
No	 -7.47644259	 -2.54264495	 47.80031105
No	 -6.87035675	 -3.15249428	 50.35975313
No	 -10.63414798	 -2.05495905	 35.84702451
No	 -10.02806214	 -2.66480837	 38.40646659
No	 -9.42197630	 -3.27465770	 40.96590867
No	 -8.81589046	 -3.88450702	 43.52535075
No	 -8.20980462	 -4.49435635	 46.08479283
No	 -7.60371878	 -5.10420567	 48.64423491
No	 -6.99763294	 -5.71405499	 51.20367699
No	 -11.36751001	 -4.00667044	 34.13150628
No	 -10.76142417	 -4.61651977	 36.69094836
No	 -10.15533833	 -5.22636909	 39.25039044
No	 -9.54925249	 -5.83621841	 41.80983252
No	 -8.94316665	 -6.44606774	 44.36927460
No	 -8.33708081	 -7.05591706	 46.92871668
No	 -7.73099497	 -7.66576638	 49.48815876
No	 -7.12490913	 -8.27561571	 52.04760084
No	 -12.10087204	 -5.95838183	 32.41598806
No	 -11.49478620	 -6.56823116	 34.97543014
No	 -10.88870036	 -7.17808048	 37.53487222
No	 -10.28261452	 -7.78792980	 40.09431430
No	 -9.67652868	 -8.39777913	 42.65375638
No	 -9.07044284	 -9.00762845	 45.21319846
No	 -8.46435700	 -9.61747777	 47.77264054
No	 -7.85827117	 -10.22732710	 50.33208262
No	 -7.25218533	 -10.83717642	 52.89152470
No	 -5.42944225	 -12.63395728	 52.03176531
No	 -6.03552808	 -12.02410796	 49.47232323
No	 -3.47942297	 -11.86917742	 50.32808206
No	 -6.64161392	 -11.41425863	 46.91288115
No	 -4.08550881	 -11.25932810	 47.76863998
No	 -1.52940370	 -11.10439757	 48.62439882
No	 -7.24769976	 -10.80440931	 44.35343907
No	 -4.69159465	 -10.64947878	 45.20919790
No	 -2.13548954	 -10.49454824	 46.06495674
No	 0.42061558	 -10.33961771	 46.92071557
No	 -7.85378560	 -10.19455999	 41.79399699
No	 -5.29768049	 -10.03962945	 42.64975582
No	 -2.74157538	 -9.88469892	 43.50551466
No	 -0.18547026	 -9.72976838	 44.36127349
No	 2.37063485	 -9.57483785	 45.21703232
No	 -8.45987144	 -9.58471066	 39.23455491
No	 -5.90376633	 -9.42978013	 40.09031374
No	 -3.34766121	 -9.27484959	 40.94607258
No	 -0.79155610	 -9.11991906	 41.80183141
No	 1.76454901	 -8.96498853	 42.65759024
No	 4.32065412	 -8.81005799	 43.51334908
No	 -9.06595728	 -8.97486134	 36.67511283
No	 -6.50985217	 -8.81993080	 37.53087166
No	 -3.95374705	 -8.66500027	 38.38663050
No	 -1.39764194	 -8.51006974	 39.24238933
No	 1.15846317	 -8.35513920	 40.09814817
No	 3.71456828	 -8.20020867	 40.95390700
No	 6.27067340	 -8.04527814	 41.80966583
No	 -9.67204312	 -8.36501202	 34.11567075
No	 -7.11593801	 -8.21008148	 34.97142958
No	 -4.55983289	 -8.05515095	 35.82718842
No	 -2.00372778	 -7.90022041	 36.68294725
No	 0.55237733	 -7.74528988	 37.53870609
No	 3.10848245	 -7.59035935	 38.39446492
No	 5.66458756	 -7.43542881	 39.25022375
No	 8.22069267	 -7.28049828	 40.10598259
No	 -10.27812896	 -7.75516269	 31.55622867
No	 -7.72202384	 -7.60023216	 32.41198750
No	 -5.16591873	 -7.44530162	 33.26774634
No	 -2.60981362	 -7.29037109	 34.12350517
No	 -0.05370851	 -7.13544056	 34.97926401
No	 2.50239661	 -6.98051002	 35.83502284
No	 5.05850172	 -6.82557949	 36.69078167
No	 7.61460683	 -6.67064896	 37.54654051
No	 10.17071195	 -6.51571842	 38.40229934
No	 -3.67787067	 9.81023983	 46.99589268
No	 -3.80514687	 7.24867912	 47.83981654
No	 -1.85512759	 8.01345897	 46.13613329
No	 -3.93242306	 4.68711840	 48.68374040
No	 -1.98240379	 5.45189826	 46.98005715
No	 -0.03238451	 6.21667812	 45.27637390
No	 -4.05969925	 2.12555769	 49.52766425
No	 -2.10967998	 2.89033754	 47.82398101
No	 -0.15966070	 3.65511740	 46.12029776
No	 1.79035857	 4.41989726	 44.41661451
No	 -4.18697544	 -0.43600303	 50.37158811
No	 -2.23695617	 0.32877683	 48.66790486
No	 -0.28693690	 1.09355669	 46.96422162
No	 1.66308238	 1.85833654	 45.26053837
No	 3.61310165	 2.62311640	 43.55685512
No	 -4.31425164	 -2.99756374	 51.21551196
No	 -2.36423236	 -2.23278389	 49.51182872
No	 -0.41421309	 -1.46800403	 47.80814547
No	 1.53580618	 -0.70322417	 46.10446223
No	 3.48582546	 0.06155569	 44.40077898
No	 5.43584473	 0.82633554	 42.69709573
No	 -4.44152783	 -5.55912446	 52.05943582
No	 -2.49150856	 -4.79434460	 50.35575257
No	 -0.54148928	 -4.02956474	 48.65206933
No	 1.40852999	 -3.26478489	 46.94838608
No	 3.35854927	 -2.50000503	 45.24470284
No	 5.30856854	 -1.73522517	 43.54101959
No	 7.25858781	 -0.97044532	 41.83733634
No	 -4.56880402	 -8.12068517	 52.90335967
No	 -2.61878475	 -7.35590532	 51.19967643
No	 -0.66876547	 -6.59112546	 49.49599318
No	 1.28125380	 -5.82634560	 47.79230994
No	 3.23127307	 -5.06156574	 46.08862669
No	 5.18129235	 -4.29678589	 44.38494345
No	 7.13131162	 -3.53200603	 42.68126020
No	 9.08133090	 -2.76722617	 40.97757696
No	 -4.69608021	 -10.68224589	 53.74728353
No	 -2.74606094	 -9.91746603	 52.04360029
No	 -0.79604167	 -9.15268617	 50.33991704
No	 1.15397761	 -8.38790632	 48.63623379
No	 3.10399688	 -7.62312646	 46.93255055
No	 5.05401616	 -6.85834660	 45.22886730
No	 7.00403543	 -6.09356674	 43.52518406
No	 8.95405470	 -5.32878689	 41.82150081
No	 10.90407398	 -4.56400703	 40.11781757
No	 -9.54476693	 -5.80345130	 33.27174689
No	 -8.81140489	 -3.85173991	 34.98726512
No	 -8.93868109	 -6.41330062	 35.83118897
No	 -6.98866181	 -5.64852077	 34.12750573
No	 -8.07804286	 -1.90002852	 36.70278334
No	 -8.20531906	 -4.46158923	 37.54670720
No	 -6.25529978	 -3.69680938	 35.84302395
No	 -8.33259525	 -7.02314995	 38.39063105
No	 -6.38257597	 -6.25837009	 36.68694781
No	 -4.43255670	 -5.49359023	 34.98326456
No	 -7.34468083	 0.05168287	 38.41830157
No	 -7.47195702	 -2.50987784	 39.26222542
No	 -5.52193775	 -1.74509798	 37.55854218
No	 -7.59923322	 -5.07143856	 40.10614928
No	 -5.64921394	 -4.30665870	 38.40246603
No	 -3.69919467	 -3.54187884	 36.69878279
No	 -7.72650941	 -7.63299927	 40.95007313
No	 -5.77649014	 -6.86821941	 39.24638989
No	 -3.82647086	 -6.10343956	 37.54270664
No	 -1.87645159	 -5.33865970	 35.83902340
No	 -6.61131880	 2.00339427	 40.13381979
No	 -6.73859499	 -0.55816645	 40.97774364
No	 -4.78857572	 0.20661341	 39.27406040
No	 -6.86587119	 -3.11972716	 41.82166750
No	 -4.91585191	 -2.35494731	 40.11798426
No	 -2.96583264	 -1.59016745	 38.41430101
No	 -6.99314738	 -5.68128788	 42.66559136
No	 -5.04312810	 -4.91650802	 40.96190811
No	 -3.09310883	 -4.15172816	 39.25822487
No	 -1.14308956	 -3.38694831	 37.55454162
No	 -7.12042357	 -8.24284859	 43.50951521
No	 -5.17040430	 -7.47806874	 41.80583197
No	 -3.22038502	 -6.71328888	 40.10214872
No	 -1.27036575	 -5.94850902	 38.39846548
No	 0.67965353	 -5.18372917	 36.69478223
No	 -5.87795677	 3.95510566	 41.84933801
No	 -6.00523296	 1.39354494	 42.69326187
No	 -4.05521369	 2.15832480	 40.98957862
No	 -6.13250915	 -1.16801577	 43.53718572
No	 -4.18248988	 -0.40323592	 41.83350248
No	 -2.23247061	 0.36154394	 40.12981923
No	 -6.25978535	 -3.72957649	 44.38110958
No	 -4.30976607	 -2.96479663	 42.67742633
No	 -2.35974680	 -2.20001677	 40.97374309
No	 -0.40972752	 -1.43523692	 39.27005984
No	 -6.38706154	 -6.29113720	 45.22503344
No	 -4.43704226	 -5.52635735	 43.52135019
No	 -2.48702299	 -4.76157749	 41.81766694
No	 -0.53700372	 -3.99679763	 40.11398370
No	 1.41301556	 -3.23201777	 38.41030045
No	 -6.51433773	 -8.85269792	 46.06895729
No	 -4.56431846	 -8.08791806	 44.36527405
No	 -2.61429918	 -7.32313820	 42.66159080
No	 -0.66427991	 -6.55835835	 40.95790756
No	 1.28573936	 -5.79357849	 39.25422431
No	 3.23575864	 -5.02879863	 37.55054106
No	 -5.14459474	 5.90681705	 43.56485624
No	 -5.27187093	 3.34525633	 44.40878009
No	 -3.32185166	 4.11003619	 42.70509685
No	 -5.39914712	 0.78369562	 45.25270395
No	 -3.44912785	 1.54847548	 43.54902070
No	 -1.49910857	 2.31325533	 41.84533746
No	 -5.52642331	 -1.77786510	 46.09662780
No	 -3.57640404	 -1.01308524	 44.39294456
No	 -1.62638477	 -0.24830538	 42.68926131
No	 0.32363451	 0.51647448	 40.98557807
No	 -5.65369951	 -4.33942581	 46.94055166
No	 -3.70368023	 -3.57464595	 45.23686841
No	 -1.75366096	 -2.80986610	 43.53318517
No	 0.19635831	 -2.04508624	 41.82950192
No	 2.14637759	 -1.28030638	 40.12581868
No	 -5.78097570	 -6.90098653	 47.78447552
No	 -3.83095643	 -6.13620667	 46.08079227
No	 -1.88093715	 -5.37142681	 44.37710902
No	 0.06908212	 -4.60664695	 42.67342578
No	 2.01910140	 -3.84186710	 40.96974253
No	 3.96912067	 -3.07708724	 39.26605929
No	 -5.90825189	 -9.46254724	 48.62839937
No	 -3.95823262	 -8.69776738	 46.92471613
No	 -2.00821334	 -7.93298753	 45.22103288
No	 -0.05819407	 -7.16820767	 43.51734963
No	 1.89182520	 -6.40342781	 41.81366639
No	 3.84184448	 -5.63864796	 40.10998314
No	 5.79186375	 -4.87386810	 38.40629990
No	 -4.41123271	 7.85852844	 45.28037446
No	 -4.53850890	 5.29696772	 46.12429832
No	 -2.58848962	 6.06174758	 44.42061507
No	 -4.66578509	 2.73540701	 46.96822217
No	 -2.71576582	 3.50018687	 45.26453893
No	 -0.76574654	 4.26496672	 43.56085568
No	 -4.79306128	 0.17384629	 47.81214603
No	 -2.84304201	 0.93862615	 46.10846278
No	 -0.89302274	 1.70340601	 44.40477954
No	 1.05699654	 2.46818587	 42.70109629
No	 -4.92033748	 -2.38771442	 48.65606988
No	 -2.97031820	 -1.62293456	 46.95238664
No	 -1.02029893	 -0.85815471	 45.24870339
No	 0.92972035	 -0.09337485	 43.54502015
No	 2.87973962	 0.67140501	 41.84133690
No	 -5.04761367	 -4.94927513	 49.49999374
No	 -3.09759439	 -4.18449528	 47.79631049
No	 -1.14757512	 -3.41971542	 46.09262725
No	 0.80244415	 -2.65493556	 44.38894400
No	 2.75246343	 -1.89015571	 42.68526076
No	 4.70248270	 -1.12537585	 40.98157751
No	 -5.17488986	 -7.51083585	 50.34391760
No	 -3.22487059	 -6.74605599	 48.64023435
No	 -1.27485131	 -5.98127614	 46.93655110
No	 0.67516796	 -5.21649628	 45.23286786
No	 2.62518723	 -4.45171642	 43.52918461
No	 4.57520651	 -3.68693656	 41.82550137
No	 6.52522578	 -2.92215671	 40.12181812
No	 -5.30216605	 -10.07239656	 51.18784145
No	 -3.35214678	 -9.30761671	 49.48415821
No	 -1.40212751	 -8.54283685	 47.78047496
No	 0.54789177	 -7.77805699	 46.07679171
No	 2.49791104	 -7.01327714	 44.37310847
No	 4.44793032	 -6.24849728	 42.66942522
No	 6.39794959	 -5.48371742	 40.96574198
No	 8.34796886	 -4.71893756	 39.26205873
Au	 15.12706863	 3.67623518	 65.76630143
No	 13.13611915	 2.06852412	 64.90526408
Au	 13.26339534	 4.63008483	 64.06134023
Au	 15.08613843	 2.83330398	 63.20158084
No	 11.14516967	 0.46081306	 64.04422674
Au	 11.39972205	 5.58393449	 62.35637903
Au	 15.04520822	 1.99037278	 60.63686025
No	 9.15422019	 -1.14689800	 63.18318939
Au	 9.53604876	 6.53778415	 60.65141783
Au	 15.00427801	 1.14744157	 58.07213966
No	 7.16327070	 -2.75460906	 62.32215205
Au	 7.67237547	 7.49163380	 58.94645662
Au	 14.96334780	 0.30451037	 55.50741907
No	 5.17232122	 -4.36232011	 61.46111470
Au	 5.80870218	 8.44548346	 57.24149542
Au	 14.92241759	 -0.53842083	 52.94269847
No	 3.18137174	 -5.97003117	 60.60007736
Au	 3.94502889	 9.39933312	 55.53653422
Au	 14.88148738	 -1.38135203	 50.37797788
No	 1.19042225	 -7.57774223	 59.73904001
Au	 2.08135560	 10.35318278	 53.83157302
Au	 14.84055717	 -2.22428323	 47.81325729
No	 -0.80052723	 -9.18545329	 58.87800267
Au	 0.21768231	 11.30703243	 52.12661182
Au	 14.79962696	 -3.06721443	 45.24853670
No	 -2.79147671	 -10.79316434	 58.01696532
Au	 -1.64599098	 12.26088209	 50.42165062
Au	 14.75869675	 -3.91014563	 42.68381611
No	 -4.78242620	 -12.40087540	 57.15592798
Au	 -3.50966427	 13.21473175	 48.71668942
Au	 14.71776654	 -4.75307683	 40.11909552
No	 -3.63694047	 10.65317103	 49.56061327
No	 -1.77326717	 9.69932137	 51.26557448
No	 -3.76421666	 8.09161032	 50.40453713
No	 0.09040612	 8.74547172	 52.97053568
No	 -1.90054337	 7.13776066	 52.10949833
No	 -3.89149285	 5.53004960	 51.24846099
No	 1.95407941	 7.79162206	 54.67549688
No	 -0.03687008	 6.18391100	 53.81445953
No	 -2.02781956	 4.57619994	 52.95342219
No	 -4.01876904	 2.96848889	 52.09238484
No	 3.81775270	 6.83777240	 56.38045808
No	 1.82680321	 5.23006135	 55.51942073
No	 -0.16414627	 3.62235029	 54.65838339
No	 -2.15509575	 2.01463923	 53.79734604
No	 -4.14604524	 0.40692817	 52.93630870
No	 5.68142599	 5.88392275	 58.08541928
No	 3.69047651	 4.27621169	 57.22438193
No	 1.69952702	 2.66850063	 56.36334459
No	 -0.29142246	 1.06078957	 55.50230724
No	 -2.28237194	 -0.54692148	 54.64126990
No	 -4.27332143	 -2.15463254	 53.78023255
No	 7.54509928	 4.93007309	 59.79038048
No	 5.55414980	 3.32236203	 58.92934314
No	 3.56320031	 1.71465097	 58.06830579
No	 1.57225083	 0.10693992	 57.20726845
No	 -0.41869865	 -1.50077114	 56.34623110
No	 -2.40964814	 -3.10848220	 55.48519375
No	 -4.40059762	 -4.71619326	 54.62415641
No	 9.40877257	 3.97622343	 61.49534168
No	 7.41782309	 2.36851237	 60.63430434
No	 5.42687360	 0.76080132	 59.77326699
No	 3.43592412	 -0.84690974	 58.91222965
No	 1.44497464	 -2.45462080	 58.05119230
No	 -0.54597485	 -4.06233186	 57.19015496
No	 -2.53692433	 -5.67004291	 56.32911761
No	 -4.52787381	 -7.27775397	 55.46808027
No	 11.27244586	 3.02237378	 63.20030288
No	 9.28149638	 1.41466272	 62.33926554
No	 7.29054689	 -0.19304834	 61.47822819
No	 5.29959741	 -1.80075940	 60.61719085
No	 3.30864793	 -3.40847046	 59.75615350
No	 1.31769844	 -5.01618151	 58.89511616
No	 -0.67325104	 -6.62389257	 58.03407881
No	 -2.66420052	 -8.23160363	 57.17304147
No	 -4.65515000	 -9.83931469	 56.31200412
No	 -2.83240692	 -11.63609555	 55.45224473
No	 -0.84145744	 -10.02838449	 56.31328208
No	 -0.88238765	 -10.87131569	 53.74856149
No	 1.14949204	 -8.42067343	 57.17431942
No	 1.10856183	 -9.26360463	 54.60959883
No	 1.06763162	 -10.10653583	 52.04487824
No	 3.14044153	 -6.81296237	 58.03535677
No	 3.09951132	 -7.65589357	 55.47063618
No	 3.05858111	 -8.49882477	 52.90591559
No	 3.01765090	 -9.34175597	 50.34119499
No	 5.13139101	 -5.20525131	 58.89639411
No	 5.09046080	 -6.04818251	 56.33167352
No	 5.04953059	 -6.89111372	 53.76695293
No	 5.00860038	 -7.73404492	 51.20223234
No	 4.96767017	 -8.57697612	 48.63751175
No	 7.12234049	 -3.59754026	 59.75743146
No	 7.08141028	 -4.44047146	 57.19271087
No	 7.04048007	 -5.28340266	 54.62799028
No	 6.99954986	 -6.12633386	 52.06326968
No	 6.95861966	 -6.96926506	 49.49854909
No	 6.91768945	 -7.81219626	 46.93382850
No	 9.11328998	 -1.98982920	 60.61846880
No	 9.07235977	 -2.83276040	 58.05374821
No	 9.03142956	 -3.67569160	 55.48902762
No	 8.99049935	 -4.51862280	 52.92430703
No	 8.94956914	 -5.36155400	 50.35958644
No	 8.90863893	 -6.20448520	 47.79486585
No	 8.86770872	 -7.04741640	 45.23014526
No	 11.10423946	 -0.38211814	 61.47950615
No	 11.06330925	 -1.22504934	 58.91478556
No	 11.02237904	 -2.06798054	 56.35006497
No	 10.98144883	 -2.91091174	 53.78534438
No	 10.94051862	 -3.75384294	 51.22062378
No	 10.89958841	 -4.59677414	 48.65590319
No	 10.85865820	 -5.43970534	 46.09118260
No	 10.81772799	 -6.28263654	 43.52646201
No	 13.09518894	 1.22559292	 62.34054349
No	 13.05425873	 0.38266172	 59.77582290
No	 13.01332852	 -0.46026948	 57.21110231
No	 12.97239831	 -1.30320068	 54.64638172
No	 12.93146810	 -2.14613188	 52.08166113
No	 12.89053790	 -2.98906309	 49.51694054
No	 12.84960769	 -3.83199429	 46.95221995
No	 12.80867748	 -4.67492549	 44.38749936
No	 12.76774727	 -5.51785669	 41.82277877
No	 12.89502346	 -2.95629597	 40.97885491
No	 12.93595367	 -2.11336477	 43.54357550
No	 11.07228038	 -1.15951511	 41.83861430
No	 12.97688388	 -1.27043357	 46.10829609
No	 11.11321059	 -0.31658391	 44.40333489
No	 9.24953730	 0.63726574	 42.69837369
No	 13.01781409	 -0.42750237	 48.67301668
No	 11.15414080	 0.52634729	 46.96805548
No	 9.29046751	 1.48019694	 45.26309428
No	 7.42679422	 2.43404660	 43.55813308
No	 13.05874430	 0.41542883	 51.23773727
No	 11.19507101	 1.36927849	 49.53277607
No	 9.33139772	 2.32312814	 47.82781487
No	 7.46772442	 3.27697780	 46.12285367
No	 5.60405113	 4.23082746	 44.41789247
No	 13.09967451	 1.25836003	 53.80245786
No	 11.23600122	 2.21220969	 52.09749666
No	 9.37232793	 3.16605934	 50.39253546
No	 7.50865463	 4.11990900	 48.68757426
No	 5.64498134	 5.07375866	 46.98261306
No	 3.78130805	 6.02760832	 45.27765186
No	 13.14060472	 2.10129123	 56.36717846
No	 11.27693143	 3.05514089	 54.66221725
No	 9.41325813	 4.00899055	 52.95725605
No	 7.54958484	 4.96284020	 51.25229485
No	 5.68591155	 5.91668986	 49.54733365
No	 3.82223826	 6.87053952	 47.84237245
No	 1.95856497	 7.82438917	 46.13741125
No	 13.18153493	 2.94422243	 58.93189905
No	 11.31786163	 3.89807209	 57.22693785
No	 9.45418834	 4.85192175	 55.52197664
No	 7.59051505	 5.80577140	 53.81701544
No	 5.72684176	 6.75962106	 52.11205424
No	 3.86316847	 7.71347072	 50.40709304
No	 1.99949518	 8.66732037	 48.70213184
No	 0.13582189	 9.62117003	 46.99717064
No	 13.22246513	 3.78715363	 61.49661964
No	 11.35879184	 4.74100329	 59.79165844
No	 9.49511855	 5.69485295	 58.08669723
No	 7.63144526	 6.64870260	 56.38173603
No	 5.76777197	 7.60255226	 54.67677483
No	 3.90409868	 8.55640192	 52.97181363
No	 2.04042539	 9.51025158	 51.26685243
No	 0.17675210	 10.46410123	 49.56189123
No	 -1.68692119	 11.41795089	 47.85693003
No	 11.23151565	 2.17944258	 60.63558229
No	 9.36784236	 3.13329223	 58.93062109
No	 9.24056617	 0.57173152	 59.77454495
No	 11.19058544	 1.33651137	 58.07086170
No	 7.50416907	 4.08714189	 57.22565989
No	 7.37689288	 1.52558117	 58.06958375
No	 9.32691215	 2.29036103	 56.36590050
No	 7.24961669	 -1.03597954	 58.91350760
No	 9.19963596	 -0.27119968	 57.20982436
No	 11.14965523	 0.49358017	 55.50614111
No	 5.64049578	 5.04099155	 55.52069869
No	 5.51321959	 2.47943083	 56.36462254
No	 7.46323886	 3.24421069	 54.66093930
No	 5.38594339	 -0.08212988	 57.20854640
No	 7.33596267	 0.68264997	 55.50486315
No	 9.28598194	 1.44742983	 53.80117991
No	 5.25866720	 -2.64369060	 58.05247026
No	 7.20868648	 -1.87891074	 56.34878701
No	 9.15870575	 -1.11413088	 54.64510377
No	 11.10872502	 -0.34935103	 52.94142052
No	 3.77682249	 5.99484120	 53.81573749
No	 3.64954630	 3.43328049	 54.65966134
No	 5.59956557	 4.19806035	 52.95597810
No	 3.52227010	 0.87171977	 55.50358520
No	 5.47228938	 1.63649963	 53.79990195
No	 7.42230865	 2.40127949	 52.09621871
No	 3.39499391	 -1.68984094	 56.34750906
No	 5.34501318	 -0.92506108	 54.64382581
No	 7.29503246	 -0.16028123	 52.94014256
No	 9.24505173	 0.60449863	 51.23645932
No	 3.26771772	 -4.25140166	 57.19143291
No	 5.21773699	 -3.48662180	 55.48774967
No	 7.16775627	 -2.72184194	 53.78406642
No	 9.11777554	 -1.95706208	 52.08038317
No	 11.06779481	 -1.19228223	 50.37669993
No	 1.91314920	 6.94869086	 52.11077629
No	 1.78587301	 4.38713015	 52.95470014
No	 3.73589228	 5.15191000	 51.25101690
No	 1.65859681	 1.82556943	 53.79862400
No	 3.60861609	 2.59034929	 52.09494075
No	 5.55863536	 3.35512914	 50.39125751
No	 1.53132062	 -0.73599128	 54.64254785
No	 3.48133989	 0.02878857	 52.93886461
No	 5.43135917	 0.79356843	 51.23518136
No	 7.38137844	 1.55834829	 49.53149812
No	 1.40404443	 -3.29755200	 55.48647171
No	 3.35406370	 -2.53277214	 53.78278846
No	 5.30408298	 -1.76799229	 52.07910522
No	 7.25410225	 -1.00321243	 50.37542197
No	 9.20412152	 -0.23843257	 48.67173873
No	 1.27676824	 -5.85911271	 56.33039557
No	 3.22678751	 -5.09433286	 54.62671232
No	 5.17680678	 -4.32955300	 52.92302907
No	 7.12682606	 -3.56477314	 51.21934583
No	 9.07684533	 -2.79999329	 49.51566258
No	 11.02686460	 -2.03521343	 47.81197934
No	 0.04947591	 7.90254052	 50.40581509
No	 -0.07780029	 5.34097980	 51.24973894
No	 1.87221899	 6.10575966	 49.54605570
No	 -0.20507648	 2.77941909	 52.09366280
No	 1.74494280	 3.54419894	 50.38997955
No	 3.69496207	 4.30897880	 48.68629631
No	 -0.33235267	 0.21785837	 52.93758665
No	 1.61766660	 0.98263823	 51.23390341
No	 3.56768588	 1.74741809	 49.53022016
No	 5.51770515	 2.51219794	 47.82653692
No	 -0.45962886	 -2.34370234	 53.78151051
No	 1.49039041	 -1.57892249	 52.07782726
No	 3.44040968	 -0.81414263	 50.37414402
No	 5.39042896	 -0.04936277	 48.67046077
No	 7.34044823	 0.71541709	 46.96677753
No	 -0.58690506	 -4.90526306	 54.62543437
No	 1.36311422	 -4.14048320	 52.92175112
No	 3.31313349	 -3.37570334	 51.21806787
No	 5.26315277	 -2.61092349	 49.51438463
No	 7.21317204	 -1.84614363	 47.81070138
No	 9.16319131	 -1.08136377	 46.10701814
No	 -0.71418125	 -7.46682377	 55.46935822
No	 1.23583803	 -6.70204392	 53.76567498
No	 3.18585730	 -5.93726406	 52.06199173
No	 5.13587657	 -5.17248420	 50.35830848
No	 7.08589585	 -4.40770434	 48.65462524
No	 9.03591512	 -3.64292449	 46.95094199
No	 10.98593440	 -2.87814463	 45.24725875
No	 -1.81419738	 8.85639017	 48.70085388
No	 -1.94147358	 6.29482946	 49.54477774
No	 0.00854570	 7.05960932	 47.84109449
No	 -2.06874977	 3.73326874	 50.38870160
No	 -0.11873050	 4.49804860	 48.68501835
No	 1.83128878	 5.26282846	 46.98133510
No	 -2.19602596	 1.17170803	 51.23262545
No	 -0.24600669	 1.93648789	 49.52894221
No	 1.70401259	 2.70126774	 47.82525896
No	 3.65403186	 3.46604760	 46.12157572
No	 -2.32330215	 -1.38985269	 52.07654931
No	 -0.37328288	 -0.62507283	 50.37286606
No	 1.57673639	 0.13970703	 48.66918282
No	 3.52675567	 0.90448689	 46.96549957
No	 5.47677494	 1.66926674	 45.26181633
No	 -2.45057835	 -3.95141340	 52.92047316
No	 -0.50055907	 -3.18663354	 51.21678992
No	 1.44946020	 -2.42185369	 49.51310667
No	 3.39947948	 -1.65707383	 47.80942343
No	 5.34949875	 -0.89229397	 46.10574018
No	 7.29951802	 -0.12751411	 44.40205694
No	 -2.57785454	 -6.51297412	 53.76439702
No	 -0.62783526	 -5.74819426	 52.06071377
No	 1.32218401	 -4.98341440	 50.35703053
No	 3.27220328	 -4.21863454	 48.65334728
No	 5.22222256	 -3.45385469	 46.94966404
No	 7.17224183	 -2.68907483	 45.24598079
No	 9.12226110	 -1.92429497	 43.54229755
No	 -2.70513073	 -9.07453483	 54.60832088
No	 -0.75511146	 -8.30975497	 52.90463763
No	 1.19490782	 -7.54497512	 51.20095438
No	 3.14492709	 -6.78019526	 49.49727114
No	 5.09494636	 -6.01541540	 47.79358789
No	 7.04496564	 -5.25063554	 46.08990465
No	 8.99498491	 -4.48585569	 44.38622140
No	 10.94500419	 -3.72107583	 42.68253816
Au	 -12.68993274	 8.15349478	 75.16090526
No	 12.59825033	 4.08325878	 66.62035632
Au	 -7.31124450	 -11.99385180	 58.00998287
Au	 -6.03848258	 13.62175535	 49.57074431
No	 10.06943202	 4.49028238	 67.47441122
Au	 -7.84911333	 -9.97911714	 59.72507511
Au	 -6.70362760	 13.07492929	 52.12976041
No	 7.54061371	 4.89730598	 68.32846611
Au	 -8.38698215	 -7.96438249	 61.44016735
Au	 -7.36877261	 12.52810323	 54.68877650
No	 5.01179541	 5.30432958	 69.18252100
Au	 -8.92485097	 -5.94964783	 63.15525959
Au	 -8.03391763	 11.98127718	 57.24779259
No	 2.48297710	 5.71135318	 70.03657590
Au	 -9.46271980	 -3.93491317	 64.87035182
Au	 -8.69906264	 11.43445112	 59.80680869
No	 -0.04584121	 6.11837678	 70.89063079
Au	 -10.00058862	 -1.92017851	 66.58544406
Au	 -9.36420766	 10.88762506	 62.36582478
No	 -2.57465951	 6.52540038	 71.74468568
Au	 -10.53845744	 0.09455615	 68.30053630
Au	 -10.02935268	 10.34079901	 64.92484088
No	 -5.10347782	 6.93242398	 72.59874058
Au	 -11.07632627	 2.10929080	 70.01562854
Au	 -10.69449769	 9.79397295	 67.48385697
No	 -7.63229613	 7.33944758	 73.45279547
Au	 -11.61419509	 4.12402546	 71.73072078
Au	 -11.35964271	 9.24714689	 70.04287307
No	 -10.16111443	 7.74647118	 74.30685036
Au	 -12.15206392	 6.13876012	 73.44581302
Au	 -12.02478772	 8.70032083	 72.60188916
No	 -5.32029502	 -10.38614074	 58.87102022
No	 -3.32934554	 -8.77842969	 59.73205756
No	 -5.85816384	 -8.37140609	 60.58611245
No	 -1.33839605	 -7.17071863	 60.59309491
No	 -3.86721436	 -6.76369503	 61.44714980
No	 -6.39603267	 -6.35667143	 62.30120469
No	 0.65255343	 -5.56300757	 61.45413225
No	 -1.87626488	 -5.15598397	 62.30818714
No	 -4.40508318	 -4.74896037	 63.16224204
No	 -6.93390149	 -4.34193677	 64.01629693
No	 2.64350291	 -3.95529651	 62.31516960
No	 0.11468461	 -3.54827291	 63.16922449
No	 -2.41413370	 -3.14124931	 64.02327938
No	 -4.94295201	 -2.73422571	 64.87733428
No	 -7.47177031	 -2.32720211	 65.73138917
No	 4.63445240	 -2.34758545	 63.17620694
No	 2.10563409	 -1.94056185	 64.03026183
No	 -0.42318422	 -1.53353825	 64.88431673
No	 -2.95200252	 -1.12651465	 65.73837162
No	 -5.48082083	 -0.71949105	 66.59242651
No	 -8.00963914	 -0.31246745	 67.44648141
No	 6.62540188	 -0.73987440	 64.03724429
No	 4.09658357	 -0.33285080	 64.89129918
No	 1.56776527	 0.07417280	 65.74535407
No	 -0.96105304	 0.48119640	 66.59940897
No	 -3.48987135	 0.88822000	 67.45346386
No	 -6.01868965	 1.29524360	 68.30751875
No	 -8.54750796	 1.70226720	 69.16157365
No	 8.61635136	 0.86783666	 64.89828163
No	 6.08753306	 1.27486026	 65.75233653
No	 3.55871475	 1.68188386	 66.60639142
No	 1.02989644	 2.08890746	 67.46044631
No	 -1.49892186	 2.49593106	 68.31450121
No	 -4.02774017	 2.90295466	 69.16855610
No	 -6.55655848	 3.30997826	 70.02261099
No	 -9.08537678	 3.71700186	 70.87666589
No	 10.60730084	 2.47554772	 65.75931898
No	 8.07848254	 2.88257132	 66.61337387
No	 5.54966423	 3.28959492	 67.46742876
No	 3.02084592	 3.69661852	 68.32148366
No	 0.49202762	 4.10364212	 69.17553855
No	 -2.03679069	 4.51066572	 70.02959344
No	 -4.56560900	 4.91768932	 70.88364834
No	 -7.09442730	 5.32471292	 71.73770323
No	 -9.62324561	 5.73173652	 72.59175812
No	 -9.49596942	 8.29329723	 71.74783427
No	 -6.96715111	 7.88627363	 70.89377937
No	 -8.83082440	 8.84012329	 69.18881817
No	 -4.43833280	 7.47925003	 70.03972448
No	 -6.30200609	 8.43309969	 68.33476328
No	 -8.16567938	 9.38694935	 66.62980208
No	 -1.90951450	 7.07222643	 69.18566959
No	 -3.77318779	 8.02607609	 67.48070839
No	 -5.63686108	 8.97992575	 65.77574719
No	 -7.50053437	 9.93377541	 64.07078598
No	 0.61930381	 6.66520283	 68.33161469
No	 -1.24436948	 7.61905249	 66.62665349
No	 -3.10804277	 8.57290215	 64.92169229
No	 -4.97171606	 9.52675181	 63.21673109
No	 -6.83538935	 10.48060146	 61.51176989
No	 3.14812212	 6.25817923	 67.47755980
No	 1.28444883	 7.21202889	 65.77259860
No	 -0.57922446	 8.16587855	 64.06763740
No	 -2.44289776	 9.11972821	 62.36267620
No	 -4.30657105	 10.07357786	 60.65771500
No	 -6.17024434	 11.02742752	 58.95275380
No	 5.67694042	 5.85115563	 66.62350491
No	 3.81326713	 6.80500529	 64.91854371
No	 1.94959384	 7.75885495	 63.21358251
No	 0.08592055	 8.71270460	 61.50862130
No	 -1.77775274	 9.66655426	 59.80366010
No	 -3.64142603	 10.62040392	 58.09869890
No	 -5.50509932	 11.57425358	 56.39373770
No	 8.20575873	 5.44413203	 65.76945001
No	 6.34208544	 6.39798169	 64.06448881
No	 4.47841215	 7.35183135	 62.35952761
No	 2.61473886	 8.30568100	 60.65456641
No	 0.75106557	 9.25953066	 58.94960521
No	 -1.11260772	 10.21338032	 57.24464401
No	 -2.97628101	 11.16722998	 55.53968281
No	 -4.83995430	 12.12107963	 53.83472161
No	 10.73457704	 5.03710843	 64.91539512
No	 8.87090375	 5.99095809	 63.21043392
No	 7.00723046	 6.94480775	 61.50547272
No	 5.14355716	 7.89865740	 59.80051152
No	 3.27988387	 8.85250706	 58.09555032
No	 1.41621058	 9.80635672	 56.39058912
No	 -0.44746271	 10.76020638	 54.68562791
No	 -2.31113600	 11.71405603	 52.98066671
No	 -4.17480929	 12.66790569	 51.27570551
No	 -6.16575877	 11.06019463	 50.41466817
No	 -6.29303496	 8.49863392	 51.25859202
No	 -6.83090379	 10.51336858	 52.97368426
No	 -6.42031116	 5.93707320	 52.10251588
No	 -6.95817998	 7.95180786	 53.81760812
No	 -7.49604880	 9.96654252	 55.53270036
No	 -6.54758735	 3.37551249	 52.94643974
No	 -7.08545617	 5.39024715	 54.66153197
No	 -7.62332500	 7.40498180	 56.37662421
No	 -8.16119382	 9.41971646	 58.09171645
No	 -6.67486354	 0.81395177	 53.79036359
No	 -7.21273237	 2.82868643	 55.50545583
No	 -7.75060119	 4.84342109	 57.22054807
No	 -8.28847001	 6.85815575	 58.93564031
No	 -8.82633884	 8.87289040	 60.65073255
No	 -6.80213973	 -1.74760894	 54.63428745
No	 -7.34000856	 0.26712572	 56.34937969
No	 -7.87787738	 2.28186037	 58.06447192
No	 -8.41574620	 4.29659503	 59.77956416
No	 -8.95361503	 6.31132969	 61.49465640
No	 -9.49148385	 8.32606435	 63.20974864
No	 -6.92941593	 -4.30916966	 55.47821130
No	 -7.46728475	 -2.29443500	 57.19330354
No	 -8.00515357	 -0.27970034	 58.90839578
No	 -8.54302240	 1.73503432	 60.62348802
No	 -9.08089122	 3.74976897	 62.33858026
No	 -9.61876004	 5.76450363	 64.05367250
No	 -10.15662887	 7.77923829	 65.76876473
No	 -7.05669212	 -6.87073037	 56.32213516
No	 -7.59456094	 -4.85599571	 58.03722740
No	 -8.13242977	 -2.84126106	 59.75231964
No	 -8.67029859	 -0.82652640	 61.46741187
No	 -9.20816741	 1.18820826	 63.18250411
No	 -9.74603624	 3.20294292	 64.89759635
No	 -10.28390506	 5.21767758	 66.61268859
No	 -10.82177388	 7.23241223	 68.32778083
No	 -7.18396831	 -9.43229109	 57.16605901
No	 -7.72183713	 -7.41755643	 58.88115125
No	 -8.25970596	 -5.40282177	 60.59624349
No	 -8.79757478	 -3.38808711	 62.31133573
No	 -9.33544361	 -1.37335246	 64.02642797
No	 -9.87331243	 0.64138220	 65.74152021
No	 -10.41118125	 2.65611686	 67.45661245
No	 -10.94905008	 4.67085152	 69.17170468
No	 -11.48691890	 6.68558618	 70.88679692
No	 8.74362755	 3.42939738	 64.05435778
No	 6.87995426	 4.38324703	 62.34939657
No	 6.75267807	 1.82168632	 63.19332043
No	 6.21480925	 3.83642098	 64.90841267
No	 5.01628097	 5.33709669	 60.64443537
No	 4.88900478	 2.77553597	 61.48835923
No	 4.35113596	 4.79027063	 63.20345147
No	 4.76172859	 0.21397526	 62.33228309
No	 4.22385976	 2.22870992	 64.04737532
No	 3.68599094	 4.24344458	 65.76246756
No	 3.15260768	 6.29094635	 58.93947417
No	 3.02533149	 3.72938563	 59.78339803
No	 2.48746267	 5.74412029	 61.49849027
No	 2.89805530	 1.16782492	 60.62732188
No	 2.36018647	 3.18255958	 62.34241412
No	 1.82231765	 5.19729423	 64.05750636
No	 2.77077910	 -1.39373580	 61.47124574
No	 2.23291028	 0.62099886	 63.18633798
No	 1.69504146	 2.63573352	 64.90143022
No	 1.15717263	 4.65046818	 66.61652246
No	 1.28893439	 7.24479600	 57.23451297
No	 1.16165820	 4.68323529	 58.07843683
No	 0.62378938	 6.69796995	 59.79352907
No	 1.03438201	 2.12167457	 58.92236068
No	 0.49651318	 4.13640923	 60.63745292
No	 -0.04135564	 6.15114389	 62.35254516
No	 0.90710581	 -0.43988614	 59.76628454
No	 0.36923699	 1.57484852	 61.48137678
No	 -0.16863183	 3.58958318	 63.19646902
No	 -0.70650066	 5.60431783	 64.91156125
No	 0.77982962	 -3.00144686	 60.61020840
No	 0.24196080	 -0.98671220	 62.32530063
No	 -0.29590803	 1.02802246	 64.04039287
No	 -0.83377685	 3.04275712	 65.75548511
No	 -1.37164567	 5.05749178	 67.47057735
No	 -0.57473890	 8.19864566	 55.52955177
No	 -0.70201509	 5.63708495	 56.37347563
No	 -1.23988392	 7.65181960	 58.08856787
No	 -0.82929128	 3.07552423	 57.21739948
No	 -1.36716011	 5.09025889	 58.93249172
No	 -1.90502893	 7.10499355	 60.64758396
No	 -0.95656748	 0.51396352	 58.06132334
No	 -1.49443630	 2.52869817	 59.77641558
No	 -2.03230512	 4.54343283	 61.49150782
No	 -2.57017395	 6.55816749	 63.20660005
No	 -1.08384367	 -2.04759720	 58.90524719
No	 -1.62171249	 -0.03286254	 60.62033943
No	 -2.15958132	 1.98187212	 62.33543167
No	 -2.69745014	 3.99660678	 64.05052391
No	 -3.23531896	 6.01134143	 65.76561615
No	 -1.21111986	 -4.60915791	 59.74917105
No	 -1.74898869	 -2.59442326	 61.46426329
No	 -2.28685751	 -0.57968860	 63.17935553
No	 -2.82472633	 1.43504606	 64.89444777
No	 -3.36259516	 3.44978072	 66.60954000
No	 -3.90046398	 5.46451538	 68.32463224
No	 -2.43841219	 9.15249532	 53.82459057
No	 -2.56568838	 6.59093460	 54.66851443
No	 -3.10355721	 8.60566926	 56.38360666
No	 -2.69296458	 4.02937389	 55.51243828
No	 -3.23083340	 6.04410855	 57.22753052
No	 -3.76870222	 8.05884320	 58.94262276
No	 -2.82024077	 1.46781317	 56.35636214
No	 -3.35810959	 3.48254783	 58.07145438
No	 -3.89597841	 5.49728249	 59.78654661
No	 -4.43384724	 7.51201715	 61.50163885
No	 -2.94751696	 -1.09374754	 57.20028599
No	 -3.48538578	 0.92098712	 58.91537823
No	 -4.02325461	 2.93572177	 60.63047047
No	 -4.56112343	 4.95045643	 62.34556271
No	 -5.09899225	 6.96519109	 64.06065495
No	 -3.07479315	 -3.65530826	 58.04420985
No	 -3.61266198	 -1.64057360	 59.75930209
No	 -4.15053080	 0.37416106	 61.47439433
No	 -4.68839962	 2.38889572	 63.18948656
No	 -5.22626845	 4.40363038	 64.90457880
No	 -5.76413727	 6.41836503	 66.61967104
No	 -3.20206934	 -6.21686897	 58.88813371
No	 -3.73993817	 -4.20213431	 60.60322594
No	 -4.27780699	 -2.18739966	 62.31831818
No	 -4.81567582	 -0.17266500	 64.03341042
No	 -5.35354464	 1.84206966	 65.74850266
No	 -5.89141346	 3.85680432	 67.46359490
No	 -6.42928229	 5.87153898	 69.17868714
No	 -4.30208548	 10.10634497	 52.11962937
No	 -4.42936167	 7.54478426	 52.96355322
No	 -4.96723050	 9.55951892	 54.67864546
No	 -4.55663787	 4.98322355	 53.80747708
No	 -5.09450669	 6.99795820	 55.52256932
No	 -5.63237551	 9.01269286	 57.23766156
No	 -4.68391406	 2.42166283	 54.65140094
No	 -5.22178288	 4.43639749	 56.36649317
No	 -5.75965171	 6.45113215	 58.08158541
No	 -6.29752053	 8.46586680	 59.79667765
No	 -4.81119025	 -0.13989788	 55.49532479
No	 -5.34905907	 1.87483677	 57.21041703
No	 -5.88692790	 3.88957143	 58.92550927
No	 -6.42479672	 5.90430609	 60.64060151
No	 -6.96266554	 7.91904075	 62.35569375
No	 -4.93846644	 -2.70145860	 56.33924865
No	 -5.47633527	 -0.68672394	 58.05434089
No	 -6.01420409	 1.32801072	 59.76943313
No	 -6.55207291	 3.34274537	 61.48452536
No	 -7.08994174	 5.35748003	 63.19961760
No	 -7.62781056	 7.37221469	 64.91470984
No	 -5.06574264	 -5.26301931	 57.18317250
No	 -5.60361146	 -3.24828466	 58.89826474
No	 -6.14148028	 -1.23355000	 60.61335698
No	 -6.67934911	 0.78118466	 62.32844922
No	 -7.21721793	 2.79591932	 64.04354146
No	 -7.75508675	 4.81065398	 65.75863370
No	 -8.29295558	 6.82538863	 67.47372594
No	 -5.19301883	 -7.82458003	 58.02709636
No	 -5.73088765	 -5.80984537	 59.74218860
No	 -6.26875648	 -3.79511071	 61.45728084
No	 -6.80662530	 -1.78037606	 63.17237308
No	 -7.34449412	 0.23435860	 64.88746531
No	 -7.88236295	 2.24909326	 66.60255755
No	 -8.42023177	 4.26382792	 68.31764979
No	 -8.95810059	 6.27856258	 70.03274203
Au	 2.48251104	 -15.62115241	 84.46966999
Au	 13.97756340	 1.92192721	 67.46660766
Au	 -5.93193143	 -14.15518336	 58.85623421
No	 1.10319797	 -13.45982085	 83.62341865
Au	 12.82805816	 0.16761925	 69.16691390
Au	 -5.09048719	 -14.30178027	 61.41757779
No	 -0.27611510	 -11.29848928	 82.77716731
Au	 11.67855293	 -1.58668871	 70.86722013
Au	 -4.24904294	 -14.44837717	 63.97892137
No	 -1.65542817	 -9.13715772	 81.93091597
Au	 10.52904769	 -3.34099667	 72.56752636
Au	 -3.40759869	 -14.59497408	 66.54026495
No	 -3.03474124	 -6.97582616	 81.08466463
Au	 9.37954246	 -5.09530463	 74.26783259
Au	 -2.56615444	 -14.74157098	 69.10160852
No	 -4.41405431	 -4.81449460	 80.23841329
Au	 8.23003722	 -6.84961260	 75.96813883
Au	 -1.72471020	 -14.88816789	 71.66295210
No	 -5.79336738	 -2.65316303	 79.39216195
Au	 7.08053198	 -8.60392056	 77.66844506
Au	 -0.88326595	 -15.03476479	 74.22429568
No	 -7.17268046	 -0.49183147	 78.54591061
Au	 5.93102675	 -10.35822852	 79.36875129
Au	 -0.04182170	 -15.18136169	 76.78563926
No	 -8.55199353	 1.66950009	 77.69965928
Au	 4.78152151	 -12.11253648	 81.06905753
Au	 0.79962255	 -15.32795860	 79.34698284
No	 -9.93130660	 3.83083165	 76.85340794
Au	 3.63201628	 -13.86684445	 82.76936376
Au	 1.64106679	 -15.47455550	 81.90832642
No	 -11.31061967	 5.99216322	 76.00715660
No	 2.79057203	 -13.72024754	 80.20802018
No	 3.94007727	 -11.96593958	 78.50771395
No	 1.94912778	 -13.57365064	 77.64667660
No	 5.08958250	 -10.21163162	 76.80740772
No	 3.09863302	 -11.81934267	 75.94637037
No	 1.10768353	 -13.42705373	 75.08533303
No	 6.23908774	 -8.45732365	 75.10710148
No	 4.24813825	 -10.06503471	 74.24606414
No	 2.25718877	 -11.67274577	 73.38502679
No	 0.26623929	 -13.28045683	 72.52398945
No	 7.38859297	 -6.70301569	 73.40679525
No	 5.39764349	 -8.31072675	 72.54575790
No	 3.40669401	 -9.91843781	 71.68472056
No	 1.41574452	 -11.52614887	 70.82368321
No	 -0.57520496	 -13.13385992	 69.96264587
No	 8.53809821	 -4.94870773	 71.70648902
No	 6.54714873	 -6.55641879	 70.84545167
No	 4.55619924	 -8.16412985	 69.98441433
No	 2.56524976	 -9.77184090	 69.12337698
No	 0.57430028	 -11.37955196	 68.26233964
No	 -1.41664921	 -12.98726302	 67.40130229
No	 9.68760344	 -3.19439977	 70.00618278
No	 7.69665396	 -4.80211083	 69.14514544
No	 5.70570448	 -6.40982188	 68.28410809
No	 3.71475499	 -8.01753294	 67.42307075
No	 1.72380551	 -9.62524400	 66.56203340
No	 -0.26714397	 -11.23295506	 65.70099606
No	 -2.25809345	 -12.84066612	 64.83995871
No	 10.83710868	 -1.44009181	 68.30587655
No	 8.84615920	 -3.04780286	 67.44483920
No	 6.85520971	 -4.65551392	 66.58380186
No	 4.86426023	 -6.26322498	 65.72276451
No	 2.87331075	 -7.87093604	 64.86172717
No	 0.88236126	 -9.47864710	 64.00068982
No	 -1.10858822	 -11.08635815	 63.13965248
No	 -3.09953770	 -12.69406921	 62.27861513
No	 11.98661392	 0.31421616	 66.60557032
No	 9.99566443	 -1.29349490	 65.74453297
No	 8.00471495	 -2.90120596	 64.88349563
No	 6.01376547	 -4.50891702	 64.02245828
No	 4.02281598	 -6.11662808	 63.16142094
No	 2.03186650	 -7.72433913	 62.30038359
No	 0.04091702	 -9.33205019	 61.43934625
No	 -1.95003247	 -10.93976125	 60.57830890
No	 -3.94098195	 -12.54747231	 59.71727156
No	 -8.78180136	 5.58513962	 75.15310170
No	 -6.25298305	 5.17811602	 74.29904681
No	 -7.40248829	 3.42380805	 75.99935304
No	 -3.72416475	 4.77109242	 73.44499192
No	 -4.87366998	 3.01678445	 75.14529815
No	 -6.02317522	 1.26247649	 76.84560438
No	 -1.19534644	 4.36406881	 72.59093702
No	 -2.34485168	 2.60976085	 74.29124326
No	 -3.49435691	 0.85545289	 75.99154949
No	 -4.64386215	 -0.89885507	 77.69185572
No	 1.33347187	 3.95704521	 71.73688213
No	 0.18396663	 2.20273725	 73.43718836
No	 -0.96553861	 0.44842929	 75.13749460
No	 -2.11504384	 -1.30587867	 76.83780083
No	 -3.26454908	 -3.06018663	 78.53810706
No	 3.86229017	 3.55002161	 70.88282724
No	 2.71278494	 1.79571365	 72.58313347
No	 1.56327970	 0.04140569	 74.28343970
No	 0.41377446	 -1.71290227	 75.98374593
No	 -0.73573077	 -3.46721023	 77.68405217
No	 -1.88523601	 -5.22151820	 79.38435840
No	 6.39110848	 3.14299801	 70.02877234
No	 5.24160324	 1.38869005	 71.72907858
No	 4.09209801	 -0.36561791	 73.42938481
No	 2.94259277	 -2.11992587	 75.12969104
No	 1.79308754	 -3.87423383	 76.82999727
No	 0.64358230	 -5.62854180	 78.53030351
No	 -0.50592294	 -7.38284976	 80.23060974
No	 8.91992679	 2.73597441	 69.17471745
No	 7.77042155	 0.98166645	 70.87502368
No	 6.62091631	 -0.77264151	 72.57532991
No	 5.47141108	 -2.52694947	 74.27563615
No	 4.32190584	 -4.28125743	 75.97594238
No	 3.17240061	 -6.03556540	 77.67624861
No	 2.02289537	 -7.78987336	 79.37655485
No	 0.87339014	 -9.54418132	 81.07686108
No	 11.44874509	 2.32895081	 68.32066256
No	 10.29923986	 0.57464285	 70.02096879
No	 9.14973462	 -1.17966511	 71.72127502
No	 8.00022938	 -2.93397307	 73.42158125
No	 6.85072415	 -4.68828103	 75.12188749
No	 5.70121891	 -6.44258900	 76.82219372
No	 4.55171368	 -8.19689696	 78.52249995
No	 3.40220844	 -9.95120492	 80.22280619
No	 2.25270321	 -11.70551288	 81.92311242
No	 0.26175372	 -13.31322394	 81.06207508
No	 -0.57969052	 -13.16662704	 78.50073150
No	 -1.11755935	 -11.15189238	 80.21582374
No	 -1.42113477	 -13.02003013	 75.93938792
No	 -1.95900360	 -11.00529547	 77.65448016
No	 -2.49687242	 -8.99056082	 79.36957240
No	 -2.26257902	 -12.87343323	 73.37804434
No	 -2.80044784	 -10.85869857	 75.09313658
No	 -3.33831667	 -8.84396391	 76.80822882
No	 -3.87618549	 -6.82922925	 78.52332106
No	 -3.10402327	 -12.72683632	 70.81670076
No	 -3.64189209	 -10.71210167	 72.53179300
No	 -4.17976091	 -8.69736701	 74.24688524
No	 -4.71762974	 -6.68263235	 75.96197748
No	 -5.25549856	 -4.66789769	 77.67706972
No	 -3.94546751	 -12.58023942	 68.25535718
No	 -4.48333634	 -10.56550476	 69.97044942
No	 -5.02120516	 -8.55077010	 71.68554166
No	 -5.55907398	 -6.53603545	 73.40063390
No	 -6.09694281	 -4.52130079	 75.11572614
No	 -6.63481163	 -2.50656613	 76.83081838
No	 -4.78691176	 -12.43364252	 65.69401361
No	 -5.32478058	 -10.41890786	 67.40910584
No	 -5.86264941	 -8.40417320	 69.12419808
No	 -6.40051823	 -6.38943854	 70.83929032
No	 -6.93838706	 -4.37470388	 72.55438256
No	 -7.47625588	 -2.35996923	 74.26947480
No	 -8.01412470	 -0.34523457	 75.98456704
No	 -5.62835601	 -12.28704561	 63.13267003
No	 -6.16622483	 -10.27231095	 64.84776227
No	 -6.70409366	 -8.25757630	 66.56285450
No	 -7.24196248	 -6.24284164	 68.27794674
No	 -7.77983130	 -4.22810698	 69.99303898
No	 -8.31770013	 -2.21337232	 71.70813122
No	 -8.85556895	 -0.19863766	 73.42322346
No	 -9.39343777	 1.81609699	 75.13831570
No	 -6.46980026	 -12.14044871	 60.57132645
No	 -7.00766908	 -10.12571405	 62.28641869
No	 -7.54553790	 -8.11097939	 64.00151093
No	 -8.08340673	 -6.09624473	 65.71660316
No	 -8.62127555	 -4.08151007	 67.43169540
No	 -9.15914437	 -2.06677542	 69.14678764
No	 -9.69701320	 -0.05204076	 70.86187988
No	 -10.23488202	 1.96269390	 72.57697212
No	 -10.77275084	 3.97742856	 74.29206436
No	 9.45779561	 0.72123976	 67.45962521
No	 8.30829037	 -1.03306821	 69.15993144
No	 7.46684613	 -0.88647130	 66.59858786
No	 6.92897730	 1.12826336	 68.31368010
No	 7.15878514	 -2.78737617	 70.86023768
No	 6.31734089	 -2.64077926	 68.29889410
No	 5.77947207	 -0.62604461	 70.01398634
No	 5.47589664	 -2.49418236	 65.73755052
No	 4.93802782	 -0.47944770	 67.45264276
No	 4.40015900	 1.53528696	 69.16773500
No	 6.00927990	 -4.54168413	 72.56054391
No	 5.16783565	 -4.39508723	 69.99920033
No	 4.62996683	 -2.38035257	 71.71429257
No	 4.32639141	 -4.24849032	 67.43785675
No	 3.78852258	 -2.23375566	 69.15294899
No	 3.25065376	 -0.21902101	 70.86804123
No	 3.48494716	 -4.10189342	 64.87651317
No	 2.94707834	 -2.08715876	 66.59160541
No	 2.40920951	 -0.07242410	 68.30669765
No	 1.87134069	 1.94231056	 70.02178989
No	 4.85977467	 -6.29599209	 74.26085014
No	 4.01833042	 -6.14939519	 71.69950656
No	 3.48046160	 -4.13466053	 73.41459880
No	 3.17688617	 -6.00279828	 69.13816299
No	 2.63901735	 -3.98806363	 70.85325522
No	 2.10114852	 -1.97332897	 72.56834746
No	 2.33544192	 -5.85620138	 66.57681941
No	 1.79757310	 -3.84146672	 68.29191165
No	 1.25970428	 -1.82673206	 70.00700388
No	 0.72183545	 0.18800259	 71.72209612
No	 1.49399768	 -5.70960448	 64.01547583
No	 0.95612885	 -3.69486982	 65.73056807
No	 0.41826003	 -1.68013516	 67.44566031
No	 -0.11960879	 0.33459950	 69.16075255
No	 -0.65747762	 2.34933416	 70.87584478
No	 3.71026943	 -8.05030005	 75.96115638
No	 2.86882518	 -7.90370315	 73.39981280
No	 2.33095636	 -5.88896849	 75.11490504
No	 2.02738094	 -7.75710625	 70.83846922
No	 1.48951211	 -5.74237159	 72.55356146
No	 0.95164329	 -3.72763693	 74.26865370
No	 1.18593669	 -7.61050934	 68.27712564
No	 0.64806786	 -5.59577468	 69.99221788
No	 0.11019904	 -3.58104003	 71.70731012
No	 -0.42766978	 -1.56630537	 73.42240236
No	 0.34449244	 -7.46391244	 65.71578206
No	 -0.19337638	 -5.44917778	 67.43087430
No	 -0.73124521	 -3.43444312	 69.14596654
No	 -1.26911403	 -1.41970846	 70.86105878
No	 -1.80698285	 0.59502619	 72.57615102
No	 -0.49695181	 -7.31731553	 63.15443848
No	 -1.03482063	 -5.30258087	 64.86953072
No	 -1.57268945	 -3.28784622	 66.58462296
No	 -2.11055828	 -1.27311156	 68.29971520
No	 -2.64842710	 0.74162310	 70.01480744
No	 -3.18629592	 2.75635776	 71.72989968
No	 2.56076419	 -9.80460802	 77.66146261
No	 1.71931995	 -9.65801111	 75.10011903
No	 1.18145112	 -7.64327645	 76.81521127
No	 0.87787570	 -9.51141421	 72.53877545
No	 0.34000688	 -7.49667955	 74.25386769
No	 -0.19786195	 -5.48194489	 75.96895993
No	 0.03643145	 -9.36481730	 69.97743187
No	 -0.50143737	 -7.35008265	 71.69252411
No	 -1.03930619	 -5.33534799	 73.40761635
No	 -1.57717502	 -3.32061333	 75.12270859
No	 -0.80501280	 -9.21822040	 67.41608830
No	 -1.34288162	 -7.20348574	 69.13118053
No	 -1.88075044	 -5.18875108	 70.84627277
No	 -2.41861927	 -3.17401643	 72.56136501
No	 -2.95648809	 -1.15928177	 74.27645725
No	 -1.64645704	 -9.07162350	 64.85474472
No	 -2.18432587	 -7.05688884	 66.56983696
No	 -2.72219469	 -5.04215418	 68.28492919
No	 -3.26006351	 -3.02741952	 70.00002143
No	 -3.79793234	 -1.01268486	 71.71511367
No	 -4.33580116	 1.00204979	 73.43020591
No	 -2.48790129	 -8.92502659	 62.29340114
No	 -3.02577011	 -6.91029193	 64.00849338
No	 -3.56363894	 -4.89555727	 65.72358562
No	 -4.10150776	 -2.88082262	 67.43867785
No	 -4.63937658	 -0.86608796	 69.15377009
No	 -5.17724541	 1.14864670	 70.86886233
No	 -5.71511423	 3.16338136	 72.58395457
No	 1.41125896	 -11.55891598	 79.36176884
No	 0.56981471	 -11.41231907	 76.80042526
No	 0.03194589	 -9.39758442	 78.51551750
No	 -0.27162954	 -11.26572217	 74.23908169
No	 -0.80949836	 -9.25098751	 75.95417392
No	 -1.34736718	 -7.23625285	 77.66926616
No	 -1.11307378	 -11.11912527	 71.67773811
No	 -1.65094261	 -9.10439061	 73.39283035
No	 -2.18881143	 -7.08965595	 75.10792258
No	 -2.72668025	 -5.07492129	 76.82301482
No	 -1.95451803	 -10.97252836	 69.11639453
No	 -2.49238685	 -8.95779370	 70.83148677
No	 -3.03025568	 -6.94305905	 72.54657901
No	 -3.56812450	 -4.92832439	 74.26167124
No	 -4.10599332	 -2.91358973	 75.97676348
No	 -2.79596228	 -10.82593146	 66.55505095
No	 -3.33383110	 -8.81119680	 68.27014319
No	 -3.87169993	 -6.79646214	 69.98523543
No	 -4.40956875	 -4.78172748	 71.70032767
No	 -4.94743757	 -2.76699283	 73.41541990
No	 -5.48530640	 -0.75225817	 75.13051214
No	 -3.63740653	 -10.67933455	 63.99370737
No	 -4.17527535	 -8.66459990	 65.70879961
No	 -4.71314417	 -6.64986524	 67.42389185
No	 -5.25101300	 -4.63513058	 69.13898409
No	 -5.78888182	 -2.62039592	 70.85407633
No	 -6.32675064	 -0.60566126	 72.56916856
No	 -6.86461947	 1.40907339	 74.28426080
No	 -4.47885077	 -10.53273765	 61.43236379
No	 -5.01671960	 -8.51800299	 63.14745603
No	 -5.55458842	 -6.50326833	 64.86254827
No	 -6.09245724	 -4.48853367	 66.57764051
No	 -6.63032607	 -2.47379902	 68.29273275
No	 -7.16819489	 -0.45906436	 70.00782499
No	 -7.70606371	 1.55567030	 71.72291723
No	 -8.24393254	 3.57040496	 73.43800946
Au	 10.05314031	 11.48097149	 93.96969382
Au	 14.66580242	 4.38575666	 68.33024619
Au	 9.36490128	 9.01714205	 93.10605529
Au	 7.98558821	 11.17847361	 92.25980395
Au	 14.20453621	 5.09527814	 70.89419095
Au	 8.67666226	 6.55331260	 92.24241676
Au	 5.91803612	 10.87597573	 90.54991408
Au	 13.74327000	 5.80479963	 73.45813572
Au	 7.98842323	 4.08948316	 91.37877823
Au	 3.85048402	 10.57347784	 88.84002421
Au	 13.28200379	 6.51432111	 76.02208048
Au	 7.30018421	 1.62565371	 90.51513970
Au	 1.78293193	 10.27097996	 87.13013434
Au	 12.82073758	 7.22384259	 78.58602524
Au	 6.61194519	 -0.83817574	 89.65150117
Au	 -0.28462017	 9.96848208	 85.42024447
Au	 12.35947136	 7.93336408	 81.14997001
Au	 5.92370616	 -3.30200518	 88.78786264
Au	 -2.35217226	 9.66598419	 83.71035460
Au	 11.89820515	 8.64288556	 83.71391477
Au	 5.23546714	 -5.76583463	 87.92422411
Au	 -4.41972436	 9.36348631	 82.00046473
Au	 11.43693894	 9.35240704	 86.27785953
Au	 4.54722811	 -8.22966407	 87.06058558
Au	 -6.48727645	 9.06098843	 80.29057486
Au	 10.97567273	 10.06192853	 88.84180429
Au	 3.85898909	 -10.69349352	 86.19694705
Au	 -8.55482855	 8.75849054	 78.58068499
Au	 10.51440652	 10.77145001	 91.40574906
Au	 3.17075007	 -13.15732296	 85.33330852
Au	 -10.62238064	 8.45599266	 76.87079513
Au	 4.32025530	 -11.40301500	 83.63300229
Au	 5.46976054	 -9.64870704	 81.93269606
Au	 5.00849433	 -8.93918555	 84.49664082
Au	 6.61926577	 -7.89439908	 80.23238982
Au	 6.15799956	 -7.18487759	 82.79633459
Au	 5.69673335	 -6.47535611	 85.36027935
Au	 7.76877101	 -6.14009111	 78.53208359
Au	 7.30750480	 -5.43056963	 81.09602835
Au	 6.84623858	 -4.72104815	 83.65997312
Au	 6.38497237	 -4.01152666	 86.22391788
Au	 8.91827624	 -4.38578315	 76.83177736
Au	 8.45701003	 -3.67626167	 79.39572212
Au	 7.99574382	 -2.96674019	 81.95966688
Au	 7.53447761	 -2.25721870	 84.52361165
Au	 7.07321140	 -1.54769722	 87.08755641
Au	 10.06778148	 -2.63147519	 75.13147112
Au	 9.60651527	 -1.92195371	 77.69541589
Au	 9.14524906	 -1.21243222	 80.25936065
Au	 8.68398284	 -0.50291074	 82.82330541
Au	 8.22271663	 0.20661074	 85.38725018
Au	 7.76145042	 0.91613223	 87.95119494
Au	 11.21728672	 -0.87716723	 73.43116489
Au	 10.75602050	 -0.16764574	 75.99510965
Au	 10.29475429	 0.54187574	 78.55905442
Au	 9.83348808	 1.25139722	 81.12299918
Au	 9.37222187	 1.96091871	 83.68694394
Au	 8.91095566	 2.67044019	 86.25088871
Au	 8.44968944	 3.37996167	 88.81483347
Au	 12.36679195	 0.87714074	 71.73085866
Au	 11.90552574	 1.58666222	 74.29480342
Au	 11.44425953	 2.29618370	 76.85874818
Au	 10.98299332	 3.00570518	 79.42269295
Au	 10.52172710	 3.71522667	 81.98663771
Au	 10.06046089	 4.42474815	 84.55058247
Au	 9.59919468	 5.13426963	 87.11452723
Au	 9.13792847	 5.84379112	 89.67847200
Au	 13.51629719	 2.63144870	 70.03055242
Au	 13.05503098	 3.34097018	 72.59449719
Au	 12.59376476	 4.05049166	 75.15844195
Au	 12.13249855	 4.76001315	 77.72238671
Au	 11.67123234	 5.46953463	 80.28633148
Au	 11.20996613	 6.17905611	 82.85027624
Au	 10.74869992	 6.88857760	 85.41422100
Au	 10.28743370	 7.59809908	 87.97816576
Au	 9.82616749	 8.30762056	 90.54211053
No	 8.44685442	 10.46895213	 89.69585919
No	 8.90812063	 9.75943064	 87.13191442
No	 6.37930233	 10.16645424	 87.98596932
No	 9.36938685	 9.04990916	 84.56796966
No	 6.84056854	 9.45693276	 85.42202456
No	 4.31175023	 9.86395636	 86.27607945
No	 9.83065306	 8.34038768	 82.00402490
No	 7.30183475	 8.74741128	 82.85807979
No	 4.77301644	 9.15443488	 83.71213469
No	 2.24419814	 9.56145848	 84.56618958
No	 10.29191927	 7.63086619	 79.44008014
No	 7.76310096	 8.03788979	 80.29413503
No	 5.23428266	 8.44491339	 81.14818992
No	 2.70546435	 8.85193699	 82.00224482
No	 0.17664604	 9.25896059	 82.85629971
No	 10.75318548	 6.92134471	 76.87613537
No	 8.22436717	 7.32836831	 77.73019027
No	 5.69554887	 7.73539191	 78.58424516
No	 3.16673056	 8.14241551	 79.43830005
No	 0.63791225	 8.54943911	 80.29235495
No	 -1.89090605	 8.95646271	 81.14640984
No	 11.21445169	 6.21182323	 74.31219061
No	 8.68563339	 6.61884683	 75.16624550
No	 6.15681508	 7.02587043	 76.02030040
No	 3.62799677	 7.43289403	 76.87435529
No	 1.09917847	 7.83991763	 77.72841018
No	 -1.42963984	 8.24694123	 78.58246508
No	 -3.95845815	 8.65396483	 79.43651997
No	 11.67571790	 5.50230174	 71.74824585
No	 9.14689960	 5.90932534	 72.60230074
No	 6.61808129	 6.31634894	 73.45635563
No	 4.08926298	 6.72337254	 74.31041053
No	 1.56044468	 7.13039614	 75.16446542
No	 -0.96837363	 7.53741974	 76.01852031
No	 -3.49719194	 7.94444334	 76.87257521
No	 -6.02601024	 8.35146694	 77.72663010
No	 12.13698412	 4.79278026	 69.18430108
No	 9.60816581	 5.19980386	 70.03835598
No	 7.07934750	 5.60682746	 70.89241087
No	 4.55052920	 6.01385106	 71.74646576
No	 2.02171089	 6.42087466	 72.60052066
No	 -0.50710742	 6.82789826	 73.45457555
No	 -3.03592572	 7.23492186	 74.30863045
No	 -5.56474403	 7.64194546	 75.16268534
No	 -8.09356234	 8.04896906	 76.01674023
No	 1.79143699	 -10.99599140	 84.48705718
No	 2.47967602	 -8.53216195	 85.35069571
No	 0.41212392	 -8.83465984	 83.64080584
No	 3.16791504	 -6.06833251	 86.21433424
No	 1.10036295	 -6.37083039	 84.50444437
No	 -0.96718915	 -6.67332828	 82.79455450
No	 3.85615407	 -3.60450306	 87.07797277
No	 1.78860197	 -3.90700095	 85.36808290
No	 -0.27895012	 -4.20949883	 83.65819303
No	 -2.34650222	 -4.51199671	 81.94830316
No	 4.54439309	 -1.14067362	 87.94161130
No	 2.47684100	 -1.44317150	 86.23172143
No	 0.40928890	 -1.74566938	 84.52183156
No	 -1.65826319	 -2.04816727	 82.81194169
No	 -3.72581529	 -2.35066515	 81.10205182
No	 5.23263211	 1.32315583	 88.80524983
No	 3.16508002	 1.02065794	 87.09535996
No	 1.09752792	 0.71816006	 85.38547009
No	 -0.97002417	 0.41566218	 83.67558022
No	 -3.03757627	 0.11316429	 81.96569035
No	 -5.10512836	 -0.18933359	 80.25580048
No	 5.92087114	 3.78698527	 89.66888836
No	 3.85331904	 3.48448739	 87.95899849
No	 1.78576695	 3.18198951	 86.24910862
No	 -0.28178515	 2.87949162	 84.53921875
No	 -2.34933724	 2.57699374	 82.82932888
No	 -4.41688934	 2.27449586	 81.11943901
No	 -6.48444143	 1.97199797	 79.40954914
No	 6.60911016	 6.25081472	 90.53252689
No	 4.54155807	 5.94831683	 88.82263702
No	 2.47400597	 5.64581895	 87.11274715
No	 0.40645388	 5.34332107	 85.40285728
No	 -1.66109822	 5.04082319	 83.69296741
No	 -3.72865031	 4.73832530	 81.98307754
No	 -5.79620241	 4.43582742	 80.27318767
No	 -7.86375450	 4.13332954	 78.56329780
No	 7.29734919	 8.71464416	 91.39616542
No	 5.22979709	 8.41214628	 89.68627555
No	 3.16224500	 8.10964840	 87.97638568
No	 1.09469290	 7.80715051	 86.26649581
No	 -0.97285919	 7.50465263	 84.55660594
No	 -3.04041129	 7.20215475	 82.84671607
No	 -5.10796338	 6.89965686	 81.13682620
No	 -7.17551548	 6.59715898	 79.42693633
No	 -9.24306757	 6.29466110	 77.71704646
No	 10.98747888	 3.03847230	 70.88460732
No	 9.83797364	 1.28416434	 72.58491355
No	 10.52621267	 3.74799378	 73.44855208
No	 8.45866057	 3.44549590	 71.73866221
No	 8.68846841	 -0.47014363	 74.28521978
No	 9.37670743	 1.99368582	 75.14885831
No	 7.30915534	 1.69118794	 73.43896844
No	 10.06494646	 4.45751526	 76.01249684
No	 7.99739436	 4.15501738	 74.30260697
No	 5.92984227	 3.85251950	 72.59271710
No	 7.53896317	 -2.22445159	 75.98552602
No	 8.22720220	 0.23937786	 76.84916455
No	 6.15965010	 -0.06312003	 75.13927468
No	 8.91544122	 2.70320730	 77.71280308
No	 6.84788913	 2.40070942	 76.00291321
No	 4.78033703	 2.09821154	 74.29302334
No	 9.60368025	 5.16703675	 78.57644161
No	 7.53612815	 4.86453886	 76.86655174
No	 5.46857606	 4.56204098	 75.15666187
No	 3.40102396	 4.25954310	 73.44677200
No	 6.38945794	 -3.97875955	 77.68583225
No	 7.07769696	 -1.51493011	 78.54947078
No	 5.01014487	 -1.81742799	 76.83958091
No	 7.76593599	 0.94889934	 79.41310931
No	 5.69838389	 0.64640146	 77.70321944
No	 3.63083180	 0.34390357	 75.99332957
No	 8.45417501	 3.41272878	 80.27674784
No	 6.38662291	 3.11023090	 78.56685797
No	 4.31907082	 2.80773302	 76.85696810
No	 2.25151872	 2.50523514	 75.14707823
No	 9.14241403	 5.87655823	 81.14038637
No	 7.07486194	 5.57406035	 79.43049650
No	 5.00730984	 5.27156246	 77.72060663
No	 2.93975775	 4.96906458	 76.01071676
No	 0.87220565	 4.66656670	 74.30082689
No	 5.23995270	 -5.73306751	 79.38613848
No	 5.92819173	 -3.26923807	 80.24977701
No	 3.86063963	 -3.57173595	 78.53988714
No	 6.61643075	 -0.80540862	 81.11341554
No	 4.54887865	 -1.10790651	 79.40352567
No	 2.48132656	 -1.41040439	 77.69363580
No	 7.30466977	 1.65842082	 81.97705407
No	 5.23711768	 1.35592294	 80.26716420
No	 3.16956558	 1.05342506	 78.55727433
No	 1.10201349	 0.75092717	 76.84738446
No	 7.99290880	 4.12225027	 82.84069260
No	 5.92535670	 3.81975239	 81.13080273
No	 3.85780461	 3.51725450	 79.42091286
No	 1.79025251	 3.21475662	 77.71102299
No	 -0.27729958	 2.91225874	 76.00113312
No	 8.68114782	 6.58607971	 83.70433113
No	 6.61359573	 6.28358183	 81.99444126
No	 4.54604363	 5.98108395	 80.28455139
No	 2.47849154	 5.67858606	 78.57466152
No	 0.41093944	 5.37608818	 76.86477165
No	 -1.65661265	 5.07359030	 75.15488178
No	 4.09044747	 -7.48737548	 81.08644472
No	 4.77868649	 -5.02354603	 81.95008325
No	 2.71113439	 -5.32604391	 80.24019338
No	 5.46692551	 -2.55971658	 82.81372178
No	 3.39937342	 -2.86221447	 81.10383191
No	 1.33182132	 -3.16471235	 79.39394204
No	 6.15516454	 -0.09588714	 83.67736031
No	 4.08761244	 -0.39838502	 81.96747044
No	 2.02006035	 -0.70088291	 80.25758057
No	 -0.04749175	 -1.00338079	 78.54769070
No	 6.84340356	 2.36794231	 84.54099884
No	 4.77585147	 2.06544442	 82.83110897
No	 2.70829937	 1.76294654	 81.12121910
No	 0.64074728	 1.46044866	 79.41132923
No	 -1.42680482	 1.15795077	 77.70143936
No	 7.53164259	 4.83177175	 85.40463737
No	 5.46409049	 4.52927387	 83.69474750
No	 3.39653840	 4.22677599	 81.98485763
No	 1.32898630	 3.92427810	 80.27496776
No	 -0.73856579	 3.62178022	 78.56507789
No	 -2.80611789	 3.31928234	 76.85518802
No	 8.21988161	 7.29560120	 86.26827589
No	 6.15232951	 6.99310331	 84.55838603
No	 4.08477742	 6.69060543	 82.84849616
No	 2.01722533	 6.38810755	 81.13860629
No	 -0.05032677	 6.08560966	 79.42871642
No	 -2.11787886	 5.78311178	 77.71882655
No	 -4.18543096	 5.48061390	 76.00893668
No	 2.94094223	 -9.24168344	 82.78675095
No	 3.62918125	 -6.77785399	 83.65038948
No	 1.56162916	 -7.08035188	 81.94049961
No	 4.31742028	 -4.31402455	 84.51402801
No	 2.24986818	 -4.61652243	 82.80413814
No	 0.18231609	 -4.91902031	 81.09424827
No	 5.00565930	 -1.85019510	 85.37766654
No	 2.93810721	 -2.15269298	 83.66777667
No	 0.87055511	 -2.45519087	 81.95788680
No	 -1.19699698	 -2.75768875	 80.24799693
No	 5.69389833	 0.61363434	 86.24130507
No	 3.62634623	 0.31113646	 84.53141520
No	 1.55879414	 0.00863858	 82.82152533
No	 -0.50875796	 -0.29385931	 81.11163546
No	 -2.57631005	 -0.59635719	 79.40174559
No	 6.38213735	 3.07746379	 87.10494360
No	 4.31458526	 2.77496591	 85.39505373
No	 2.24703316	 2.47246802	 83.68516386
No	 0.17948107	 2.16997014	 81.97527399
No	 -1.88807103	 1.86747226	 80.26538412
No	 -3.95562312	 1.56497437	 78.55549425
No	 7.07037637	 5.54129323	 87.96858213
No	 5.00282428	 5.23879535	 86.25869226
No	 2.93527218	 4.93629747	 84.54880239
No	 0.86772009	 4.63379959	 82.83891252
No	 -1.19983201	 4.33130170	 81.12902265
No	 -3.26738410	 4.02880382	 79.41913278
No	 -5.33493620	 3.72630594	 77.70924291
No	 7.75861540	 8.00512268	 88.83222066
No	 5.69106330	 7.70262480	 87.12233079
No	 3.62351121	 7.40012691	 85.41244092
No	 1.55595911	 7.09762903	 83.70255105
No	 -0.51159298	 6.79513115	 81.99266118
No	 -2.57914508	 6.49263326	 80.28277131
No	 -4.64669717	 6.19013538	 78.57288144
No	 -6.71424927	 5.88763750	 76.86299157
Au	 -15.22992290	 -1.00069260	 103.30054462
Au	 -12.93146261	 0.13400413	 102.45228545
Au	 -13.61970163	 -2.32982531	 101.58864692
Au	 -14.99901470	 -0.16849375	 100.74239558
Au	 -10.63300231	 1.26870087	 101.60402629
Au	 -12.00948036	 -3.65895802	 99.87674923
Au	 -14.76810650	 0.66370510	 98.18424655
Au	 -8.33454202	 2.40339760	 100.75576713
Au	 -10.39925910	 -4.98809073	 98.16485154
Au	 -14.53719831	 1.49590396	 95.62609752
Au	 -6.03608173	 3.53809434	 99.90750796
Au	 -8.78903783	 -6.31722344	 96.45295385
Au	 -14.30629011	 2.32810281	 93.06794849
Au	 -3.73762144	 4.67279108	 99.05924880
Au	 -7.17881656	 -7.64635615	 94.74105615
Au	 -14.07538192	 3.16030166	 90.50979945
Au	 -1.43916115	 5.80748781	 98.21098964
Au	 -5.56859529	 -8.97548886	 93.02915846
Au	 -13.84447372	 3.99250051	 87.95165042
Au	 0.85929914	 6.94218455	 97.36273047
Au	 -3.95837403	 -10.30462157	 91.31726077
Au	 -13.61356552	 4.82469937	 85.39350139
Au	 3.15775943	 8.07688128	 96.51447131
Au	 -2.34815276	 -11.63375428	 89.60536307
Au	 -13.38265733	 5.65689822	 82.83535235
Au	 5.45621972	 9.21157802	 95.66621215
Au	 -0.73793149	 -12.96288699	 87.89346538
Au	 -13.15174913	 6.48909707	 80.27720332
Au	 7.75468001	 10.34627476	 94.81795298
Au	 0.87228977	 -14.29201970	 86.18156769
Au	 -12.92084093	 7.32129592	 77.71905429
Au	 1.56052880	 -11.82819025	 87.04520622
Au	 -0.04969247	 -10.49905754	 88.75710391
Au	 2.24876782	 -9.36436081	 87.90884475
Au	 -1.65991374	 -9.16992483	 90.46900160
Au	 0.63854656	 -8.03522810	 89.62074244
Au	 2.93700685	 -6.90053136	 88.77248328
Au	 -3.27013500	 -7.84079212	 92.18089930
Au	 -0.97167471	 -6.70609539	 91.33264013
Au	 1.32678558	 -5.57139865	 90.48438097
Au	 3.62524587	 -4.43670192	 89.63612181
Au	 -4.88035627	 -6.51165941	 93.89279699
Au	 -2.58189598	 -5.37696268	 93.04453783
Au	 -0.28343569	 -4.24226594	 92.19627866
Au	 2.01502460	 -3.10756921	 91.34801950
Au	 4.31348489	 -1.97287247	 90.49976033
Au	 -6.49057754	 -5.18252671	 95.60469468
Au	 -4.19211725	 -4.04782997	 94.75643552
Au	 -1.89365695	 -2.91313323	 93.90817635
Au	 0.40480334	 -1.77843650	 93.05991719
Au	 2.70326363	 -0.64373976	 92.21165803
Au	 5.00172392	 0.49095697	 91.36339886
Au	 -8.10079880	 -3.85339400	 97.31659237
Au	 -5.80233851	 -2.71869726	 96.46833321
Au	 -3.50387822	 -1.58400052	 95.62007405
Au	 -1.20541793	 -0.44930379	 94.77181488
Au	 1.09304236	 0.68539295	 93.92355572
Au	 3.39150265	 1.82008968	 93.07529656
Au	 5.68996294	 2.95478642	 92.22703739
Au	 -9.71102007	 -2.52426129	 99.02849007
Au	 -7.41255978	 -1.38956455	 98.18023090
Au	 -5.11409949	 -0.25486781	 97.33197174
Au	 -2.81563920	 0.87982892	 96.48371258
Au	 -0.51717891	 2.01452566	 95.63545341
Au	 1.78128138	 3.14922239	 94.78719425
Au	 4.07974168	 4.28391913	 93.93893509
Au	 6.37820197	 5.41861586	 93.09067592
Au	 -11.32124134	 -1.19512858	 100.74038776
Au	 -9.02278105	 -0.06043184	 99.89212860
Au	 -6.72432076	 1.07426490	 99.04386943
Au	 -4.42586047	 2.20896163	 98.19561027
Au	 -2.12740017	 3.34365837	 97.34735111
Au	 0.17106012	 4.47835510	 96.49909194
Au	 2.46952041	 5.61305184	 95.65083278
Au	 4.76798070	 6.74774857	 94.80257362
Au	 7.06644099	 7.88244531	 93.95431445
Au	 5.68712792	 10.04377687	 93.10806311
Au	 3.38866763	 8.90908014	 93.95632228
Au	 3.61957582	 9.74127899	 91.39817324
Au	 1.09020734	 7.77438340	 94.80458144
Au	 1.32111553	 8.60658225	 92.24643241
Au	 1.55202373	 9.43878111	 89.68828337
Au	 -1.20825295	 6.63968667	 95.65284060
Au	 -0.97734476	 7.47188552	 93.09469157
Au	 -0.74643656	 8.30408437	 90.53654254
Au	 -0.51552837	 9.13628322	 87.97839351
Au	 -3.50671324	 5.50498993	 96.50109977
Au	 -3.27580505	 6.33718878	 93.94295073
Au	 -3.04489685	 7.16938763	 91.38480170
Au	 -2.81398866	 8.00158649	 88.82665267
Au	 -2.58308046	 8.83378534	 86.26850364
Au	 -5.80517354	 4.37029319	 97.34935893
Au	 -5.57426534	 5.20249205	 94.79120990
Au	 -5.34335714	 6.03469090	 92.23306087
Au	 -5.11244895	 6.86688975	 89.67491183
Au	 -4.88154075	 7.69908860	 87.11676280
Au	 -4.65063256	 8.53128746	 84.55861377
Au	 -8.10363383	 3.23559646	 98.19761809
Au	 -7.87272563	 4.06779531	 95.63946906
Au	 -7.64181743	 4.89999416	 93.08132003
Au	 -7.41090924	 5.73219302	 90.52317100
Au	 -7.18000104	 6.56439187	 87.96502196
Au	 -6.94909285	 7.39659072	 85.40687293
Au	 -6.71818465	 8.22878957	 82.84872390
Au	 -10.40209412	 2.10089972	 99.04587726
Au	 -10.17118592	 2.93309857	 96.48772822
Au	 -9.94027773	 3.76529743	 93.92957919
Au	 -9.70936953	 4.59749628	 91.37143016
Au	 -9.47846133	 5.42969513	 88.81328113
Au	 -9.24755314	 6.26189399	 86.25513209
Au	 -9.01664494	 7.09409284	 83.69698306
Au	 -8.78573675	 7.92629169	 81.13883403
Au	 -12.70055441	 0.96620299	 99.89413642
Au	 -12.46964621	 1.79840184	 97.33598739
Au	 -12.23873802	 2.63060069	 94.77783836
Au	 -12.00782982	 3.46279954	 92.21968932
Au	 -11.77692162	 4.29499840	 89.66154029
Au	 -11.54601343	 5.12719725	 87.10339126
Au	 -11.31510523	 5.95939610	 84.54524222
Au	 -11.08419704	 6.79159496	 81.98709319
Au	 -10.85328884	 7.62379381	 79.42894416
No	 -11.54152786	 5.15996436	 78.56530563
No	 -11.77243606	 4.32776551	 81.12345466
No	 -10.16221479	 2.99863280	 79.41155697
No	 -12.00334426	 3.49556666	 83.68160369
No	 -10.39312299	 2.16643395	 81.96970600
No	 -8.78290172	 0.83730124	 80.25780831
No	 -12.23425245	 2.66336780	 86.23975273
No	 -10.62403119	 1.33423509	 84.52785503
No	 -9.01380992	 0.00510239	 82.81595734
No	 -7.40358865	 -1.32403032	 81.10405965
No	 -12.46516065	 1.83116895	 88.79790176
No	 -10.85493938	 0.50203624	 87.08600407
No	 -9.24471811	 -0.82709647	 85.37410637
No	 -7.63449685	 -2.15622918	 83.66220868
No	 -6.02427558	 -3.48536189	 81.95031099
No	 -12.69606884	 0.99897010	 91.35605079
No	 -11.08584758	 -0.33016261	 89.64415310
No	 -9.47562631	 -1.65929532	 87.93225541
No	 -7.86540504	 -2.98842803	 86.22035771
No	 -6.25518378	 -4.31756074	 84.50846002
No	 -4.64496251	 -5.64669345	 82.79656233
No	 -12.92697704	 0.16677125	 93.91419983
No	 -11.31675577	 -1.16236146	 92.20230213
No	 -9.70653451	 -2.49149417	 90.49040444
No	 -8.09631324	 -3.82062688	 88.77850675
No	 -6.48609197	 -5.14975959	 87.06660905
No	 -4.87587071	 -6.47889230	 85.35471136
No	 -3.26564944	 -7.80802501	 83.64281367
No	 -13.15788524	 -0.66542761	 96.47234886
No	 -11.54766397	 -1.99456032	 94.76045117
No	 -9.93744270	 -3.32369303	 93.04855347
No	 -8.32722144	 -4.65282574	 91.33665578
No	 -6.71700017	 -5.98195844	 89.62475809
No	 -5.10677890	 -7.31109115	 87.91286039
No	 -3.49655763	 -8.64022386	 86.20096270
No	 -1.88633637	 -9.96935657	 84.48906501
No	 -13.38879343	 -1.49762646	 99.03049789
No	 -11.77857217	 -2.82675917	 97.31860020
No	 -10.16835090	 -4.15589188	 95.60670251
No	 -8.55812963	 -5.48502459	 93.89480481
No	 -6.94790836	 -6.81415730	 92.18290712
No	 -5.33768710	 -8.14329001	 90.47100943
No	 -3.72746583	 -9.47242272	 88.75911173
No	 -2.11724456	 -10.80155543	 87.04721404
No	 -0.50702330	 -12.13068814	 85.33531635
No	 -11.09033314	 -0.36292972	 98.18223873
No	 -9.48011187	 -1.69206243	 96.47034103
No	 -8.79187285	 0.77176701	 97.33397956
No	 -10.85942495	 0.46926913	 95.62408970
No	 -7.86989061	 -3.02119514	 94.75844334
No	 -7.18165158	 -0.55736570	 95.62208187
No	 -9.24920368	 -0.85986358	 93.91219200
No	 -6.49341256	 1.90646375	 96.48572040
No	 -8.56096465	 1.60396586	 94.77583053
No	 -10.62851675	 1.30146798	 93.06594066
No	 -6.25966934	 -4.35032785	 93.04654565
No	 -5.57143032	 -1.88649841	 93.91018418
No	 -7.63898241	 -2.18899629	 92.20029431
No	 -4.88319129	 0.57733104	 94.77382271
No	 -6.95074339	 0.27483316	 93.06393284
No	 -9.01829548	 -0.02766473	 91.35404297
No	 -4.19495227	 3.04116048	 95.63746124
No	 -6.26250436	 2.73866260	 93.92757137
No	 -8.33005646	 2.43616472	 92.21768150
No	 -10.39760855	 2.13366683	 90.50779163
No	 -4.64944807	 -5.67946056	 91.33464796
No	 -3.96120905	 -3.21563112	 92.19828649
No	 -6.02876114	 -3.51812900	 90.48839662
No	 -3.27297003	 -0.75180167	 93.06192502
No	 -5.34052212	 -1.05429955	 91.35203515
No	 -7.40807422	 -1.35679744	 89.64214528
No	 -2.58473100	 1.71202777	 93.92556354
No	 -4.65228310	 1.40952989	 92.21567368
No	 -6.71983519	 1.10703201	 90.50578381
No	 -8.78738729	 0.80453413	 88.79589394
No	 -1.89649198	 4.17585722	 94.78920207
No	 -3.96404407	 3.87335934	 93.07931220
No	 -6.03159617	 3.57086145	 91.36942234
No	 -8.09914826	 3.26836357	 89.65953247
No	 -10.16670036	 2.96586569	 87.94964260
No	 -3.03922681	 -7.00859327	 89.62275026
No	 -2.35098778	 -4.54476383	 90.48638879
No	 -4.41853988	 -4.84726171	 88.77649892
No	 -1.66274876	 -2.08093438	 91.35002732
No	 -3.73030085	 -2.38343226	 89.64013745
No	 -5.79785295	 -2.68593015	 87.93024758
No	 -0.97450973	 0.38289506	 92.21366585
No	 -3.04206183	 0.08039718	 90.50377598
No	 -5.10961392	 -0.22210070	 88.79388611
No	 -7.17716602	 -0.52459858	 87.08399624
No	 -0.28627071	 2.84672451	 93.07730438
No	 -2.35382281	 2.54422663	 91.36741451
No	 -4.42137490	 2.24172874	 89.65752464
No	 -6.48892700	 1.93923086	 87.94763477
No	 -8.55647909	 1.63673298	 86.23774490
No	 0.40196831	 5.31055396	 93.94094291
No	 -1.66558378	 5.00805607	 92.23105304
No	 -3.73313588	 4.70555819	 90.52116317
No	 -5.80068797	 4.40306031	 88.81127330
No	 -7.86824007	 4.10056242	 87.10138343
No	 -9.93579216	 3.79806454	 85.39149356
No	 -1.42900554	 -8.33772598	 87.91085257
No	 -0.74076652	 -5.87389654	 88.77449110
No	 -2.80831861	 -6.17639442	 87.06460123
No	 -0.05252749	 -3.41006709	 89.63812963
No	 -2.12007959	 -3.71256497	 87.92823976
No	 -4.18763168	 -4.01506286	 86.21834989
No	 0.63571153	 -0.94623764	 90.50176816
No	 -1.43184056	 -1.24873553	 88.79187829
No	 -3.49939266	 -1.55123341	 87.08198842
No	 -5.56694475	 -1.85373129	 85.37209855
No	 1.32395056	 1.51759180	 91.36540669
No	 -0.74360154	 1.21509392	 89.65551682
No	 -2.81115363	 0.91259603	 87.94562695
No	 -4.87870573	 0.61009815	 86.23573708
No	 -6.94625782	 0.30760027	 84.52584721
No	 2.01218958	 3.98142125	 92.22904522
No	 -0.05536251	 3.67892336	 90.51915535
No	 -2.12291461	 3.37642548	 88.80926548
No	 -4.19046670	 3.07392760	 87.09937561
No	 -6.25801880	 2.77142971	 85.38948574
No	 -8.32557089	 2.46893183	 83.67959587
No	 2.70042860	 6.44525069	 93.09268375
No	 0.63287651	 6.14275281	 91.38279388
No	 -1.43467559	 5.84025493	 89.67290401
No	 -3.50222768	 5.53775704	 87.96301414
No	 -5.56977978	 5.23525916	 86.25312427
No	 -7.63733187	 4.93276128	 84.54323440
No	 -9.70488397	 4.63026339	 82.83334453
No	 0.18121573	 -9.66685869	 86.19895488
No	 0.86945475	 -7.20302925	 87.06259341
No	 -1.19809734	 -7.50552713	 85.35270354
No	 1.55769378	 -4.73919980	 87.92623194
No	 -0.50985832	 -5.04169768	 86.21634207
No	 -2.57741041	 -5.34419557	 84.50645220
No	 2.24593280	 -2.27537035	 88.78987047
No	 0.17838070	 -2.57786824	 87.07998060
No	 -1.88917139	 -2.88036612	 85.37009073
No	 -3.95672349	 -3.18286400	 83.66020086
No	 2.93417182	 0.18845909	 89.65350900
No	 0.86661973	 -0.11403879	 87.94361913
No	 -1.20093237	 -0.41653668	 86.23372926
No	 -3.26848446	 -0.71903456	 84.52383939
No	 -5.33603656	 -1.02153244	 82.81394952
No	 3.62241085	 2.65228854	 90.51714752
No	 1.55485875	 2.34979065	 88.80725766
No	 -0.51269334	 2.04729277	 87.09736779
No	 -2.58024544	 1.74479489	 85.38747792
No	 -4.64779753	 1.44229700	 83.67758805
No	 -6.71534963	 1.13979912	 81.96769818
No	 4.31064987	 5.11611798	 91.38078605
No	 2.24309778	 4.81362010	 89.67089618
No	 0.17554568	 4.51112222	 87.96100632
No	 -1.89200641	 4.20862433	 86.25111645
No	 -3.95955851	 3.90612645	 84.54122658
No	 -6.02711060	 3.60362857	 82.83133671
No	 -8.09466270	 3.30113068	 81.12144684
No	 4.99888890	 7.57994743	 92.24442458
No	 2.93133680	 7.27744954	 90.53453471
No	 0.86378471	 6.97495166	 88.82464485
No	 -1.20376739	 6.67245378	 87.11475498
No	 -3.27131948	 6.36995589	 85.40486511
No	 -5.33887158	 6.06745801	 83.69497524
No	 -7.40642367	 5.76496013	 81.98508537
No	 -9.47397577	 5.46246225	 80.27519550
