364 
{'Au': 364}
Au	 10.50053570	 10.50053570	 10.50053570
Au	 10.50053570	 -10.50053570	 -10.50053570
Au	 -10.50053570	 10.50053570	 -10.50053570
Au	 -10.50053570	 -10.50053570	 10.50053570
Au	 10.50053570	 8.59134739	 8.59134739
Au	 8.59134739	 10.50053570	 8.59134739
Au	 8.59134739	 8.59134739	 10.50053570
Au	 8.59134739	 -8.59134739	 -10.50053570
Au	 8.59134739	 -10.50053570	 -8.59134739
Au	 -10.50053570	 8.59134739	 -8.59134739
Au	 10.50053570	 6.68215908	 6.68215908
Au	 6.68215908	 10.50053570	 6.68215908
Au	 6.68215908	 6.68215908	 10.50053570
Au	 6.68215908	 -6.68215908	 -10.50053570
Au	 6.68215908	 -10.50053570	 -6.68215908
Au	 -10.50053570	 6.68215908	 -6.68215908
Au	 10.50053570	 4.77297077	 4.77297077
Au	 4.77297077	 10.50053570	 4.77297077
Au	 4.77297077	 4.77297077	 10.50053570
Au	 4.77297077	 -4.77297077	 -10.50053570
Au	 4.77297077	 -10.50053570	 -4.77297077
Au	 -10.50053570	 4.77297077	 -4.77297077
Au	 10.50053570	 2.86378246	 2.86378246
Au	 2.86378246	 10.50053570	 2.86378246
Au	 2.86378246	 2.86378246	 10.50053570
Au	 2.86378246	 -2.86378246	 -10.50053570
Au	 2.86378246	 -10.50053570	 -2.86378246
Au	 -10.50053570	 2.86378246	 -2.86378246
Au	 10.50053570	 0.95459415	 0.95459415
Au	 0.95459415	 10.50053570	 0.95459415
Au	 0.95459415	 0.95459415	 10.50053570
Au	 0.95459415	 -0.95459415	 -10.50053570
Au	 0.95459415	 -10.50053570	 -0.95459415
Au	 -10.50053570	 0.95459415	 -0.95459415
Au	 10.50053570	 -0.95459415	 -0.95459415
Au	 -0.95459415	 10.50053570	 -0.95459415
Au	 -0.95459415	 -0.95459415	 10.50053570
Au	 -0.95459415	 0.95459415	 -10.50053570
Au	 -0.95459415	 -10.50053570	 0.95459415
Au	 -10.50053570	 -0.95459415	 0.95459415
Au	 10.50053570	 -2.86378246	 -2.86378246
Au	 -2.86378246	 10.50053570	 -2.86378246
Au	 -2.86378246	 -2.86378246	 10.50053570
Au	 -2.86378246	 2.86378246	 -10.50053570
Au	 -2.86378246	 -10.50053570	 2.86378246
Au	 -10.50053570	 -2.86378246	 2.86378246
Au	 10.50053570	 -4.77297077	 -4.77297077
Au	 -4.77297077	 10.50053570	 -4.77297077
Au	 -4.77297077	 -4.77297077	 10.50053570
Au	 -4.77297077	 4.77297077	 -10.50053570
Au	 -4.77297077	 -10.50053570	 4.77297077
Au	 -10.50053570	 -4.77297077	 4.77297077
Au	 10.50053570	 -6.68215908	 -6.68215908
Au	 -6.68215908	 10.50053570	 -6.68215908
Au	 -6.68215908	 -6.68215908	 10.50053570
Au	 -6.68215908	 6.68215908	 -10.50053570
Au	 -6.68215908	 -10.50053570	 6.68215908
Au	 -10.50053570	 -6.68215908	 6.68215908
Au	 10.50053570	 -8.59134739	 -8.59134739
Au	 -8.59134739	 10.50053570	 -8.59134739
Au	 -8.59134739	 -8.59134739	 10.50053570
Au	 -8.59134739	 8.59134739	 -10.50053570
Au	 -8.59134739	 -10.50053570	 8.59134739
Au	 -10.50053570	 -8.59134739	 8.59134739
Au	 -6.68215908	 8.59134739	 -8.59134739
Au	 -4.77297077	 8.59134739	 -6.68215908
Au	 -4.77297077	 6.68215908	 -8.59134739
Au	 -2.86378246	 8.59134739	 -4.77297077
Au	 -2.86378246	 6.68215908	 -6.68215908
Au	 -2.86378246	 4.77297077	 -8.59134739
Au	 -0.95459415	 8.59134739	 -2.86378246
Au	 -0.95459415	 6.68215908	 -4.77297077
Au	 -0.95459415	 4.77297077	 -6.68215908
Au	 -0.95459415	 2.86378246	 -8.59134739
Au	 0.95459415	 8.59134739	 -0.95459415
Au	 0.95459415	 6.68215908	 -2.86378246
Au	 0.95459415	 4.77297077	 -4.77297077
Au	 0.95459415	 2.86378246	 -6.68215908
Au	 0.95459415	 0.95459415	 -8.59134739
Au	 2.86378246	 8.59134739	 0.95459415
Au	 2.86378246	 6.68215908	 -0.95459415
Au	 2.86378246	 4.77297077	 -2.86378246
Au	 2.86378246	 2.86378246	 -4.77297077
Au	 2.86378246	 0.95459415	 -6.68215908
Au	 2.86378246	 -0.95459415	 -8.59134739
Au	 4.77297077	 8.59134739	 2.86378246
Au	 4.77297077	 6.68215908	 0.95459415
Au	 4.77297077	 4.77297077	 -0.95459415
Au	 4.77297077	 2.86378246	 -2.86378246
Au	 4.77297077	 0.95459415	 -4.77297077
Au	 4.77297077	 -0.95459415	 -6.68215908
Au	 4.77297077	 -2.86378246	 -8.59134739
Au	 6.68215908	 8.59134739	 4.77297077
Au	 6.68215908	 6.68215908	 2.86378246
Au	 6.68215908	 4.77297077	 0.95459415
Au	 6.68215908	 2.86378246	 -0.95459415
Au	 6.68215908	 0.95459415	 -2.86378246
Au	 6.68215908	 -0.95459415	 -4.77297077
Au	 6.68215908	 -2.86378246	 -6.68215908
Au	 6.68215908	 -4.77297077	 -8.59134739
Au	 8.59134739	 8.59134739	 6.68215908
Au	 8.59134739	 6.68215908	 4.77297077
Au	 8.59134739	 4.77297077	 2.86378246
Au	 8.59134739	 2.86378246	 0.95459415
Au	 8.59134739	 0.95459415	 -0.95459415
Au	 8.59134739	 -0.95459415	 -2.86378246
Au	 8.59134739	 -2.86378246	 -4.77297077
Au	 8.59134739	 -4.77297077	 -6.68215908
Au	 8.59134739	 -6.68215908	 -8.59134739
Au	 8.59134739	 -8.59134739	 -6.68215908
Au	 8.59134739	 -6.68215908	 -4.77297077
Au	 6.68215908	 -8.59134739	 -4.77297077
Au	 8.59134739	 -4.77297077	 -2.86378246
Au	 6.68215908	 -6.68215908	 -2.86378246
Au	 4.77297077	 -8.59134739	 -2.86378246
Au	 8.59134739	 -2.86378246	 -0.95459415
Au	 6.68215908	 -4.77297077	 -0.95459415
Au	 4.77297077	 -6.68215908	 -0.95459415
Au	 2.86378246	 -8.59134739	 -0.95459415
Au	 8.59134739	 -0.95459415	 0.95459415
Au	 6.68215908	 -2.86378246	 0.95459415
Au	 4.77297077	 -4.77297077	 0.95459415
Au	 2.86378246	 -6.68215908	 0.95459415
Au	 0.95459415	 -8.59134739	 0.95459415
Au	 8.59134739	 0.95459415	 2.86378246
Au	 6.68215908	 -0.95459415	 2.86378246
Au	 4.77297077	 -2.86378246	 2.86378246
Au	 2.86378246	 -4.77297077	 2.86378246
Au	 0.95459415	 -6.68215908	 2.86378246
Au	 -0.95459415	 -8.59134739	 2.86378246
Au	 8.59134739	 2.86378246	 4.77297077
Au	 6.68215908	 0.95459415	 4.77297077
Au	 4.77297077	 -0.95459415	 4.77297077
Au	 2.86378246	 -2.86378246	 4.77297077
Au	 0.95459415	 -4.77297077	 4.77297077
Au	 -0.95459415	 -6.68215908	 4.77297077
Au	 -2.86378246	 -8.59134739	 4.77297077
Au	 8.59134739	 4.77297077	 6.68215908
Au	 6.68215908	 2.86378246	 6.68215908
Au	 4.77297077	 0.95459415	 6.68215908
Au	 2.86378246	 -0.95459415	 6.68215908
Au	 0.95459415	 -2.86378246	 6.68215908
Au	 -0.95459415	 -4.77297077	 6.68215908
Au	 -2.86378246	 -6.68215908	 6.68215908
Au	 -4.77297077	 -8.59134739	 6.68215908
Au	 8.59134739	 6.68215908	 8.59134739
Au	 6.68215908	 4.77297077	 8.59134739
Au	 4.77297077	 2.86378246	 8.59134739
Au	 2.86378246	 0.95459415	 8.59134739
Au	 0.95459415	 -0.95459415	 8.59134739
Au	 -0.95459415	 -2.86378246	 8.59134739
Au	 -2.86378246	 -4.77297077	 8.59134739
Au	 -4.77297077	 -6.68215908	 8.59134739
Au	 -6.68215908	 -8.59134739	 8.59134739
Au	 -8.59134739	 -6.68215908	 8.59134739
Au	 -6.68215908	 -4.77297077	 8.59134739
Au	 -8.59134739	 -4.77297077	 6.68215908
Au	 -4.77297077	 -2.86378246	 8.59134739
Au	 -6.68215908	 -2.86378246	 6.68215908
Au	 -8.59134739	 -2.86378246	 4.77297077
Au	 -2.86378246	 -0.95459415	 8.59134739
Au	 -4.77297077	 -0.95459415	 6.68215908
Au	 -6.68215908	 -0.95459415	 4.77297077
Au	 -8.59134739	 -0.95459415	 2.86378246
Au	 -0.95459415	 0.95459415	 8.59134739
Au	 -2.86378246	 0.95459415	 6.68215908
Au	 -4.77297077	 0.95459415	 4.77297077
Au	 -6.68215908	 0.95459415	 2.86378246
Au	 -8.59134739	 0.95459415	 0.95459415
Au	 0.95459415	 2.86378246	 8.59134739
Au	 -0.95459415	 2.86378246	 6.68215908
Au	 -2.86378246	 2.86378246	 4.77297077
Au	 -4.77297077	 2.86378246	 2.86378246
Au	 -6.68215908	 2.86378246	 0.95459415
Au	 -8.59134739	 2.86378246	 -0.95459415
Au	 2.86378246	 4.77297077	 8.59134739
Au	 0.95459415	 4.77297077	 6.68215908
Au	 -0.95459415	 4.77297077	 4.77297077
Au	 -2.86378246	 4.77297077	 2.86378246
Au	 -4.77297077	 4.77297077	 0.95459415
Au	 -6.68215908	 4.77297077	 -0.95459415
Au	 -8.59134739	 4.77297077	 -2.86378246
Au	 4.77297077	 6.68215908	 8.59134739
Au	 2.86378246	 6.68215908	 6.68215908
Au	 0.95459415	 6.68215908	 4.77297077
Au	 -0.95459415	 6.68215908	 2.86378246
Au	 -2.86378246	 6.68215908	 0.95459415
Au	 -4.77297077	 6.68215908	 -0.95459415
Au	 -6.68215908	 6.68215908	 -2.86378246
Au	 -8.59134739	 6.68215908	 -4.77297077
Au	 6.68215908	 8.59134739	 8.59134739
Au	 4.77297077	 8.59134739	 6.68215908
Au	 2.86378246	 8.59134739	 4.77297077
Au	 0.95459415	 8.59134739	 2.86378246
Au	 -0.95459415	 8.59134739	 0.95459415
Au	 -2.86378246	 8.59134739	 -0.95459415
Au	 -4.77297077	 8.59134739	 -2.86378246
Au	 -6.68215908	 8.59134739	 -4.77297077
Au	 -8.59134739	 8.59134739	 -6.68215908
Au	 -8.59134739	 6.68215908	 -8.59134739
Au	 -6.68215908	 4.77297077	 -8.59134739
Au	 -8.59134739	 4.77297077	 -6.68215908
Au	 -4.77297077	 2.86378246	 -8.59134739
Au	 -6.68215908	 2.86378246	 -6.68215908
Au	 -8.59134739	 2.86378246	 -4.77297077
Au	 -2.86378246	 0.95459415	 -8.59134739
Au	 -4.77297077	 0.95459415	 -6.68215908
Au	 -6.68215908	 0.95459415	 -4.77297077
Au	 -8.59134739	 0.95459415	 -2.86378246
Au	 -0.95459415	 -0.95459415	 -8.59134739
Au	 -2.86378246	 -0.95459415	 -6.68215908
Au	 -4.77297077	 -0.95459415	 -4.77297077
Au	 -6.68215908	 -0.95459415	 -2.86378246
Au	 -8.59134739	 -0.95459415	 -0.95459415
Au	 0.95459415	 -2.86378246	 -8.59134739
Au	 -0.95459415	 -2.86378246	 -6.68215908
Au	 -2.86378246	 -2.86378246	 -4.77297077
Au	 -4.77297077	 -2.86378246	 -2.86378246
Au	 -6.68215908	 -2.86378246	 -0.95459415
Au	 -8.59134739	 -2.86378246	 0.95459415
Au	 2.86378246	 -4.77297077	 -8.59134739
Au	 0.95459415	 -4.77297077	 -6.68215908
Au	 -0.95459415	 -4.77297077	 -4.77297077
Au	 -2.86378246	 -4.77297077	 -2.86378246
Au	 -4.77297077	 -4.77297077	 -0.95459415
Au	 -6.68215908	 -4.77297077	 0.95459415
Au	 -8.59134739	 -4.77297077	 2.86378246
Au	 4.77297077	 -6.68215908	 -8.59134739
Au	 2.86378246	 -6.68215908	 -6.68215908
Au	 0.95459415	 -6.68215908	 -4.77297077
Au	 -0.95459415	 -6.68215908	 -2.86378246
Au	 -2.86378246	 -6.68215908	 -0.95459415
Au	 -4.77297077	 -6.68215908	 0.95459415
Au	 -6.68215908	 -6.68215908	 2.86378246
Au	 -8.59134739	 -6.68215908	 4.77297077
Au	 6.68215908	 -8.59134739	 -8.59134739
Au	 4.77297077	 -8.59134739	 -6.68215908
Au	 2.86378246	 -8.59134739	 -4.77297077
Au	 0.95459415	 -8.59134739	 -2.86378246
Au	 -0.95459415	 -8.59134739	 -0.95459415
Au	 -2.86378246	 -8.59134739	 0.95459415
Au	 -4.77297077	 -8.59134739	 2.86378246
Au	 -6.68215908	 -8.59134739	 4.77297077
Au	 -8.59134739	 -8.59134739	 6.68215908
Au	 6.68215908	 6.68215908	 6.68215908
Au	 4.77297077	 6.68215908	 4.77297077
Au	 6.68215908	 4.77297077	 4.77297077
Au	 4.77297077	 4.77297077	 6.68215908
Au	 2.86378246	 6.68215908	 2.86378246
Au	 4.77297077	 4.77297077	 2.86378246
Au	 2.86378246	 4.77297077	 4.77297077
Au	 6.68215908	 2.86378246	 2.86378246
Au	 4.77297077	 2.86378246	 4.77297077
Au	 2.86378246	 2.86378246	 6.68215908
Au	 0.95459415	 6.68215908	 0.95459415
Au	 2.86378246	 4.77297077	 0.95459415
Au	 0.95459415	 4.77297077	 2.86378246
Au	 4.77297077	 2.86378246	 0.95459415
Au	 2.86378246	 2.86378246	 2.86378246
Au	 0.95459415	 2.86378246	 4.77297077
Au	 6.68215908	 0.95459415	 0.95459415
Au	 4.77297077	 0.95459415	 2.86378246
Au	 2.86378246	 0.95459415	 4.77297077
Au	 0.95459415	 0.95459415	 6.68215908
Au	 -0.95459415	 6.68215908	 -0.95459415
Au	 0.95459415	 4.77297077	 -0.95459415
Au	 -0.95459415	 4.77297077	 0.95459415
Au	 2.86378246	 2.86378246	 -0.95459415
Au	 0.95459415	 2.86378246	 0.95459415
Au	 -0.95459415	 2.86378246	 2.86378246
Au	 4.77297077	 0.95459415	 -0.95459415
Au	 2.86378246	 0.95459415	 0.95459415
Au	 0.95459415	 0.95459415	 2.86378246
Au	 -0.95459415	 0.95459415	 4.77297077
Au	 6.68215908	 -0.95459415	 -0.95459415
Au	 4.77297077	 -0.95459415	 0.95459415
Au	 2.86378246	 -0.95459415	 2.86378246
Au	 0.95459415	 -0.95459415	 4.77297077
Au	 -0.95459415	 -0.95459415	 6.68215908
Au	 -2.86378246	 6.68215908	 -2.86378246
Au	 -0.95459415	 4.77297077	 -2.86378246
Au	 -2.86378246	 4.77297077	 -0.95459415
Au	 0.95459415	 2.86378246	 -2.86378246
Au	 -0.95459415	 2.86378246	 -0.95459415
Au	 -2.86378246	 2.86378246	 0.95459415
Au	 2.86378246	 0.95459415	 -2.86378246
Au	 0.95459415	 0.95459415	 -0.95459415
Au	 -0.95459415	 0.95459415	 0.95459415
Au	 -2.86378246	 0.95459415	 2.86378246
Au	 4.77297077	 -0.95459415	 -2.86378246
Au	 2.86378246	 -0.95459415	 -0.95459415
Au	 0.95459415	 -0.95459415	 0.95459415
Au	 -0.95459415	 -0.95459415	 2.86378246
Au	 -2.86378246	 -0.95459415	 4.77297077
Au	 6.68215908	 -2.86378246	 -2.86378246
Au	 4.77297077	 -2.86378246	 -0.95459415
Au	 2.86378246	 -2.86378246	 0.95459415
Au	 0.95459415	 -2.86378246	 2.86378246
Au	 -0.95459415	 -2.86378246	 4.77297077
Au	 -2.86378246	 -2.86378246	 6.68215908
Au	 -4.77297077	 6.68215908	 -4.77297077
Au	 -2.86378246	 4.77297077	 -4.77297077
Au	 -4.77297077	 4.77297077	 -2.86378246
Au	 -0.95459415	 2.86378246	 -4.77297077
Au	 -2.86378246	 2.86378246	 -2.86378246
Au	 -4.77297077	 2.86378246	 -0.95459415
Au	 0.95459415	 0.95459415	 -4.77297077
Au	 -0.95459415	 0.95459415	 -2.86378246
Au	 -2.86378246	 0.95459415	 -0.95459415
Au	 -4.77297077	 0.95459415	 0.95459415
Au	 2.86378246	 -0.95459415	 -4.77297077
Au	 0.95459415	 -0.95459415	 -2.86378246
Au	 -0.95459415	 -0.95459415	 -0.95459415
Au	 -2.86378246	 -0.95459415	 0.95459415
Au	 -4.77297077	 -0.95459415	 2.86378246
Au	 4.77297077	 -2.86378246	 -4.77297077
Au	 2.86378246	 -2.86378246	 -2.86378246
Au	 0.95459415	 -2.86378246	 -0.95459415
Au	 -0.95459415	 -2.86378246	 0.95459415
Au	 -2.86378246	 -2.86378246	 2.86378246
Au	 -4.77297077	 -2.86378246	 4.77297077
Au	 6.68215908	 -4.77297077	 -4.77297077
Au	 4.77297077	 -4.77297077	 -2.86378246
Au	 2.86378246	 -4.77297077	 -0.95459415
Au	 0.95459415	 -4.77297077	 0.95459415
Au	 -0.95459415	 -4.77297077	 2.86378246
Au	 -2.86378246	 -4.77297077	 4.77297077
Au	 -4.77297077	 -4.77297077	 6.68215908
Au	 -6.68215908	 6.68215908	 -6.68215908
Au	 -4.77297077	 4.77297077	 -6.68215908
Au	 -6.68215908	 4.77297077	 -4.77297077
Au	 -2.86378246	 2.86378246	 -6.68215908
Au	 -4.77297077	 2.86378246	 -4.77297077
Au	 -6.68215908	 2.86378246	 -2.86378246
Au	 -0.95459415	 0.95459415	 -6.68215908
Au	 -2.86378246	 0.95459415	 -4.77297077
Au	 -4.77297077	 0.95459415	 -2.86378246
Au	 -6.68215908	 0.95459415	 -0.95459415
Au	 0.95459415	 -0.95459415	 -6.68215908
Au	 -0.95459415	 -0.95459415	 -4.77297077
Au	 -2.86378246	 -0.95459415	 -2.86378246
Au	 -4.77297077	 -0.95459415	 -0.95459415
Au	 -6.68215908	 -0.95459415	 0.95459415
Au	 2.86378246	 -2.86378246	 -6.68215908
Au	 0.95459415	 -2.86378246	 -4.77297077
Au	 -0.95459415	 -2.86378246	 -2.86378246
Au	 -2.86378246	 -2.86378246	 -0.95459415
Au	 -4.77297077	 -2.86378246	 0.95459415
Au	 -6.68215908	 -2.86378246	 2.86378246
Au	 4.77297077	 -4.77297077	 -6.68215908
Au	 2.86378246	 -4.77297077	 -4.77297077
Au	 0.95459415	 -4.77297077	 -2.86378246
Au	 -0.95459415	 -4.77297077	 -0.95459415
Au	 -2.86378246	 -4.77297077	 0.95459415
Au	 -4.77297077	 -4.77297077	 2.86378246
Au	 -6.68215908	 -4.77297077	 4.77297077
Au	 6.68215908	 -6.68215908	 -6.68215908
Au	 4.77297077	 -6.68215908	 -4.77297077
Au	 2.86378246	 -6.68215908	 -2.86378246
Au	 0.95459415	 -6.68215908	 -0.95459415
Au	 -0.95459415	 -6.68215908	 0.95459415
Au	 -2.86378246	 -6.68215908	 2.86378246
Au	 -4.77297077	 -6.68215908	 4.77297077
Au	 -6.68215908	 -6.68215908	 6.68215908
